
     E I G E N V A L U E   O U T P U T

 MODE NO    EIGENVALUE                       FREQUENCY   
                                     REAL PART            IMAGINARY PART
                           (RAD/TIME)      (CYCLES/TIME     (RAD/TIME)

      1  -0.1998401E-14   0.0000000E+00   0.0000000E+00   0.4470348E-07
      2  -0.1332268E-14   0.0000000E+00   0.0000000E+00   0.3650024E-07
      3  -0.4440892E-15   0.0000000E+00   0.0000000E+00   0.2107342E-07
      4   0.6661338E-15   0.2580957E-07   0.4107720E-08   0.0000000E+00
      5   0.1998401E-14   0.4470348E-07   0.7114780E-08   0.0000000E+00
      6   0.2886580E-14   0.5372690E-07   0.8550902E-08   0.0000000E+00
      7   0.1500000E+01   0.1224745E+01   0.1949242E+00   0.0000000E+00
      8   0.1500000E+01   0.1224745E+01   0.1949242E+00   0.0000000E+00
      9   0.2325765E+01   0.1525046E+01   0.2427186E+00   0.0000000E+00
     10   0.2325765E+01   0.1525046E+01   0.2427186E+00   0.0000000E+00

     P A R T I C I P A T I O N   F A C T O R S

MODE NO.   X-COMPONENT     Y-COMPONENT     Z-COMPONENT     X-ROTATION      Y-ROTATION      Z-ROTATION

      1  -0.5298507E+00  -0.4201367E+00  -0.3272087E+00  -0.1851658E+01  -0.6772589E+00   0.1034313E+01
      2   0.1637182E+01   0.1101076E+00  -0.2007102E+01  -0.2425533E+00   0.8444108E+00   0.2843237E+00
      3   0.1482180E+01   0.1892701E+01   0.7109549E+00  -0.2538769E+00  -0.1038242E+01   0.3434209E-01
      4  -0.1263122E+01   0.9198250E+00  -0.1813358E+01   0.3614029E+00  -0.1019817E+01  -0.5855023E+00
      5  -0.8146134E+00   0.1442516E+01   0.2652049E+00  -0.1027908E+01   0.1323625E+01  -0.8051310E+00
      6  -0.7635210E+00   0.1141102E+01   0.2042718E-01   0.7708477E+00   0.5400632E+00   0.1786186E+01
      7   0.3009839E-16   0.1193490E-14  -0.2442491E-14   0.7216450E-15   0.2053913E-14  -0.1318390E-14
      8  -0.7896052E-15   0.1481454E-14   0.0000000E+00  -0.4440892E-15  -0.4440892E-15  -0.6325958E-15
      9  -0.6661338E-15   0.8881784E-15  -0.6522560E-15  -0.6106227E-15   0.1804112E-15  -0.8326673E-15
     10  -0.5551115E-15  -0.1221245E-14   0.1693090E-14  -0.5828671E-15  -0.1457168E-15   0.3885781E-15

     E F F E C T I V E   M O D A L   M A S S

MODE NO.   X-COMPONENT     Y-COMPONENT     Z-COMPONENT     X-ROTATION      Y-ROTATION      Z-ROTATION

      1   0.2807418E+00   0.1765149E+00   0.1070656E+00   0.3428636E+01   0.4586797E+00   0.1069803E+01
      2   0.2680364E+01   0.1212369E-01   0.4028460E+01   0.5883208E-01   0.7130296E+00   0.8083997E-01
      3   0.2196857E+01   0.3582318E+01   0.5054568E+00   0.6445346E-01   0.1077946E+01   0.1179379E-02
      4   0.1595478E+01   0.8460781E+00   0.3288267E+01   0.1306121E+00   0.1040026E+01   0.3428130E+00
      5   0.6635950E+00   0.2080851E+01   0.7033366E-01   0.1056594E+01   0.1751983E+01   0.6482359E+00
      6   0.5829643E+00   0.1302114E+01   0.4172696E-03   0.5942062E+00   0.2916682E+00   0.3190462E+01
      7   0.9059129E-33   0.1424418E-29   0.5965761E-29   0.5207715E-30   0.4218557E-29   0.1738152E-29
      8   0.6234763E-30   0.2194706E-29   0.0000000E+00   0.1972152E-30   0.1972152E-30   0.4001775E-30
      9   0.4437343E-30   0.7888609E-30   0.4254379E-30   0.3728600E-30   0.3254822E-31   0.6933348E-30
     10   0.3081488E-30   0.1491440E-29   0.2866554E-29   0.3397340E-30   0.2123338E-31   0.1509929E-30
TOTAL     0.8000000E+01   0.8000000E+01   0.8000000E+01   0.5333333E+01   0.5333333E+01   0.5333333E+01

     T O T A L   E F F E C T I V E   M A S S

MODE NO.   X-COMPONENT     Y-COMPONENT     Z-COMPONENT     X-ROTATION      Y-ROTATION      Z-ROTATION

          0.8000000E+01   0.8000000E+01   0.8000000E+01   0.5333333E+01   0.5333333E+01   0.5333333E+01


                    E I G E N V A L U E    N U M B E R     1


 displacements (vx,vy,vz) for set NALL and time  0.1000000E+01

         1  2.546884E-01 -5.936366E-01  1.792986E-01
         2  2.546884E-01 -2.057692E-01  4.332707E-01
         3 -1.331790E-01 -2.057692E-01 -2.611008E-01
         4 -1.331790E-01 -5.936366E-01 -5.150729E-01
         5  7.162920E-04  1.007350E-01  1.792986E-01
         6  7.162920E-04  4.886024E-01  4.332707E-01
         7 -3.871511E-01  4.886024E-01 -2.611008E-01
         8 -3.871511E-01  1.007350E-01 -5.150729E-01
         9  2.546884E-01 -3.997029E-01  3.062847E-01
        10  6.075471E-02 -2.057692E-01  8.608496E-02
        11 -1.331790E-01 -3.997029E-01 -3.880869E-01
        12  6.075471E-02 -5.936366E-01 -1.678871E-01
        13  7.162920E-04  2.946687E-01  3.062847E-01
        14 -1.932174E-01  4.886024E-01  8.608496E-02
        15 -3.871511E-01  2.946687E-01 -3.880869E-01
        16 -1.932174E-01  1.007350E-01 -1.678871E-01
        17  1.277023E-01 -2.464508E-01  1.792986E-01
        18  1.277023E-01  1.414166E-01  4.332707E-01
        19 -2.601650E-01  1.414166E-01 -2.611008E-01
        20 -2.601650E-01 -2.464508E-01 -5.150729E-01

 stresses (elem, integ.pnt.,sxx,syy,szz,sxy,sxz,syz) for set EALL and time  0.1000000E+01

         1   1 -8.760354E-16 -1.922074E-15  4.579670E-16 -4.579670E-16  6.522560E-16 -9.992007E-16
         1   2  2.324529E-16 -3.816392E-16  8.396062E-16 -4.163336E-16  8.326673E-17 -1.665335E-16
         1   3  1.250736E-15  5.559789E-16  5.429684E-16 -2.775558E-16 -6.106227E-16  7.216450E-16
         1   4 -7.042977E-16 -3.330669E-16 -4.440892E-16  6.938894E-17  2.636780E-16  5.551115E-17
         1   5  1.942890E-16  1.075529E-16  2.498002E-16 -4.163336E-17  1.249001E-16 -1.110223E-16
         1   6  1.162265E-15  5.368969E-16  1.193490E-15 -1.249001E-16 -9.714451E-17  1.942890E-16
         1   7 -1.020017E-15  1.249001E-15 -2.220446E-15  1.526557E-16  1.665335E-16  4.163336E-16
         1   8 -2.775558E-16  8.708312E-16 -1.332268E-15 -9.714451E-17  3.608225E-16 -5.551115E-17
         1   9  4.579670E-16  4.943962E-16  3.330669E-16 -4.024558E-16  5.689893E-16 -4.440892E-16
         1  10 -8.257284E-16 -1.387779E-16 -2.548177E-16  2.498002E-16  8.049117E-16  2.775558E-16
         1  11 -1.387779E-16 -3.469447E-16  2.810252E-16  4.302114E-16  1.249001E-16 -1.387779E-16
         1  12  5.429684E-16 -6.696033E-16  4.747909E-16  6.522560E-16 -7.494005E-16 -1.110223E-16
         1  13 -6.938894E-16  2.220446E-16 -5.551115E-17  3.053113E-16  1.387779E-16  3.608225E-16
         1  14  2.775558E-17 -1.040834E-16  2.706169E-16  1.804112E-16  1.942890E-16 -1.387779E-16
         1  15  6.938894E-16 -4.961309E-16  8.448103E-16 -1.387779E-17  1.110223E-16 -1.387779E-16
         1  16 -1.096345E-15  5.828671E-16 -3.087808E-16  3.330669E-16 -5.134781E-16 -1.665335E-16
         1  17 -3.885781E-16  2.220446E-16 -6.383782E-16 -1.110223E-16  2.636780E-16 -4.163336E-16
         1  18  3.053113E-16 -2.671474E-16 -1.757292E-16 -6.245005E-16  9.853229E-16 -8.326673E-17
         1  19 -7.979728E-16  2.498002E-16 -8.465451E-16 -5.551115E-16  1.124101E-15  2.026157E-15
         1  20 -5.377643E-16  6.140921E-16 -1.387779E-16 -2.636780E-16  2.220446E-16  2.498002E-16
         1  21 -2.576064E-16  4.909267E-16  3.382711E-16  1.249001E-16 -8.881784E-16 -8.049117E-16
         1  22 -4.996004E-16 -5.273559E-16  3.330669E-16 -2.775558E-17 -2.220446E-16  1.332268E-15
         1  23  2.775558E-17  2.498002E-16  2.220446E-16 -1.249001E-16 -1.387779E-17  5.551115E-17
         1  24  5.377643E-16  9.254750E-16  5.759282E-16 -2.359224E-16  2.220446E-16 -2.775558E-16
         1  25 -8.326673E-16 -1.304512E-15  1.221245E-15  8.604228E-16 -1.637579E-15 -1.110223E-16
         1  26 -1.595946E-16  3.469447E-18  0.000000E+00  2.914335E-16 -3.469447E-16 -3.330669E-16
         1  27  6.106227E-16  1.303645E-15 -6.106227E-16 -2.220446E-16  9.714451E-16  1.110223E-16

                    E I G E N V A L U E    N U M B E R     2


 displacements (vx,vy,vz) for set NALL and time  0.1000000E+01

         1  9.963139E-02 -8.502598E-02 -4.708203E-02
         2  9.963139E-02  2.159541E-02 -3.637361E-01
         3 -6.989999E-03  2.159541E-02 -4.546936E-01
         4 -6.989999E-03 -8.502598E-02 -1.380395E-01
         5  4.162854E-01  5.931494E-03 -4.708203E-02
         6  4.162854E-01  1.125529E-01 -3.637361E-01
         7  3.096640E-01  1.125529E-01 -4.546936E-01
         8  3.096640E-01  5.931494E-03 -1.380395E-01
         9  9.963139E-02 -3.171528E-02 -2.054091E-01
        10  4.632070E-02  2.159541E-02 -4.092148E-01
        11 -6.989999E-03 -3.171528E-02 -2.963665E-01
        12  4.632070E-02 -8.502598E-02 -9.256077E-02
        13  4.162854E-01  5.924219E-02 -2.054091E-01
        14  3.629747E-01  1.125529E-01 -4.092148E-01
        15  3.096640E-01  5.924219E-02 -2.963665E-01
        16  3.629747E-01  5.931494E-03 -9.256077E-02
        17  2.579584E-01 -3.954724E-02 -4.708203E-02
        18  2.579584E-01  6.707415E-02 -3.637361E-01
        19  1.513370E-01  6.707415E-02 -4.546936E-01
        20  1.513370E-01 -3.954724E-02 -1.380395E-01

 stresses (elem, integ.pnt.,sxx,syy,szz,sxy,sxz,syz) for set EALL and time  0.1000000E+01

         1   1 -7.845287E-16 -1.474515E-17 -6.314393E-16  2.220446E-16 -2.775558E-17 -6.245005E-16
         1   2 -2.645453E-16 -2.272488E-16 -3.122502E-16  3.157197E-16 -1.942890E-16 -2.116363E-16
         1   3  2.168404E-16 -2.444876E-16  9.311128E-16  3.642919E-16 -3.330669E-16  5.238865E-16
         1   4 -1.682682E-16  1.717376E-16  2.775558E-16  1.873501E-16  6.106227E-16 -1.700029E-16
         1   5  3.122502E-16 -2.428613E-17  1.873501E-16  3.434752E-16  5.551115E-17 -1.873501E-16
         1   6  8.031770E-16  3.794708E-18  1.049508E-15  4.996004E-16 -5.134781E-16 -3.816392E-17
         1   7  4.961309E-16  3.738329E-16  1.193490E-15  1.144917E-16  1.082467E-15  3.608225E-16
         1   8  8.812395E-16  1.994932E-16  3.608225E-16  4.232725E-16 -1.110223E-16 -1.665335E-16
         1   9  1.269818E-15  2.352719E-16  3.226586E-16  6.106227E-16 -1.262879E-15 -6.106227E-16
         1  10 -5.048045E-16 -1.526557E-16 -2.118158E-16 -7.285839E-17  2.775558E-17 -5.204170E-17
         1  11  6.245005E-17 -1.526557E-16 -7.511353E-16 -1.387779E-17 -1.665335E-16  1.353084E-16
         1  12  5.724587E-16 -3.712308E-16 -3.776939E-16 -3.469447E-18 -3.191891E-16  6.349088E-16
         1  13 -4.649059E-16  1.734723E-16  6.245005E-17  2.706169E-16  8.326673E-17  2.116363E-16
         1  14 -6.938894E-18  7.806256E-17 -2.983724E-16 -2.081668E-17  1.110223E-16  0.000000E+00
         1  15  5.481726E-16 -2.463307E-16  1.769418E-16 -3.573530E-16  9.714451E-17 -7.632783E-17
         1  16 -9.020562E-16  4.961309E-16  5.342948E-16  5.412337E-16 -2.775558E-16  5.238865E-16
         1  17 -4.857226E-16  2.983724E-16 -1.231654E-16 -1.040834E-17 -2.359224E-16 -1.283695E-16
         1  18 -6.938894E-17 -1.240327E-16 -2.696509E-17 -7.424616E-16 -2.220446E-16 -8.118506E-16
         1  19 -9.831545E-16 -7.502679E-16  1.873501E-16 -1.075529E-15 -3.191891E-16  1.457168E-16
         1  20 -5.421011E-16 -3.556183E-17 -1.216041E-15 -3.816392E-16 -4.857226E-16  4.822531E-16
         1  21 -1.947227E-16  3.686287E-18 -1.500102E-15  9.020562E-17 -7.355228E-16  1.065120E-15
         1  22 -3.486794E-16 -3.226586E-16 -1.110223E-16 -1.734723E-16 -5.828671E-16  2.775558E-16
         1  23  3.122502E-17  1.734723E-16 -8.049117E-16 -2.914335E-16  9.714451E-17  1.769418E-16
         1  24  4.597017E-16 -6.613633E-18 -4.891920E-16 -4.510281E-16  6.938894E-16  1.491862E-16
         1  25 -5.065393E-16  1.040834E-16 -1.942890E-16  5.551115E-16 -1.609823E-15  4.718448E-16
         1  26 -7.979728E-17  4.007211E-16 -6.661338E-16 -1.838807E-16 -2.220446E-16 -1.144917E-16
         1  27  1.734723E-16 -3.089976E-17 -2.255141E-16 -1.085937E-15  1.026956E-15 -8.222589E-16

                    E I G E N V A L U E    N U M B E R     3


 displacements (vx,vy,vz) for set NALL and time  0.1000000E+01

         1  3.863820E-01  1.825466E-01 -5.819907E-02
         2  3.863820E-01  1.954249E-01  3.311416E-01
         3  3.735037E-01  1.954249E-01  2.359378E-01
         4  3.735037E-01  1.825466E-01 -1.534029E-01
         5 -2.958715E-03  2.777504E-01 -5.819907E-02
         6 -2.958715E-03  2.906287E-01  3.311416E-01
         7 -1.583700E-02  2.906287E-01  2.359378E-01
         8 -1.583700E-02  2.777504E-01 -1.534029E-01
         9  3.863820E-01  1.889857E-01  1.364713E-01
        10  3.799428E-01  1.954249E-01  2.835397E-01
        11  3.735037E-01  1.889857E-01  4.126745E-02
        12  3.799428E-01  1.825466E-01 -1.058010E-01
        13 -2.958715E-03  2.841896E-01  1.364713E-01
        14 -9.397857E-03  2.906287E-01  2.835397E-01
        15 -1.583700E-02  2.841896E-01  4.126745E-02
        16 -9.397857E-03  2.777504E-01 -1.058010E-01
        17  1.917116E-01  2.301485E-01 -5.819907E-02
        18  1.917116E-01  2.430268E-01  3.311416E-01
        19  1.788333E-01  2.430268E-01  2.359378E-01
        20  1.788333E-01  2.301485E-01 -1.534029E-01

 stresses (elem, integ.pnt.,sxx,syy,szz,sxy,sxz,syz) for set EALL and time  0.1000000E+01

         1   1 -1.214306E-17 -1.228184E-15  1.318390E-16  1.287165E-15  1.554312E-15 -1.450229E-15
         1   2  3.313322E-16 -1.373901E-15 -1.047773E-15 -8.218252E-16 -5.551115E-17 -7.077672E-16
         1   3  4.891920E-16 -4.579670E-16  9.358833E-16 -2.612927E-15 -1.790235E-15  1.727785E-15
         1   4 -1.484923E-15  4.510281E-16  2.164935E-15  1.214306E-16  8.049117E-16  3.816392E-16
         1   5 -9.471590E-16  6.245005E-17  2.081668E-16  2.255141E-17  8.049117E-16 -6.938894E-18
         1   6 -4.371503E-16  5.186823E-16 -6.123574E-16  7.546047E-17  6.938894E-16  7.216450E-16
         1   7  6.938894E-18  2.206568E-15 -2.220446E-16 -1.217776E-15 -3.469447E-16  1.665335E-15
         1   8  8.604228E-16  1.453698E-15  8.326673E-17  5.603157E-16 -1.110223E-16  1.665335E-16
         1   9  1.429412E-15  1.546506E-15 -3.642919E-16  2.440756E-15  1.665335E-16 -1.231654E-15
         1  10 -3.677614E-16 -4.996004E-16 -4.402401E-16 -3.382711E-16 -2.775558E-17  4.024558E-16
         1  11 -2.619432E-16 -1.387779E-17 -1.000935E-15 -1.942890E-16 -8.326673E-17 -2.532696E-16
         1  12 -2.116363E-16  1.144917E-16  1.372139E-15  1.283695E-16 -2.914335E-16 -2.151057E-16
         1  13 -5.342948E-16  2.081668E-16  1.290634E-15  3.469447E-17 -4.440892E-16  1.249001E-16
         1  14 -1.040834E-16  1.665335E-16  1.214306E-16  4.510281E-17 -5.551115E-17  2.012279E-16
         1  15  2.914335E-16 -4.406198E-16  6.765422E-17  2.480655E-16  2.359224E-16  3.018419E-16
         1  16 -2.914335E-16  1.054712E-15 -1.429412E-15  1.387779E-17  3.608225E-16 -6.591949E-16
         1  17  3.330669E-16  3.608225E-16 -8.500145E-17 -4.510281E-17 -1.249001E-16 -2.081668E-17
         1  18  9.159340E-16 -9.783840E-16  4.685969E-16  2.341877E-17 -6.245005E-16 -4.163336E-17
         1  19 -4.484260E-16  4.787837E-16 -1.006140E-15 -1.869165E-15 -1.332268E-15  2.185752E-15
         1  20 -6.886852E-16  2.251671E-15 -9.523632E-16  1.409463E-16  1.110223E-16  1.665335E-16
         1  21 -9.133319E-16  2.143251E-15  1.902124E-15  2.444225E-15  1.401657E-15 -2.019218E-15
         1  22  2.151057E-16  1.457168E-16  4.302114E-16  2.029626E-16 -1.304512E-15 -2.636780E-16
         1  23  3.851086E-16  9.922618E-16  2.775558E-17  8.847090E-17 -4.857226E-16  3.122502E-16
         1  24  6.730727E-16  5.204170E-18  7.840950E-16  2.246467E-16  1.110223E-16  1.040834E-17
         1  25 -1.505740E-15 -2.914335E-16 -2.636780E-15  1.786765E-15  1.526557E-15 -3.275158E-15
         1  26 -9.436896E-16 -2.775558E-16 -2.081668E-16 -4.475587E-16  2.359224E-16 -2.914335E-16
         1  27 -3.608225E-16 -2.224783E-15  1.290634E-15 -2.514482E-15 -1.054712E-15  1.144917E-15

                    E I G E N V A L U E    N U M B E R     4


 displacements (vx,vy,vz) for set NALL and time  0.1000000E+01

         1 -7.645630E-02  2.925229E-01 -4.856484E-01
         2 -7.645630E-02  7.295948E-02 -1.032171E-01
         3  1.431071E-01  7.295948E-02  3.230897E-02
         4  1.431071E-01  2.925229E-01 -3.501224E-01
         5 -4.588876E-01  1.569968E-01 -4.856484E-01
         6 -4.588876E-01 -6.256660E-02 -1.032171E-01
         7 -2.393243E-01 -6.256660E-02  3.230897E-02
         8 -2.393243E-01  1.569968E-01 -3.501224E-01
         9 -7.645630E-02  1.827412E-01 -2.944328E-01
        10  3.332539E-02  7.295948E-02 -3.545407E-02
        11  1.431071E-01  1.827412E-01 -1.589067E-01
        12  3.332539E-02  2.925229E-01 -4.178854E-01
        13 -4.588876E-01  4.721509E-02 -2.944328E-01
        14 -3.491059E-01 -6.256660E-02 -3.545407E-02
        15 -2.393243E-01  4.721509E-02 -1.589067E-01
        16 -3.491059E-01  1.569968E-01 -4.178854E-01
        17 -2.676720E-01  2.247598E-01 -4.856484E-01
        18 -2.676720E-01  5.196441E-03 -1.032171E-01
        19 -4.810858E-02  5.196441E-03  3.230897E-02
        20 -4.810858E-02  2.247598E-01 -3.501224E-01

 stresses (elem, integ.pnt.,sxx,syy,szz,sxy,sxz,syz) for set EALL and time  0.1000000E+01

         1   1  1.097646E-15  9.714451E-17 -4.163336E-17  1.457168E-16 -6.938894E-16  0.000000E+00
         1   2  5.212844E-16  1.700029E-16  3.434752E-16 -4.371503E-16 -2.498002E-16  3.469447E-17
         1   3 -8.825406E-17  1.266348E-16 -1.048640E-15 -7.494005E-16  3.469447E-16 -6.245005E-17
         1   4  1.916869E-16  1.457168E-16 -4.163336E-16  1.387779E-17 -1.124101E-15 -5.551115E-17
         1   5 -1.994932E-17  7.285839E-17  1.665335E-16 -2.636780E-16 -1.249001E-16  8.326673E-17
         1   6 -2.272488E-16 -2.298509E-16 -5.828671E-16 -3.955170E-16  9.298118E-16  1.804112E-16
         1   7 -1.075529E-16  1.457168E-16 -1.110223E-16  1.387779E-17 -1.512679E-15 -5.551115E-17
         1   8  6.765422E-17 -5.204170E-17  3.330669E-16 -1.804112E-16  8.326673E-17  8.326673E-17
         1   9  2.411266E-16 -5.707240E-16 -3.261280E-16 -1.457168E-16  1.693090E-15  6.383782E-16
         1  10  1.717376E-16  2.636780E-16 -3.922397E-16  1.040834E-16 -2.359224E-16 -6.245005E-17
         1  11 -2.389582E-16 -3.469447E-17  4.093947E-16  4.857226E-17 -8.326673E-17 -2.151057E-16
         1  12 -7.194766E-16 -3.018419E-16 -4.523345E-16  4.163336E-17  1.387779E-16 -2.498002E-16
         1  13  6.245005E-17  1.942890E-16 -4.440892E-16 -1.873501E-16 -2.775558E-16 -6.938894E-18
         1  14 -7.632783E-17 -6.938894E-18  3.053113E-16  2.775558E-17 -5.551115E-17 -5.551115E-17
         1  15 -1.457168E-16 -1.994932E-16 -3.053113E-16  3.538836E-16  2.498002E-16  1.179612E-16
         1  16  5.724587E-16  1.249001E-16  1.387779E-16 -4.232725E-16 -2.220446E-16  5.551115E-17
         1  17  6.487866E-16  6.938894E-18  4.371503E-16  6.245005E-17  6.938894E-17  1.595946E-16
         1  18  7.042977E-16 -8.673617E-17 -1.605198E-16  6.453171E-16  3.330669E-16  6.938894E-16
         1  19  1.433315E-16  8.326673E-17 -5.134781E-16  5.065393E-16  4.302114E-16 -1.249001E-16
         1  20  1.396452E-16 -2.810252E-16  6.140921E-16  2.775558E-17  1.526557E-16 -4.440892E-16
         1  21  2.133710E-16 -3.512815E-16  2.177078E-16 -2.775558E-16  2.220446E-16 -6.314393E-16
         1  22 -3.417405E-16 -1.734723E-16 -5.828671E-16  1.387779E-16  6.661338E-16  1.318390E-16
         1  23 -3.738329E-16 -1.318390E-16  4.718448E-16  1.249001E-16  8.326673E-17 -1.804112E-16
         1  24 -3.781697E-16  1.916869E-16  6.938894E-17  1.387779E-16 -3.191891E-16 -1.249001E-16
         1  25 -4.683753E-16 -4.579670E-16  5.551115E-16 -6.938894E-18  1.026956E-15  1.665335E-16
         1  26 -5.065393E-16 -1.734723E-17  4.718448E-16  4.093947E-16 -4.163336E-17  1.318390E-16
         1  27 -4.544976E-16  7.563394E-16 -8.326673E-17  7.147061E-16 -8.743006E-16  6.730727E-16

                    E I G E N V A L U E    N U M B E R     5


 displacements (vx,vy,vz) for set NALL and time  0.1000000E+01

         1 -5.009684E-01  1.385439E-01  4.740630E-01
         2 -5.009684E-01 -1.633803E-01 -2.229641E-02
         3 -1.990443E-01 -1.633803E-01 -4.077618E-01
         4 -1.990443E-01  1.385439E-01  8.859765E-02
         5 -4.609039E-03  5.240092E-01  4.740630E-01
         6 -4.609039E-03  2.220851E-01 -2.229641E-02
         7  2.973151E-01  2.220851E-01 -4.077618E-01
         8  2.973151E-01  5.240092E-01  8.859765E-02
         9 -5.009684E-01 -1.241821E-02  2.258833E-01
        10 -3.500064E-01 -1.633803E-01 -2.150291E-01
        11 -1.990443E-01 -1.241821E-02 -1.595821E-01
        12 -3.500064E-01  1.385439E-01  2.813303E-01
        13 -4.609039E-03  3.730471E-01  2.258833E-01
        14  1.463530E-01  2.220851E-01 -2.150291E-01
        15  2.973151E-01  3.730471E-01 -1.595821E-01
        16  1.463530E-01  5.240092E-01  2.813303E-01
        17 -2.527887E-01  3.312765E-01  4.740630E-01
        18 -2.527887E-01  2.935240E-02 -2.229641E-02
        19  4.913539E-02  2.935240E-02 -4.077618E-01
        20  4.913539E-02  3.312765E-01  8.859765E-02

 stresses (elem, integ.pnt.,sxx,syy,szz,sxy,sxz,syz) for set EALL and time  0.1000000E+01

         1   1 -6.726390E-16  1.207368E-15  1.625436E-15  2.914335E-16  5.134781E-16 -5.551115E-17
         1   2  1.114560E-16  7.147061E-16  1.304512E-15  4.302114E-16  3.608225E-16  1.387779E-16
         1   3  8.667112E-16  4.423545E-16  1.363709E-15  4.163336E-17  2.498002E-16  8.465451E-16
         1   4 -3.209238E-17  1.179612E-16  7.702172E-16  2.775558E-17  1.804112E-16 -2.636780E-16
         1   5  2.862294E-16  2.636780E-16  8.049117E-16  1.804112E-16 -2.081668E-16 -2.775558E-17
         1   6  4.414871E-16  7.129713E-16  1.466709E-15 -1.387779E-17 -6.800116E-16  3.191891E-16
         1   7  4.579670E-16 -1.033895E-15  1.124101E-15  1.804112E-16  5.412337E-16  5.551115E-17
         1   8  2.445960E-16 -1.040834E-16  1.387779E-17  3.469447E-16 -2.081668E-16  0.000000E+00
         1   9  3.989864E-17  1.017415E-15  1.491862E-16  2.220446E-16 -9.992007E-16  1.387779E-17
         1  10  7.459311E-17  6.106227E-16  6.752803E-16  5.828671E-16  6.938894E-16 -9.714451E-17
         1  11  5.689893E-16  8.326673E-17 -4.510281E-17  3.747003E-16  1.665335E-16  4.163336E-17
         1  12  9.935629E-16 -8.465451E-16 -2.950954E-16  1.526557E-16 -3.885781E-16  7.494005E-16
         1  13 -5.898060E-17  4.163336E-16  2.775558E-17  4.440892E-16  8.326673E-17 -1.526557E-16
         1  14  1.353084E-16  1.665335E-16 -5.551115E-17  8.326673E-17  5.551115E-17 -1.942890E-16
         1  15  3.295975E-16 -3.955170E-16  6.279699E-16 -4.024558E-16 -4.163336E-17  6.938894E-17
         1  16 -3.608225E-16  2.775558E-17  5.273559E-16  5.412337E-16 -5.967449E-16  2.081668E-16
         1  17 -4.267420E-16  2.498002E-16 -3.087808E-16 -4.163336E-17 -2.359224E-16 -1.249001E-16
         1  18 -5.551115E-16  8.326673E-17 -8.167092E-17 -8.187895E-16  1.665335E-16 -5.551115E-16
         1  19 -5.653030E-16 -4.649059E-16 -4.041906E-16 -5.412337E-16  7.494005E-16  2.775558E-17
         1  20 -2.701832E-16 -2.706169E-16 -1.342676E-15 -4.163336E-17 -1.387779E-16  1.526557E-16
         1  21  3.773024E-17 -8.829742E-16 -2.043721E-15  1.110223E-16 -1.151856E-15  9.992007E-16
         1  22 -1.734723E-16 -2.220446E-16 -7.702172E-16  2.220446E-16  0.000000E+00  1.387779E-16
         1  23  2.255141E-17  1.526557E-16 -9.159340E-16 -1.387779E-17  3.053113E-16 -1.387779E-17
         1  24  5.377643E-17 -2.654127E-16 -3.599551E-16 -3.053113E-16  5.828671E-16  1.387779E-16
         1  25 -1.214306E-17  1.318390E-16 -6.938894E-17  7.632783E-16 -1.748601E-15  5.551115E-16
         1  26  1.752071E-16  5.689893E-16 -7.008283E-16  1.387779E-16 -1.526557E-16 -6.938894E-17
         1  27  2.445960E-16  2.784231E-16 -2.498002E-16 -6.383782E-16  1.498801E-15 -6.800116E-16

                    E I G E N V A L U E    N U M B E R     6


 displacements (vx,vy,vz) for set NALL and time  0.1000000E+01

         1  1.382080E-01 -4.773823E-02 -4.071870E-02
         2  1.382080E-01  6.220817E-01 -2.432424E-01
         3 -5.316119E-01  6.220817E-01  4.582550E-02
         4 -5.316119E-01 -4.773823E-02  2.483492E-01
         5  3.407317E-01 -3.368061E-01 -4.071870E-02
         6  3.407317E-01  3.330138E-01 -2.432424E-01
         7 -3.290882E-01  3.330138E-01  4.582550E-02
         8 -3.290882E-01 -3.368061E-01  2.483492E-01
         9  1.382080E-01  2.871717E-01 -1.419805E-01
        10 -1.967020E-01  6.220817E-01 -9.870845E-02
        11 -5.316119E-01  2.871717E-01  1.470873E-01
        12 -1.967020E-01 -4.773823E-02  1.038152E-01
        13  3.407317E-01 -1.896170E-03 -1.419805E-01
        14  5.821720E-03  3.330138E-01 -9.870845E-02
        15 -3.290882E-01 -1.896170E-03  1.470873E-01
        16  5.821720E-03 -3.368061E-01  1.038152E-01
        17  2.394698E-01 -1.922722E-01 -4.071870E-02
        18  2.394698E-01  4.775477E-01 -2.432424E-01
        19 -4.303501E-01  4.775477E-01  4.582550E-02
        20 -4.303501E-01 -1.922722E-01  2.483492E-01

 stresses (elem, integ.pnt.,sxx,syy,szz,sxy,sxz,syz) for set EALL and time  0.1000000E+01

         1   1  8.014422E-16  6.591949E-16  2.636780E-16  4.718448E-16 -2.706169E-16  9.159340E-16
         1   2  1.821460E-16  1.072059E-15  8.118506E-16 -5.273559E-16  1.179612E-16  4.996004E-16
         1   3 -4.475587E-16  2.175343E-15 -6.262352E-16 -1.498801E-15  4.093947E-16  6.938894E-17
         1   4  3.053113E-16  6.938894E-18  2.775558E-17  7.494005E-16 -3.191891E-16  1.387779E-17
         1   5 -1.665335E-16 -3.122502E-16  2.498002E-16 -1.110223E-16 -1.249001E-16  3.747003E-16
         1   6 -6.522560E-16 -8.500145E-17 -1.006140E-16 -7.494005E-16  0.000000E+00  5.273559E-16
         1   7 -3.608225E-16 -5.898060E-16  8.881784E-16  4.163336E-16  5.551115E-17 -7.355228E-16
         1   8 -4.718448E-16 -1.734723E-15  8.326673E-17 -5.551115E-17 -3.469447E-17  6.106227E-16
         1   9 -7.494005E-16 -2.360091E-15  9.020562E-17 -4.996004E-16 -6.938894E-18  1.262879E-15
         1  10  5.551115E-16  2.359224E-16 -2.434794E-16  2.775558E-17  1.110223E-16  5.551115E-16
         1  11 -1.630640E-16  7.632783E-16  5.447032E-16 -1.387779E-16  3.469447E-17 -8.326673E-17
         1  12 -9.055257E-16  1.281961E-15 -5.750462E-16 -1.942890E-16 -4.163336E-17  0.000000E+00
         1  13  4.163336E-16 -1.249001E-16 -2.498002E-16  5.551115E-17 -4.857226E-17  9.714451E-17
         1  14  0.000000E+00  0.000000E+00  3.122502E-17 -5.551115E-17 -3.469447E-17 -1.526557E-16
         1  15 -4.163336E-16  1.994932E-16 -2.125036E-16 -2.775558E-17  0.000000E+00  9.714451E-17
         1  16  3.053113E-16 -4.996004E-16  7.494005E-16  0.000000E+00 -1.249001E-16 -2.636780E-16
         1  17  1.665335E-16 -7.910339E-16 -1.457168E-16 -8.326673E-17 -9.714451E-17  8.326673E-17
         1  18  1.387779E-16 -8.899131E-16 -1.550669E-16  0.000000E+00 -2.081668E-17  7.077672E-16
         1  19  1.410330E-15 -1.110223E-16 -7.632783E-16 -2.220446E-16  6.453171E-16  2.081668E-16
         1  20  5.915407E-16  8.673617E-17  2.567391E-16  8.326673E-17  1.318390E-16 -5.967449E-16
         1  21 -2.445960E-16  1.778092E-16 -5.386316E-16  6.383782E-16 -4.302114E-16 -4.163336E-17
         1  22  8.049117E-16 -3.400058E-16 -5.828671E-16 -2.220446E-16  2.706169E-16  2.498002E-16
         1  23  4.718448E-16  3.469447E-18 -2.220446E-16 -1.665335E-16  8.326673E-17 -6.106227E-16
         1  24  5.551115E-17  6.765422E-17 -3.955170E-16  1.942890E-16  7.632783E-17 -4.024558E-16
         1  25  1.665335E-16 -6.869505E-16  6.661338E-16 -2.220446E-16 -3.608225E-16  3.330669E-16
         1  26  1.665335E-16 -2.116363E-16 -3.885781E-16 -3.608225E-16 -1.179612E-16 -3.885781E-16
         1  27  3.053113E-16 -1.882175E-16 -3.400058E-16 -2.498002E-16  1.110223E-16 -1.387779E-16

                    E I G E N V A L U E    N U M B E R     7


 displacements (vx,vy,vz) for set NALL and time  0.1000000E+01

         1  8.402955E-01 -2.386881E-01 -6.016074E-01
         2  8.402955E-01  2.386881E-01  6.016074E-01
         3 -8.402955E-01  2.386881E-01 -6.016074E-01
         4 -8.402955E-01 -2.386881E-01  6.016074E-01
         5 -8.402955E-01  2.386881E-01 -6.016074E-01
         6 -8.402955E-01 -2.386881E-01  6.016074E-01
         7  8.402955E-01 -2.386881E-01 -6.016074E-01
         8  8.402955E-01  2.386881E-01  6.016074E-01
         9  8.402955E-01 -4.805120E-16 -7.748469E-16
        10 -5.993145E-17  2.386881E-01  4.773828E-16
        11 -8.402955E-01  7.244199E-16  3.411870E-16
        12 -5.396162E-16 -2.386881E-01  1.061177E-16
        13 -8.402955E-01 -2.297326E-16 -9.964479E-16
        14 -1.559012E-15 -2.386881E-01 -6.148569E-16
        15  8.402955E-01  1.153824E-16 -2.076771E-17
        16  1.674031E-15  2.386881E-01  8.204170E-16
        17 -2.220446E-16  1.165734E-15 -6.016074E-01
        18  6.661338E-16 -9.020562E-17  6.016074E-01
        19  1.568190E-15 -1.471046E-15 -6.016074E-01
        20 -6.661338E-16  4.996004E-16  6.016074E-01

 stresses (elem, integ.pnt.,sxx,syy,szz,sxy,sxz,syz) for set EALL and time  0.1000000E+01

         1   1  1.096587E-15  3.319190E-18 -1.901257E-15 -2.330016E-01 -9.244349E-02  3.254450E-01
         1   2  1.842493E-15  4.302114E-16 -3.816392E-16 -2.330016E-01 -9.244349E-02  6.498603E-16
         1   3  2.699472E-15 -1.785263E-16 -3.486794E-16 -2.330016E-01 -9.244349E-02 -3.254450E-01
         1   4 -2.539276E-16  3.548842E-16  5.551115E-16 -2.330016E-01 -3.255463E-16  3.254450E-01
         1   5  2.179772E-16  4.551353E-16 -1.110223E-16 -2.330016E-01  2.548280E-16  5.162866E-16
         1   6  7.730287E-16 -3.425436E-16 -9.575674E-16 -2.330016E-01  4.605021E-16 -3.254450E-01
         1   7 -4.261227E-16  6.555752E-16  1.110223E-15 -2.330016E-01  9.244349E-02  3.254450E-01
         1   8 -2.081680E-16  5.342948E-16 -1.110223E-16 -2.330016E-01  9.244349E-02  3.324059E-16
         1   9  1.289888E-16 -5.393487E-16 -2.914335E-16 -2.330016E-01  9.244349E-02 -3.254450E-01
         1  10 -1.609356E-16 -1.790522E-16 -1.834340E-15 -4.009263E-16 -9.244349E-02  3.254450E-01
         1  11  1.335875E-16  2.099015E-16 -3.160349E-17 -6.327132E-16 -9.244349E-02  4.510281E-16
         1  12  1.166202E-16 -1.505453E-16  5.152793E-16 -9.390932E-16 -9.244349E-02 -3.254450E-01
         1  13 -1.374824E-16 -1.125184E-16  3.218942E-16 -1.884532E-16 -1.005037E-16  3.254450E-01
         1  14 -2.130253E-16  1.429157E-16  7.881511E-17 -2.107689E-16  8.435373E-17  3.330669E-16
         1  15 -4.150382E-16 -3.893228E-16 -3.777753E-16 -3.232902E-16 -7.079469E-17 -3.254450E-01
         1  16  8.739024E-16 -4.027428E-17  8.655798E-16 -5.404268E-17  9.244349E-02  3.254450E-01
         1  17  6.410696E-16  8.500145E-17 -8.596225E-17  1.105614E-16  9.244349E-02  1.717376E-16
         1  18  4.298132E-16 -6.293290E-16 -1.470145E-16  2.161849E-16  9.244349E-02 -3.254450E-01
         1  19 -7.552285E-16  8.498642E-16 -2.095546E-15  2.330016E-01 -9.244349E-02  3.254450E-01
         1  20 -1.297197E-15  3.504141E-16  3.261280E-16  2.330016E-01 -9.244349E-02  1.776028E-16
         1  21 -1.865451E-15 -9.192532E-16  1.222980E-15  2.330016E-01 -9.244349E-02 -3.254450E-01
         1  22 -4.304320E-16  7.892266E-16  1.665335E-16  2.330016E-01  2.737252E-16  3.254450E-01
         1  23 -1.219956E-15  1.221296E-16  2.775558E-16  2.330016E-01  1.636796E-16  6.658051E-17
         1  24 -1.984744E-15 -1.208071E-15  2.151057E-16  2.330016E-01 -4.390275E-16 -3.254450E-01
         1  25  1.007628E-15  6.833308E-16  5.551115E-16  2.330016E-01  9.244349E-02  3.254450E-01
         1  26  1.175714E-17 -9.367507E-17 -1.110223E-16  2.330016E-01  9.244349E-02 -8.954460E-17
         1  27 -9.907737E-16 -1.550693E-15  1.249001E-16  2.330016E-01  9.244349E-02 -3.254450E-01

                    E I G E N V A L U E    N U M B E R     8


 displacements (vx,vy,vz) for set NALL and time  0.1000000E+01

         1  2.095316E-01 -8.324830E-01  6.229514E-01
         2  2.095316E-01  8.324830E-01 -6.229514E-01
         3 -2.095316E-01  8.324830E-01  6.229514E-01
         4 -2.095316E-01 -8.324830E-01 -6.229514E-01
         5 -2.095316E-01  8.324830E-01  6.229514E-01
         6 -2.095316E-01 -8.324830E-01 -6.229514E-01
         7  2.095316E-01 -8.324830E-01  6.229514E-01
         8  2.095316E-01  8.324830E-01 -6.229514E-01
         9  2.095316E-01  5.584790E-16  3.125995E-17
        10 -4.458283E-17  8.324830E-01  6.519887E-16
        11 -2.095316E-01 -4.443547E-16 -1.666684E-15
        12  5.704498E-16 -8.324830E-01 -1.001923E-15
        13 -2.095316E-01 -1.198257E-16  2.019078E-16
        14 -5.962735E-16 -8.324830E-01 -6.492336E-16
        15  2.095316E-01  5.761770E-16  1.089603E-15
        16  2.543412E-16  8.324830E-01  1.003504E-15
        17 -5.551115E-17 -6.687359E-16  6.229514E-01
        18 -3.053113E-16  7.251144E-16 -6.229514E-01
        19  1.443290E-15 -1.110223E-16  6.229514E-01
        20  1.110223E-16 -3.330669E-16 -6.229514E-01

 stresses (elem, integ.pnt.,sxx,syy,szz,sxy,sxz,syz) for set EALL and time  0.1000000E+01

         1   1 -9.030069E-16 -2.645904E-16  1.582068E-15  2.412681E-01 -3.224193E-01  8.115124E-02
         1   2 -6.824513E-16 -3.553581E-16  1.110223E-16  2.412681E-01 -3.224193E-01  2.427643E-17
         1   3 -5.161635E-16 -5.606175E-16 -1.108488E-15  2.412681E-01 -3.224193E-01 -8.115124E-02
         1   4 -4.889527E-16 -1.482078E-16  4.440892E-16  2.412681E-01 -1.992260E-16  8.115124E-02
         1   5 -2.090754E-16 -2.336882E-16  1.942890E-16  2.412681E-01 -5.627818E-17  3.594245E-17
         1   6  7.309773E-17 -2.828709E-16 -3.469447E-16  2.412681E-01  4.850572E-17 -8.115124E-02
         1   7 -8.718997E-17 -2.090793E-16 -7.771561E-16  2.412681E-01  3.224193E-01  8.115124E-02
         1   8  2.519988E-16 -2.582136E-16  7.216450E-16  2.412681E-01  3.224193E-01  3.373068E-17
         1   9  5.928216E-16 -6.101717E-17  1.623701E-15  2.412681E-01  3.224193E-01 -8.115124E-02
         1  10 -3.803725E-16  5.458915E-16  1.589841E-15  3.277301E-16 -3.224193E-01  8.115124E-02
         1  11 -1.788445E-16  3.744834E-16  5.858602E-17 -5.857311E-17 -3.224193E-01 -1.526557E-16
         1  12  2.902225E-17 -4.769362E-16 -1.250240E-15 -3.928346E-16 -3.224193E-01 -8.115124E-02
         1  13 -3.203244E-16  2.931638E-16  8.662132E-16  7.097335E-16  1.223386E-16  8.115124E-02
         1  14 -8.885606E-17  3.116535E-16  3.110399E-16  3.026008E-16  7.506518E-18 -1.526557E-16
         1  15  1.376426E-16 -1.814913E-16 -4.144465E-16 -1.149401E-16 -1.159992E-16 -8.115124E-02
         1  16  1.629708E-16 -9.220034E-18 -3.462056E-16  1.213167E-15  3.224193E-01  8.115124E-02
         1  17  4.338877E-16  3.744834E-16  1.060000E-15  7.817360E-16  3.224193E-01 -1.526557E-16
         1  18  6.625712E-16  2.169532E-16  1.956441E-15  3.520392E-16  3.224193E-01 -8.115124E-02
         1  19 -4.133186E-16  2.039122E-15  1.637579E-15 -2.412681E-01 -3.224193E-01  8.115124E-02
         1  20 -2.464308E-16  3.940424E-16  6.938894E-18 -2.412681E-01 -3.224193E-01 -2.601988E-16
         1  21 -2.474053E-17 -2.277994E-15 -1.653191E-15 -2.412681E-01 -3.224193E-01 -8.115124E-02
         1  22 -4.486807E-16  1.382590E-15  1.276756E-15 -2.412681E-01  3.294115E-16  8.115124E-02
         1  23 -3.003159E-16  4.242683E-16  4.440892E-16 -2.412681E-01 -3.279220E-17 -2.302315E-16
         1  24 -1.711250E-16 -1.734132E-15 -5.204170E-16 -2.412681E-01 -4.210167E-16 -8.115124E-02
         1  25  3.521913E-16  7.068547E-16  5.551115E-16 -2.412681E-01  3.224193E-01  8.115124E-02
         1  26  5.218767E-16  2.830201E-16  1.387779E-15 -2.412681E-01  3.224193E-01 -2.037336E-16
         1  27  6.852583E-16 -9.734817E-16  1.984524E-15 -2.412681E-01  3.224193E-01 -8.115124E-02

                    E I G E N V A L U E    N U M B E R     9


 displacements (vx,vy,vz) for set NALL and time  0.1000000E+01

         1  2.160382E-02  7.152522E-01 -2.006021E-01
         2 -6.280821E-01 -9.469178E-01  2.063434E-01
         3 -3.166681E-01  7.145469E-01  3.682076E-02
         4 -2.898102E-01 -9.476231E-01 -3.701247E-01
         5 -3.166681E-01  7.145469E-01  3.682076E-02
         6 -2.898102E-01 -9.476231E-01 -3.701247E-01
         7  2.160382E-02  7.152522E-01 -2.006021E-01
         8 -6.280821E-01 -9.469178E-01  2.063434E-01
         9 -3.032392E-01 -2.984963E-03  1.254511E-01
        10  1.299494E-01 -1.161855E-01  1.218377E-01
        11 -3.032392E-01 -3.690245E-03 -4.407156E-02
        12  4.682214E-01 -1.161855E-01 -2.851078E-01
        13 -3.032392E-01 -3.690245E-03 -4.407156E-02
        14  4.682214E-01 -1.161855E-01 -2.851078E-01
        15 -3.032392E-01 -2.984963E-03  1.254511E-01
        16  1.299494E-01 -1.161855E-01  1.218377E-01
        17 -2.949980E-01  7.763299E-01 -8.189067E-02
        18 -6.064120E-01 -8.858401E-01 -8.189067E-02
        19 -2.949980E-01  7.763299E-01 -8.189067E-02
        20 -6.064120E-01 -8.858401E-01 -8.189067E-02

 stresses (elem, integ.pnt.,sxx,syy,szz,sxy,sxz,syz) for set EALL and time  0.1000000E+01

         1   1 -2.516223E-01 -6.440288E-01  9.195348E-02  1.717873E-01 -5.977573E-03  1.481720E-02
         1   2 -2.516223E-01 -2.731545E-04 -6.565584E-02  1.446808E-01 -3.542189E-02  1.481720E-02
         1   3 -2.516223E-01  6.434825E-01 -2.232652E-01  1.175743E-01 -6.486620E-02  1.481720E-02
         1   4 -1.310122E-01 -6.440288E-01  1.576093E-01  2.710651E-02 -5.977573E-03  1.475581E-02
         1   5 -1.310122E-01 -2.731545E-04 -2.192690E-15 -3.226586E-16 -3.542189E-02  1.475581E-02
         1   6 -1.310122E-01  6.434825E-01 -1.576093E-01 -2.710651E-02 -6.486620E-02  1.475581E-02
         1   7 -1.040204E-02 -6.440288E-01  2.232652E-01 -1.175743E-01 -5.977573E-03  1.469442E-02
         1   8 -1.040204E-02 -2.731545E-04  6.565584E-02 -1.446808E-01 -3.542189E-02  1.469442E-02
         1   9 -1.040204E-02  6.434825E-01 -9.195348E-02 -1.717873E-01 -6.486620E-02  1.469442E-02
         1  10 -1.206101E-01 -6.437557E-01  9.195348E-02  1.717873E-01  2.944431E-02  6.139008E-05
         1  11 -1.206101E-01 -9.992007E-16 -6.565584E-02  1.446808E-01  1.196959E-16  6.139008E-05
         1  12 -1.206101E-01  6.437557E-01 -2.232652E-01  1.175743E-01 -2.944431E-02  6.139008E-05
         1  13  1.665335E-15 -6.437557E-01  1.576093E-01  2.710651E-02  2.944431E-02  5.412337E-16
         1  14  9.159340E-16 -7.771561E-16 -2.404327E-15 -2.775558E-16 -4.215378E-16  1.283695E-16
         1  15  1.665335E-16  6.437557E-01 -1.576093E-01 -2.710651E-02 -2.944431E-02 -5.507747E-17
         1  16  1.206101E-01 -6.437557E-01  2.232652E-01 -1.175743E-01  2.944431E-02 -6.139008E-05
         1  17  1.206101E-01 -4.996004E-16  6.565584E-02 -1.446808E-01  3.963843E-16 -6.139008E-05
         1  18  1.206101E-01  6.437557E-01 -9.195348E-02 -1.717873E-01 -2.944431E-02 -6.139008E-05
         1  19  1.040204E-02 -6.434825E-01  9.195348E-02  1.717873E-01  6.486620E-02 -1.469442E-02
         1  20  1.040204E-02  2.731545E-04 -6.565584E-02  1.446808E-01  3.542189E-02 -1.469442E-02
         1  21  1.040204E-02  6.440288E-01 -2.232652E-01  1.175743E-01  5.977573E-03 -1.469442E-02
         1  22  1.310122E-01 -6.434825E-01  1.576093E-01  2.710651E-02  6.486620E-02 -1.475581E-02
         1  23  1.310122E-01  2.731545E-04 -2.636780E-15 -3.226586E-16  3.542189E-02 -1.475581E-02
         1  24  1.310122E-01  6.440288E-01 -1.576093E-01 -2.710651E-02  5.977573E-03 -1.475581E-02
         1  25  2.516223E-01 -6.434825E-01  2.232652E-01 -1.175743E-01  6.486620E-02 -1.481720E-02
         1  26  2.516223E-01  2.731545E-04  6.565584E-02 -1.446808E-01  3.542189E-02 -1.481720E-02
         1  27  2.516223E-01  6.440288E-01 -9.195348E-02 -1.717873E-01  5.977573E-03 -1.481720E-02

                    E I G E N V A L U E    N U M B E R    10


 displacements (vx,vy,vz) for set NALL and time  0.1000000E+01

         1  2.034727E-01 -6.116865E-01 -2.102454E-02
         2  2.225612E-02 -4.807331E-01  3.152115E-01
         3 -6.212881E-01  7.824481E-01  2.961250E-01
         4  8.470169E-01  9.134015E-01 -4.011104E-02
         5 -6.212881E-01  7.824481E-01  2.961250E-01
         6  8.470169E-01  9.134015E-01 -4.011104E-02
         7  2.034727E-01 -6.116865E-01 -2.102454E-02
         8  2.225612E-02 -4.807331E-01  3.152115E-01
         9  1.128644E-01 -7.794125E-01  4.459641E-01
        10 -3.469699E-01  1.508575E-01 -1.995277E-01
        11  1.128644E-01  6.147221E-01  4.268776E-01
        12  4.777909E-01  1.508575E-01 -5.357637E-01
        13  1.128644E-01  6.147221E-01  4.268776E-01
        14  4.777909E-01  1.508575E-01 -5.357637E-01
        15  1.128644E-01 -7.794125E-01  4.459641E-01
        16 -3.469699E-01  1.508575E-01 -1.995277E-01
        17 -3.307504E-01  9.229722E-02  1.375503E-01
        18  3.127938E-01  2.232506E-01  1.375503E-01
        19 -3.307504E-01  9.229722E-02  1.375503E-01
        20  3.127938E-01  2.232506E-01  1.375503E-01

 stresses (elem, integ.pnt.,sxx,syy,szz,sxy,sxz,syz) for set EALL and time  0.1000000E+01

         1   1 -7.018488E-02  5.906641E-01  1.228315E-01 -6.741484E-02  4.252281E-02 -1.196887E-01
         1   2 -7.018488E-02  5.399460E-01 -7.392167E-03 -1.139862E-02 -2.926710E-02 -1.196887E-01
         1   3 -7.018488E-02  4.892280E-01 -1.376158E-01  4.461760E-02 -1.010570E-01 -1.196887E-01
         1   4 -3.194285E-01  5.906641E-01  1.302237E-01 -5.601622E-02  4.252281E-02  1.661352E-03
         1   5 -3.194285E-01  5.399460E-01  1.700029E-15 -5.169476E-16 -2.926710E-02  1.661352E-03
         1   6 -3.194285E-01  4.892280E-01 -1.302237E-01  5.601622E-02 -1.010570E-01  1.661352E-03
         1   7 -5.686721E-01  5.906641E-01  1.376158E-01 -4.461760E-02  4.252281E-02  1.230114E-01
         1   8 -5.686721E-01  5.399460E-01  7.392167E-03  1.139862E-02 -2.926710E-02  1.230114E-01
         1   9 -5.686721E-01  4.892280E-01 -1.228315E-01  6.741484E-02 -1.010570E-01  1.230114E-01
         1  10  2.492436E-01  5.071805E-02  1.228315E-01 -6.741484E-02  7.178991E-02 -1.213501E-01
         1  11  2.492436E-01 -4.787837E-16 -7.392167E-03 -1.139862E-02 -3.196228E-16 -1.213501E-01
         1  12  2.492436E-01 -5.071805E-02 -1.376158E-01  4.461760E-02 -7.178991E-02 -1.213501E-01
         1  13  9.714451E-17  5.071805E-02  1.302237E-01 -5.601622E-02  7.178991E-02  4.822531E-16
         1  14  1.526557E-16 -3.538836E-16  1.283695E-15 -5.308254E-16  1.318390E-16  8.326673E-17
         1  15  1.249001E-16 -5.071805E-02 -1.302237E-01  5.601622E-02 -7.178991E-02  4.553649E-17
         1  16 -2.492436E-01  5.071805E-02  1.376158E-01 -4.461760E-02  7.178991E-02  1.213501E-01
         1  17 -2.492436E-01 -2.567391E-16  7.392167E-03  1.139862E-02  3.469447E-18  1.213501E-01
         1  18 -2.492436E-01 -5.071805E-02 -1.228315E-01  6.741484E-02 -7.178991E-02  1.213501E-01
         1  19  5.686721E-01 -4.892280E-01  1.228315E-01 -6.741484E-02  1.010570E-01 -1.230114E-01
         1  20  5.686721E-01 -5.399460E-01 -7.392167E-03 -1.139862E-02  2.926710E-02 -1.230114E-01
         1  21  5.686721E-01 -5.906641E-01 -1.376158E-01  4.461760E-02 -4.252281E-02 -1.230114E-01
         1  22  3.194285E-01 -4.892280E-01  1.302237E-01 -5.601622E-02  1.010570E-01 -1.661352E-03
         1  23  3.194285E-01 -5.399460E-01  9.020562E-16 -6.938894E-16  2.926710E-02 -1.661352E-03
         1  24  3.194285E-01 -5.906641E-01 -1.302237E-01  5.601622E-02 -4.252281E-02 -1.661352E-03
         1  25  7.018488E-02 -4.892280E-01  1.376158E-01 -4.461760E-02  1.010570E-01  1.196887E-01
         1  26  7.018488E-02 -5.399460E-01  7.392167E-03  1.139862E-02  2.926710E-02  1.196887E-01
         1  27  7.018488E-02 -5.906641E-01 -1.228315E-01  6.741484E-02 -4.252281E-02  1.196887E-01
