    1C
    1UUSER                                                              
    1UDATE              06.march.2022                                   
    1UTIME              06:59:47                                        
    1UHOST                                                              
    1UPGM               CalculiX                                        
    1UVERSION           Version 2.17                             
    1UCOMPILETIME       Thu Jul 23 21:43:50 CEST 2020                    
    1UDIR                                                               
    1UDBN                                                               
    1UMAT    1EL                                                        
    2C                          1481                                     1
 -1         1 1.60000E+00 1.60000E+00 0.00000E+00
 -1         2 1.80000E+00 1.60000E+00 0.00000E+00
 -1         3 2.00000E+00 1.60000E+00 0.00000E+00
 -1         4 2.20000E+00 1.60000E+00 0.00000E+00
 -1         5 2.40000E+00 1.60000E+00 0.00000E+00
 -1         6 2.60000E+00 1.60000E+00 0.00000E+00
 -1         7 2.80000E+00 1.60000E+00 0.00000E+00
 -1         8 3.00000E+00 1.60000E+00 0.00000E+00
 -1         9 3.20000E+00 1.60000E+00 0.00000E+00
 -1        10 3.40000E+00 1.60000E+00 0.00000E+00
 -1        11 3.60000E+00 1.60000E+00 0.00000E+00
 -1        12 1.60000E+00 1.80000E+00 0.00000E+00
 -1        13 2.00000E+00 1.80000E+00 0.00000E+00
 -1        14 2.40000E+00 1.80000E+00 0.00000E+00
 -1        15 2.80000E+00 1.80000E+00 0.00000E+00
 -1        16 3.20000E+00 1.80000E+00 0.00000E+00
 -1        17 3.60000E+00 1.80000E+00 0.00000E+00
 -1        18 1.60000E+00 2.00000E+00 0.00000E+00
 -1        19 1.80000E+00 2.00000E+00 0.00000E+00
 -1        20 2.00000E+00 2.00000E+00 0.00000E+00
 -1        21 2.20000E+00 2.00000E+00 0.00000E+00
 -1        22 2.40000E+00 2.00000E+00 0.00000E+00
 -1        23 2.60000E+00 2.00000E+00 0.00000E+00
 -1        24 2.80000E+00 2.00000E+00 0.00000E+00
 -1        25 3.00000E+00 2.00000E+00 0.00000E+00
 -1        26 3.20000E+00 2.00000E+00 0.00000E+00
 -1        27 3.40000E+00 2.00000E+00 0.00000E+00
 -1        28 3.60000E+00 2.00000E+00 0.00000E+00
 -1        29 1.60000E+00 2.20000E+00 0.00000E+00
 -1        30 2.00000E+00 2.20000E+00 0.00000E+00
 -1        31 2.40000E+00 2.20000E+00 0.00000E+00
 -1        32 2.80000E+00 2.20000E+00 0.00000E+00
 -1        33 3.20000E+00 2.20000E+00 0.00000E+00
 -1        34 3.60000E+00 2.20000E+00 0.00000E+00
 -1        35 1.60000E+00 2.40000E+00 0.00000E+00
 -1        36 1.80000E+00 2.40000E+00 0.00000E+00
 -1        37 2.00000E+00 2.40000E+00 0.00000E+00
 -1        38 2.20000E+00 2.40000E+00 0.00000E+00
 -1        39 2.40000E+00 2.40000E+00 0.00000E+00
 -1        40 2.60000E+00 2.40000E+00 0.00000E+00
 -1        41 2.80000E+00 2.40000E+00 0.00000E+00
 -1        42 3.00000E+00 2.40000E+00 0.00000E+00
 -1        43 3.20000E+00 2.40000E+00 0.00000E+00
 -1        44 3.40000E+00 2.40000E+00 0.00000E+00
 -1        45 3.60000E+00 2.40000E+00 0.00000E+00
 -1        46 1.60000E+00 2.60000E+00 0.00000E+00
 -1        47 2.00000E+00 2.60000E+00 0.00000E+00
 -1        48 2.40000E+00 2.60000E+00 0.00000E+00
 -1        49 2.80000E+00 2.60000E+00 0.00000E+00
 -1        50 3.20000E+00 2.60000E+00 0.00000E+00
 -1        51 3.60000E+00 2.60000E+00 0.00000E+00
 -1        52 1.60000E+00 2.80000E+00 0.00000E+00
 -1        53 1.80000E+00 2.80000E+00 0.00000E+00
 -1        54 2.00000E+00 2.80000E+00 0.00000E+00
 -1        55 2.20000E+00 2.80000E+00 0.00000E+00
 -1        56 2.40000E+00 2.80000E+00 0.00000E+00
 -1        57 2.60000E+00 2.80000E+00 0.00000E+00
 -1        58 2.80000E+00 2.80000E+00 0.00000E+00
 -1        59 3.00000E+00 2.80000E+00 0.00000E+00
 -1        60 3.20000E+00 2.80000E+00 0.00000E+00
 -1        61 3.40000E+00 2.80000E+00 0.00000E+00
 -1        62 3.60000E+00 2.80000E+00 0.00000E+00
 -1        63 1.60000E+00 3.00000E+00 0.00000E+00
 -1        64 2.00000E+00 3.00000E+00 0.00000E+00
 -1        65 2.40000E+00 3.00000E+00 0.00000E+00
 -1        66 2.80000E+00 3.00000E+00 0.00000E+00
 -1        67 3.20000E+00 3.00000E+00 0.00000E+00
 -1        68 3.60000E+00 3.00000E+00 0.00000E+00
 -1        69 1.60000E+00 3.20000E+00 0.00000E+00
 -1        70 1.80000E+00 3.20000E+00 0.00000E+00
 -1        71 2.00000E+00 3.20000E+00 0.00000E+00
 -1        72 2.20000E+00 3.20000E+00 0.00000E+00
 -1        73 2.40000E+00 3.20000E+00 0.00000E+00
 -1        74 2.60000E+00 3.20000E+00 0.00000E+00
 -1        75 2.80000E+00 3.20000E+00 0.00000E+00
 -1        76 3.00000E+00 3.20000E+00 0.00000E+00
 -1        77 3.20000E+00 3.20000E+00 0.00000E+00
 -1        78 3.40000E+00 3.20000E+00 0.00000E+00
 -1        79 3.60000E+00 3.20000E+00 0.00000E+00
 -1        80 1.60000E+00 3.40000E+00 0.00000E+00
 -1        81 2.00000E+00 3.40000E+00 0.00000E+00
 -1        82 2.40000E+00 3.40000E+00 0.00000E+00
 -1        83 2.80000E+00 3.40000E+00 0.00000E+00
 -1        84 3.20000E+00 3.40000E+00 0.00000E+00
 -1        85 3.60000E+00 3.40000E+00 0.00000E+00
 -1        86 1.60000E+00 3.60000E+00 0.00000E+00
 -1        87 1.80000E+00 3.60000E+00 0.00000E+00
 -1        88 2.00000E+00 3.60000E+00 0.00000E+00
 -1        89 2.20000E+00 3.60000E+00 0.00000E+00
 -1        90 2.40000E+00 3.60000E+00 0.00000E+00
 -1        91 2.60000E+00 3.60000E+00 0.00000E+00
 -1        92 2.80000E+00 3.60000E+00 0.00000E+00
 -1        93 3.00000E+00 3.60000E+00 0.00000E+00
 -1        94 3.20000E+00 3.60000E+00 0.00000E+00
 -1        95 3.40000E+00 3.60000E+00 0.00000E+00
 -1        96 3.60000E+00 3.60000E+00 0.00000E+00
 -1        97 1.60000E+00 1.60000E+00 3.13750E-02
 -1        98 2.00000E+00 1.60000E+00 3.13750E-02
 -1        99 2.40000E+00 1.60000E+00 3.13750E-02
 -1       100 2.80000E+00 1.60000E+00 3.13750E-02
 -1       101 3.20000E+00 1.60000E+00 3.13750E-02
 -1       102 3.60000E+00 1.60000E+00 3.13750E-02
 -1       103 1.60000E+00 2.00000E+00 3.13750E-02
 -1       104 2.00000E+00 2.00000E+00 3.13750E-02
 -1       105 2.40000E+00 2.00000E+00 3.13750E-02
 -1       106 2.80000E+00 2.00000E+00 3.13750E-02
 -1       107 3.20000E+00 2.00000E+00 3.13750E-02
 -1       108 3.60000E+00 2.00000E+00 3.13750E-02
 -1       109 1.60000E+00 2.40000E+00 3.13750E-02
 -1       110 2.00000E+00 2.40000E+00 3.13750E-02
 -1       111 2.40000E+00 2.40000E+00 3.13750E-02
 -1       112 2.80000E+00 2.40000E+00 3.13750E-02
 -1       113 3.20000E+00 2.40000E+00 3.13750E-02
 -1       114 3.60000E+00 2.40000E+00 3.13750E-02
 -1       115 1.60000E+00 2.80000E+00 3.13750E-02
 -1       116 2.00000E+00 2.80000E+00 3.13750E-02
 -1       117 2.40000E+00 2.80000E+00 3.13750E-02
 -1       118 2.80000E+00 2.80000E+00 3.13750E-02
 -1       119 3.20000E+00 2.80000E+00 3.13750E-02
 -1       120 3.60000E+00 2.80000E+00 3.13750E-02
 -1       121 1.60000E+00 3.20000E+00 3.13750E-02
 -1       122 2.00000E+00 3.20000E+00 3.13750E-02
 -1       123 2.40000E+00 3.20000E+00 3.13750E-02
 -1       124 2.80000E+00 3.20000E+00 3.13750E-02
 -1       125 3.20000E+00 3.20000E+00 3.13750E-02
 -1       126 3.60000E+00 3.20000E+00 3.13750E-02
 -1       127 1.60000E+00 3.60000E+00 3.13750E-02
 -1       128 2.00000E+00 3.60000E+00 3.13750E-02
 -1       129 2.40000E+00 3.60000E+00 3.13750E-02
 -1       130 2.80000E+00 3.60000E+00 3.13750E-02
 -1       131 3.20000E+00 3.60000E+00 3.13750E-02
 -1       132 3.60000E+00 3.60000E+00 3.13750E-02
 -1       133 1.60000E+00 1.60000E+00 6.27500E-02
 -1       134 1.80000E+00 1.60000E+00 6.27500E-02
 -1       135 2.00000E+00 1.60000E+00 6.27500E-02
 -1       136 2.20000E+00 1.60000E+00 6.27500E-02
 -1       137 2.40000E+00 1.60000E+00 6.27500E-02
 -1       138 2.60000E+00 1.60000E+00 6.27500E-02
 -1       139 2.80000E+00 1.60000E+00 6.27500E-02
 -1       140 3.00000E+00 1.60000E+00 6.27500E-02
 -1       141 3.20000E+00 1.60000E+00 6.27500E-02
 -1       142 3.40000E+00 1.60000E+00 6.27500E-02
 -1       143 3.60000E+00 1.60000E+00 6.27500E-02
 -1       144 1.60000E+00 1.80000E+00 6.27500E-02
 -1       145 2.00000E+00 1.80000E+00 6.27500E-02
 -1       146 2.40000E+00 1.80000E+00 6.27500E-02
 -1       147 2.80000E+00 1.80000E+00 6.27500E-02
 -1       148 3.20000E+00 1.80000E+00 6.27500E-02
 -1       149 3.60000E+00 1.80000E+00 6.27500E-02
 -1       150 1.60000E+00 2.00000E+00 6.27500E-02
 -1       151 1.80000E+00 2.00000E+00 6.27500E-02
 -1       152 2.00000E+00 2.00000E+00 6.27500E-02
 -1       153 2.20000E+00 2.00000E+00 6.27500E-02
 -1       154 2.40000E+00 2.00000E+00 6.27500E-02
 -1       155 2.60000E+00 2.00000E+00 6.27500E-02
 -1       156 2.80000E+00 2.00000E+00 6.27500E-02
 -1       157 3.00000E+00 2.00000E+00 6.27500E-02
 -1       158 3.20000E+00 2.00000E+00 6.27500E-02
 -1       159 3.40000E+00 2.00000E+00 6.27500E-02
 -1       160 3.60000E+00 2.00000E+00 6.27500E-02
 -1       161 1.60000E+00 2.20000E+00 6.27500E-02
 -1       162 2.00000E+00 2.20000E+00 6.27500E-02
 -1       163 2.40000E+00 2.20000E+00 6.27500E-02
 -1       164 2.80000E+00 2.20000E+00 6.27500E-02
 -1       165 3.20000E+00 2.20000E+00 6.27500E-02
 -1       166 3.60000E+00 2.20000E+00 6.27500E-02
 -1       167 1.60000E+00 2.40000E+00 6.27500E-02
 -1       168 1.80000E+00 2.40000E+00 6.27500E-02
 -1       169 2.00000E+00 2.40000E+00 6.27500E-02
 -1       170 2.20000E+00 2.40000E+00 6.27500E-02
 -1       171 2.40000E+00 2.40000E+00 6.27500E-02
 -1       172 2.60000E+00 2.40000E+00 6.27500E-02
 -1       173 2.80000E+00 2.40000E+00 6.27500E-02
 -1       174 3.00000E+00 2.40000E+00 6.27500E-02
 -1       175 3.20000E+00 2.40000E+00 6.27500E-02
 -1       176 3.40000E+00 2.40000E+00 6.27500E-02
 -1       177 3.60000E+00 2.40000E+00 6.27500E-02
 -1       178 1.60000E+00 2.60000E+00 6.27500E-02
 -1       179 2.00000E+00 2.60000E+00 6.27500E-02
 -1       180 2.40000E+00 2.60000E+00 6.27500E-02
 -1       181 2.80000E+00 2.60000E+00 6.27500E-02
 -1       182 3.20000E+00 2.60000E+00 6.27500E-02
 -1       183 3.60000E+00 2.60000E+00 6.27500E-02
 -1       184 1.60000E+00 2.80000E+00 6.27500E-02
 -1       185 1.80000E+00 2.80000E+00 6.27500E-02
 -1       186 2.00000E+00 2.80000E+00 6.27500E-02
 -1       187 2.20000E+00 2.80000E+00 6.27500E-02
 -1       188 2.40000E+00 2.80000E+00 6.27500E-02
 -1       189 2.60000E+00 2.80000E+00 6.27500E-02
 -1       190 2.80000E+00 2.80000E+00 6.27500E-02
 -1       191 3.00000E+00 2.80000E+00 6.27500E-02
 -1       192 3.20000E+00 2.80000E+00 6.27500E-02
 -1       193 3.40000E+00 2.80000E+00 6.27500E-02
 -1       194 3.60000E+00 2.80000E+00 6.27500E-02
 -1       195 1.60000E+00 3.00000E+00 6.27500E-02
 -1       196 2.00000E+00 3.00000E+00 6.27500E-02
 -1       197 2.40000E+00 3.00000E+00 6.27500E-02
 -1       198 2.80000E+00 3.00000E+00 6.27500E-02
 -1       199 3.20000E+00 3.00000E+00 6.27500E-02
 -1       200 3.60000E+00 3.00000E+00 6.27500E-02
 -1       201 1.60000E+00 3.20000E+00 6.27500E-02
 -1       202 1.80000E+00 3.20000E+00 6.27500E-02
 -1       203 2.00000E+00 3.20000E+00 6.27500E-02
 -1       204 2.20000E+00 3.20000E+00 6.27500E-02
 -1       205 2.40000E+00 3.20000E+00 6.27500E-02
 -1       206 2.60000E+00 3.20000E+00 6.27500E-02
 -1       207 2.80000E+00 3.20000E+00 6.27500E-02
 -1       208 3.00000E+00 3.20000E+00 6.27500E-02
 -1       209 3.20000E+00 3.20000E+00 6.27500E-02
 -1       210 3.40000E+00 3.20000E+00 6.27500E-02
 -1       211 3.60000E+00 3.20000E+00 6.27500E-02
 -1       212 1.60000E+00 3.40000E+00 6.27500E-02
 -1       213 2.00000E+00 3.40000E+00 6.27500E-02
 -1       214 2.40000E+00 3.40000E+00 6.27500E-02
 -1       215 2.80000E+00 3.40000E+00 6.27500E-02
 -1       216 3.20000E+00 3.40000E+00 6.27500E-02
 -1       217 3.60000E+00 3.40000E+00 6.27500E-02
 -1       218 1.60000E+00 3.60000E+00 6.27500E-02
 -1       219 1.80000E+00 3.60000E+00 6.27500E-02
 -1       220 2.00000E+00 3.60000E+00 6.27500E-02
 -1       221 2.20000E+00 3.60000E+00 6.27500E-02
 -1       222 2.40000E+00 3.60000E+00 6.27500E-02
 -1       223 2.60000E+00 3.60000E+00 6.27500E-02
 -1       224 2.80000E+00 3.60000E+00 6.27500E-02
 -1       225 3.00000E+00 3.60000E+00 6.27500E-02
 -1       226 3.20000E+00 3.60000E+00 6.27500E-02
 -1       227 3.40000E+00 3.60000E+00 6.27500E-02
 -1       228 3.60000E+00 3.60000E+00 6.27500E-02
 -1       229 1.60000E+00 1.60000E+00 9.41250E-02
 -1       230 2.00000E+00 1.60000E+00 9.41250E-02
 -1       231 2.40000E+00 1.60000E+00 9.41250E-02
 -1       232 2.80000E+00 1.60000E+00 9.41250E-02
 -1       233 3.20000E+00 1.60000E+00 9.41250E-02
 -1       234 3.60000E+00 1.60000E+00 9.41250E-02
 -1       235 1.60000E+00 2.00000E+00 9.41250E-02
 -1       236 2.00000E+00 2.00000E+00 9.41250E-02
 -1       237 2.40000E+00 2.00000E+00 9.41250E-02
 -1       238 2.80000E+00 2.00000E+00 9.41250E-02
 -1       239 3.20000E+00 2.00000E+00 9.41250E-02
 -1       240 3.60000E+00 2.00000E+00 9.41250E-02
 -1       241 1.60000E+00 2.40000E+00 9.41250E-02
 -1       242 2.00000E+00 2.40000E+00 9.41250E-02
 -1       243 2.40000E+00 2.40000E+00 9.41250E-02
 -1       244 2.80000E+00 2.40000E+00 9.41250E-02
 -1       245 3.20000E+00 2.40000E+00 9.41250E-02
 -1       246 3.60000E+00 2.40000E+00 9.41250E-02
 -1       247 1.60000E+00 2.80000E+00 9.41250E-02
 -1       248 2.00000E+00 2.80000E+00 9.41250E-02
 -1       249 2.40000E+00 2.80000E+00 9.41250E-02
 -1       250 2.80000E+00 2.80000E+00 9.41250E-02
 -1       251 3.20000E+00 2.80000E+00 9.41250E-02
 -1       252 3.60000E+00 2.80000E+00 9.41250E-02
 -1       253 1.60000E+00 3.20000E+00 9.41250E-02
 -1       254 2.00000E+00 3.20000E+00 9.41250E-02
 -1       255 2.40000E+00 3.20000E+00 9.41250E-02
 -1       256 2.80000E+00 3.20000E+00 9.41250E-02
 -1       257 3.20000E+00 3.20000E+00 9.41250E-02
 -1       258 3.60000E+00 3.20000E+00 9.41250E-02
 -1       259 1.60000E+00 3.60000E+00 9.41250E-02
 -1       260 2.00000E+00 3.60000E+00 9.41250E-02
 -1       261 2.40000E+00 3.60000E+00 9.41250E-02
 -1       262 2.80000E+00 3.60000E+00 9.41250E-02
 -1       263 3.20000E+00 3.60000E+00 9.41250E-02
 -1       264 3.60000E+00 3.60000E+00 9.41250E-02
 -1       265 1.20000E+00 0.00000E+00 1.25500E-01
 -1       266 1.40000E+00 0.00000E+00 1.25500E-01
 -1       267 1.60000E+00 0.00000E+00 1.25500E-01
 -1       268 1.80000E+00 0.00000E+00 1.25500E-01
 -1       269 2.00000E+00 0.00000E+00 1.25500E-01
 -1       270 2.20000E+00 0.00000E+00 1.25500E-01
 -1       271 2.40000E+00 0.00000E+00 1.25500E-01
 -1       272 2.60000E+00 0.00000E+00 1.25500E-01
 -1       273 2.80000E+00 0.00000E+00 1.25500E-01
 -1       274 3.00000E+00 0.00000E+00 1.25500E-01
 -1       275 3.20000E+00 0.00000E+00 1.25500E-01
 -1       276 3.40000E+00 0.00000E+00 1.25500E-01
 -1       277 3.60000E+00 0.00000E+00 1.25500E-01
 -1       278 3.80000E+00 0.00000E+00 1.25500E-01
 -1       279 4.00000E+00 0.00000E+00 1.25500E-01
 -1       280 1.20000E+00 2.00000E-01 1.25500E-01
 -1       281 1.60000E+00 2.00000E-01 1.25500E-01
 -1       282 2.00000E+00 2.00000E-01 1.25500E-01
 -1       283 2.40000E+00 2.00000E-01 1.25500E-01
 -1       284 2.80000E+00 2.00000E-01 1.25500E-01
 -1       285 3.20000E+00 2.00000E-01 1.25500E-01
 -1       286 3.60000E+00 2.00000E-01 1.25500E-01
 -1       287 4.00000E+00 2.00000E-01 1.25500E-01
 -1       288 1.20000E+00 4.00000E-01 1.25500E-01
 -1       289 1.40000E+00 4.00000E-01 1.25500E-01
 -1       290 1.60000E+00 4.00000E-01 1.25500E-01
 -1       291 1.80000E+00 4.00000E-01 1.25500E-01
 -1       292 2.00000E+00 4.00000E-01 1.25500E-01
 -1       293 2.20000E+00 4.00000E-01 1.25500E-01
 -1       294 2.40000E+00 4.00000E-01 1.25500E-01
 -1       295 2.60000E+00 4.00000E-01 1.25500E-01
 -1       296 2.80000E+00 4.00000E-01 1.25500E-01
 -1       297 3.00000E+00 4.00000E-01 1.25500E-01
 -1       298 3.20000E+00 4.00000E-01 1.25500E-01
 -1       299 3.40000E+00 4.00000E-01 1.25500E-01
 -1       300 3.60000E+00 4.00000E-01 1.25500E-01
 -1       301 3.80000E+00 4.00000E-01 1.25500E-01
 -1       302 4.00000E+00 4.00000E-01 1.25500E-01
 -1       303 1.20000E+00 6.00000E-01 1.25500E-01
 -1       304 1.60000E+00 6.00000E-01 1.25500E-01
 -1       305 2.00000E+00 6.00000E-01 1.25500E-01
 -1       306 2.40000E+00 6.00000E-01 1.25500E-01
 -1       307 2.80000E+00 6.00000E-01 1.25500E-01
 -1       308 3.20000E+00 6.00000E-01 1.25500E-01
 -1       309 3.60000E+00 6.00000E-01 1.25500E-01
 -1       310 4.00000E+00 6.00000E-01 1.25500E-01
 -1       311 8.00000E-01 8.00000E-01 1.25500E-01
 -1       312 1.00000E+00 8.00000E-01 1.25500E-01
 -1       313 1.20000E+00 8.00000E-01 1.25500E-01
 -1       314 1.40000E+00 8.00000E-01 1.25500E-01
 -1       315 1.60000E+00 8.00000E-01 1.25500E-01
 -1       316 1.80000E+00 8.00000E-01 1.25500E-01
 -1       317 2.00000E+00 8.00000E-01 1.25500E-01
 -1       318 2.20000E+00 8.00000E-01 1.25500E-01
 -1       319 2.40000E+00 8.00000E-01 1.25500E-01
 -1       320 2.80000E+00 8.00000E-01 1.25500E-01
 -1       321 3.00000E+00 8.00000E-01 1.25500E-01
 -1       322 3.20000E+00 8.00000E-01 1.25500E-01
 -1       323 3.40000E+00 8.00000E-01 1.25500E-01
 -1       324 3.60000E+00 8.00000E-01 1.25500E-01
 -1       325 3.80000E+00 8.00000E-01 1.25500E-01
 -1       326 4.00000E+00 8.00000E-01 1.25500E-01
 -1       327 4.20000E+00 8.00000E-01 1.25500E-01
 -1       328 4.40000E+00 8.00000E-01 1.25500E-01
 -1       329 8.00000E-01 1.00000E+00 1.25500E-01
 -1       330 1.20000E+00 1.00000E+00 1.25500E-01
 -1       331 1.60000E+00 1.00000E+00 1.25500E-01
 -1       332 3.20000E+00 1.00000E+00 1.25500E-01
 -1       333 3.60000E+00 1.00000E+00 1.25500E-01
 -1       334 4.00000E+00 1.00000E+00 1.25500E-01
 -1       335 4.40000E+00 1.00000E+00 1.25500E-01
 -1       336 0.00000E+00 1.20000E+00 1.25500E-01
 -1       337 2.00000E-01 1.20000E+00 1.25500E-01
 -1       338 4.00000E-01 1.20000E+00 1.25500E-01
 -1       339 6.00000E-01 1.20000E+00 1.25500E-01
 -1       340 8.00000E-01 1.20000E+00 1.25500E-01
 -1       341 1.00000E+00 1.20000E+00 1.25500E-01
 -1       342 1.20000E+00 1.20000E+00 1.25500E-01
 -1       343 1.40000E+00 1.20000E+00 1.25500E-01
 -1       344 1.60000E+00 1.20000E+00 1.25500E-01
 -1       345 3.20000E+00 1.20000E+00 1.25500E-01
 -1       346 3.40000E+00 1.20000E+00 1.25500E-01
 -1       347 3.60000E+00 1.20000E+00 1.25500E-01
 -1       348 3.80000E+00 1.20000E+00 1.25500E-01
 -1       349 4.00000E+00 1.20000E+00 1.25500E-01
 -1       350 4.20000E+00 1.20000E+00 1.25500E-01
 -1       351 4.40000E+00 1.20000E+00 1.25500E-01
 -1       352 4.60000E+00 1.20000E+00 1.25500E-01
 -1       353 4.80000E+00 1.20000E+00 1.25500E-01
 -1       354 5.00000E+00 1.20000E+00 1.25500E-01
 -1       355 5.20000E+00 1.20000E+00 1.25500E-01
 -1       356 0.00000E+00 1.40000E+00 1.25500E-01
 -1       357 4.00000E-01 1.40000E+00 1.25500E-01
 -1       358 8.00000E-01 1.40000E+00 1.25500E-01
 -1       359 1.20000E+00 1.40000E+00 1.25500E-01
 -1       360 1.60000E+00 1.40000E+00 1.25500E-01
 -1       361 3.60000E+00 1.40000E+00 1.25500E-01
 -1       362 4.00000E+00 1.40000E+00 1.25500E-01
 -1       363 4.40000E+00 1.40000E+00 1.25500E-01
 -1       364 4.80000E+00 1.40000E+00 1.25500E-01
 -1       365 5.20000E+00 1.40000E+00 1.25500E-01
 -1       366 0.00000E+00 1.60000E+00 1.25500E-01
 -1       367 2.00000E-01 1.60000E+00 1.25500E-01
 -1       368 4.00000E-01 1.60000E+00 1.25500E-01
 -1       369 6.00000E-01 1.60000E+00 1.25500E-01
 -1       370 8.00000E-01 1.60000E+00 1.25500E-01
 -1       371 1.00000E+00 1.60000E+00 1.25500E-01
 -1       372 1.20000E+00 1.60000E+00 1.25500E-01
 -1       373 1.40000E+00 1.60000E+00 1.25500E-01
 -1       374 1.60000E+00 1.60000E+00 1.25500E-01
 -1       375 1.80000E+00 1.60000E+00 1.25500E-01
 -1       376 2.00000E+00 1.60000E+00 1.25500E-01
 -1       377 2.20000E+00 1.60000E+00 1.25500E-01
 -1       378 2.40000E+00 1.60000E+00 1.25500E-01
 -1       379 2.60000E+00 1.60000E+00 1.25500E-01
 -1       380 2.80000E+00 1.60000E+00 1.25500E-01
 -1       381 3.00000E+00 1.60000E+00 1.25500E-01
 -1       382 3.20000E+00 1.60000E+00 1.25500E-01
 -1       383 3.40000E+00 1.60000E+00 1.25500E-01
 -1       384 3.60000E+00 1.60000E+00 1.25500E-01
 -1       385 3.80000E+00 1.60000E+00 1.25500E-01
 -1       386 4.00000E+00 1.60000E+00 1.25500E-01
 -1       387 4.20000E+00 1.60000E+00 1.25500E-01
 -1       388 4.40000E+00 1.60000E+00 1.25500E-01
 -1       389 4.60000E+00 1.60000E+00 1.25500E-01
 -1       390 4.80000E+00 1.60000E+00 1.25500E-01
 -1       391 5.00000E+00 1.60000E+00 1.25500E-01
 -1       392 5.20000E+00 1.60000E+00 1.25500E-01
 -1       393 0.00000E+00 1.80000E+00 1.25500E-01
 -1       394 4.00000E-01 1.80000E+00 1.25500E-01
 -1       395 8.00000E-01 1.80000E+00 1.25500E-01
 -1       396 1.20000E+00 1.80000E+00 1.25500E-01
 -1       397 1.60000E+00 1.80000E+00 1.25500E-01
 -1       398 2.00000E+00 1.80000E+00 1.25500E-01
 -1       399 2.40000E+00 1.80000E+00 1.25500E-01
 -1       400 2.80000E+00 1.80000E+00 1.25500E-01
 -1       401 3.20000E+00 1.80000E+00 1.25500E-01
 -1       402 3.60000E+00 1.80000E+00 1.25500E-01
 -1       403 4.40000E+00 1.80000E+00 1.25500E-01
 -1       404 4.80000E+00 1.80000E+00 1.25500E-01
 -1       405 5.20000E+00 1.80000E+00 1.25500E-01
 -1       406 0.00000E+00 2.00000E+00 1.25500E-01
 -1       407 2.00000E-01 2.00000E+00 1.25500E-01
 -1       408 4.00000E-01 2.00000E+00 1.25500E-01
 -1       409 6.00000E-01 2.00000E+00 1.25500E-01
 -1       410 8.00000E-01 2.00000E+00 1.25500E-01
 -1       411 1.00000E+00 2.00000E+00 1.25500E-01
 -1       412 1.20000E+00 2.00000E+00 1.25500E-01
 -1       413 1.60000E+00 2.00000E+00 1.25500E-01
 -1       414 1.80000E+00 2.00000E+00 1.25500E-01
 -1       415 2.00000E+00 2.00000E+00 1.25500E-01
 -1       416 2.20000E+00 2.00000E+00 1.25500E-01
 -1       417 2.40000E+00 2.00000E+00 1.25500E-01
 -1       418 2.60000E+00 2.00000E+00 1.25500E-01
 -1       419 2.80000E+00 2.00000E+00 1.25500E-01
 -1       420 3.00000E+00 2.00000E+00 1.25500E-01
 -1       421 3.20000E+00 2.00000E+00 1.25500E-01
 -1       422 3.40000E+00 2.00000E+00 1.25500E-01
 -1       423 3.60000E+00 2.00000E+00 1.25500E-01
 -1       424 4.40000E+00 2.00000E+00 1.25500E-01
 -1       425 4.60000E+00 2.00000E+00 1.25500E-01
 -1       426 4.80000E+00 2.00000E+00 1.25500E-01
 -1       427 5.00000E+00 2.00000E+00 1.25500E-01
 -1       428 5.20000E+00 2.00000E+00 1.25500E-01
 -1       429 0.00000E+00 2.20000E+00 1.25500E-01
 -1       430 4.00000E-01 2.20000E+00 1.25500E-01
 -1       431 8.00000E-01 2.20000E+00 1.25500E-01
 -1       432 1.60000E+00 2.20000E+00 1.25500E-01
 -1       433 2.00000E+00 2.20000E+00 1.25500E-01
 -1       434 2.40000E+00 2.20000E+00 1.25500E-01
 -1       435 2.80000E+00 2.20000E+00 1.25500E-01
 -1       436 3.20000E+00 2.20000E+00 1.25500E-01
 -1       437 3.60000E+00 2.20000E+00 1.25500E-01
 -1       438 4.80000E+00 2.20000E+00 1.25500E-01
 -1       439 5.20000E+00 2.20000E+00 1.25500E-01
 -1       440 0.00000E+00 2.40000E+00 1.25500E-01
 -1       441 2.00000E-01 2.40000E+00 1.25500E-01
 -1       442 4.00000E-01 2.40000E+00 1.25500E-01
 -1       443 6.00000E-01 2.40000E+00 1.25500E-01
 -1       444 8.00000E-01 2.40000E+00 1.25500E-01
 -1       445 1.60000E+00 2.40000E+00 1.25500E-01
 -1       446 1.80000E+00 2.40000E+00 1.25500E-01
 -1       447 2.00000E+00 2.40000E+00 1.25500E-01
 -1       448 2.20000E+00 2.40000E+00 1.25500E-01
 -1       449 2.40000E+00 2.40000E+00 1.25500E-01
 -1       450 2.60000E+00 2.40000E+00 1.25500E-01
 -1       451 2.80000E+00 2.40000E+00 1.25500E-01
 -1       452 3.00000E+00 2.40000E+00 1.25500E-01
 -1       453 3.20000E+00 2.40000E+00 1.25500E-01
 -1       454 3.40000E+00 2.40000E+00 1.25500E-01
 -1       455 3.60000E+00 2.40000E+00 1.25500E-01
 -1       456 4.80000E+00 2.40000E+00 1.25500E-01
 -1       457 5.00000E+00 2.40000E+00 1.25500E-01
 -1       458 5.20000E+00 2.40000E+00 1.25500E-01
 -1       459 0.00000E+00 2.60000E+00 1.25500E-01
 -1       460 4.00000E-01 2.60000E+00 1.25500E-01
 -1       461 1.60000E+00 2.60000E+00 1.25500E-01
 -1       462 2.00000E+00 2.60000E+00 1.25500E-01
 -1       463 2.40000E+00 2.60000E+00 1.25500E-01
 -1       464 2.80000E+00 2.60000E+00 1.25500E-01
 -1       465 3.20000E+00 2.60000E+00 1.25500E-01
 -1       466 3.60000E+00 2.60000E+00 1.25500E-01
 -1       467 4.80000E+00 2.60000E+00 1.25500E-01
 -1       468 5.20000E+00 2.60000E+00 1.25500E-01
 -1       469 0.00000E+00 2.80000E+00 1.25500E-01
 -1       470 2.00000E-01 2.80000E+00 1.25500E-01
 -1       471 4.00000E-01 2.80000E+00 1.25500E-01
 -1       472 6.00000E-01 2.80000E+00 1.25500E-01
 -1       473 8.00000E-01 2.80000E+00 1.25500E-01
 -1       474 1.60000E+00 2.80000E+00 1.25500E-01
 -1       475 1.80000E+00 2.80000E+00 1.25500E-01
 -1       476 2.00000E+00 2.80000E+00 1.25500E-01
 -1       477 2.20000E+00 2.80000E+00 1.25500E-01
 -1       478 2.40000E+00 2.80000E+00 1.25500E-01
 -1       479 2.60000E+00 2.80000E+00 1.25500E-01
 -1       480 2.80000E+00 2.80000E+00 1.25500E-01
 -1       481 3.00000E+00 2.80000E+00 1.25500E-01
 -1       482 3.20000E+00 2.80000E+00 1.25500E-01
 -1       483 3.40000E+00 2.80000E+00 1.25500E-01
 -1       484 3.60000E+00 2.80000E+00 1.25500E-01
 -1       485 4.40000E+00 2.80000E+00 1.25500E-01
 -1       486 4.60000E+00 2.80000E+00 1.25500E-01
 -1       487 4.80000E+00 2.80000E+00 1.25500E-01
 -1       488 5.00000E+00 2.80000E+00 1.25500E-01
 -1       489 5.20000E+00 2.80000E+00 1.25500E-01
 -1       490 0.00000E+00 3.00000E+00 1.25500E-01
 -1       491 4.00000E-01 3.00000E+00 1.25500E-01
 -1       492 8.00000E-01 3.00000E+00 1.25500E-01
 -1       493 1.60000E+00 3.00000E+00 1.25500E-01
 -1       494 2.00000E+00 3.00000E+00 1.25500E-01
 -1       495 2.40000E+00 3.00000E+00 1.25500E-01
 -1       496 2.80000E+00 3.00000E+00 1.25500E-01
 -1       497 3.20000E+00 3.00000E+00 1.25500E-01
 -1       498 3.60000E+00 3.00000E+00 1.25500E-01
 -1       499 4.40000E+00 3.00000E+00 1.25500E-01
 -1       500 4.80000E+00 3.00000E+00 1.25500E-01
 -1       501 5.20000E+00 3.00000E+00 1.25500E-01
 -1       502 0.00000E+00 3.20000E+00 1.25500E-01
 -1       503 2.00000E-01 3.20000E+00 1.25500E-01
 -1       504 4.00000E-01 3.20000E+00 1.25500E-01
 -1       505 6.00000E-01 3.20000E+00 1.25500E-01
 -1       506 8.00000E-01 3.20000E+00 1.25500E-01
 -1       507 1.00000E+00 3.20000E+00 1.25500E-01
 -1       508 1.20000E+00 3.20000E+00 1.25500E-01
 -1       509 1.60000E+00 3.20000E+00 1.25500E-01
 -1       510 1.80000E+00 3.20000E+00 1.25500E-01
 -1       511 2.00000E+00 3.20000E+00 1.25500E-01
 -1       512 2.20000E+00 3.20000E+00 1.25500E-01
 -1       513 2.40000E+00 3.20000E+00 1.25500E-01
 -1       514 2.60000E+00 3.20000E+00 1.25500E-01
 -1       515 2.80000E+00 3.20000E+00 1.25500E-01
 -1       516 3.00000E+00 3.20000E+00 1.25500E-01
 -1       517 3.20000E+00 3.20000E+00 1.25500E-01
 -1       518 3.40000E+00 3.20000E+00 1.25500E-01
 -1       519 3.60000E+00 3.20000E+00 1.25500E-01
 -1       520 4.00000E+00 3.20000E+00 1.25500E-01
 -1       521 4.20000E+00 3.20000E+00 1.25500E-01
 -1       522 4.40000E+00 3.20000E+00 1.25500E-01
 -1       523 4.60000E+00 3.20000E+00 1.25500E-01
 -1       524 4.80000E+00 3.20000E+00 1.25500E-01
 -1       525 5.00000E+00 3.20000E+00 1.25500E-01
 -1       526 5.20000E+00 3.20000E+00 1.25500E-01
 -1       527 0.00000E+00 3.40000E+00 1.25500E-01
 -1       528 4.00000E-01 3.40000E+00 1.25500E-01
 -1       529 8.00000E-01 3.40000E+00 1.25500E-01
 -1       530 1.20000E+00 3.40000E+00 1.25500E-01
 -1       531 1.60000E+00 3.40000E+00 1.25500E-01
 -1       532 2.00000E+00 3.40000E+00 1.25500E-01
 -1       533 2.40000E+00 3.40000E+00 1.25500E-01
 -1       534 2.80000E+00 3.40000E+00 1.25500E-01
 -1       535 3.20000E+00 3.40000E+00 1.25500E-01
 -1       536 3.60000E+00 3.40000E+00 1.25500E-01
 -1       537 4.00000E+00 3.40000E+00 1.25500E-01
 -1       538 4.40000E+00 3.40000E+00 1.25500E-01
 -1       539 4.80000E+00 3.40000E+00 1.25500E-01
 -1       540 5.20000E+00 3.40000E+00 1.25500E-01
 -1       541 0.00000E+00 3.60000E+00 1.25500E-01
 -1       542 2.00000E-01 3.60000E+00 1.25500E-01
 -1       543 4.00000E-01 3.60000E+00 1.25500E-01
 -1       544 6.00000E-01 3.60000E+00 1.25500E-01
 -1       545 8.00000E-01 3.60000E+00 1.25500E-01
 -1       546 1.00000E+00 3.60000E+00 1.25500E-01
 -1       547 1.20000E+00 3.60000E+00 1.25500E-01
 -1       548 1.40000E+00 3.60000E+00 1.25500E-01
 -1       549 1.60000E+00 3.60000E+00 1.25500E-01
 -1       550 1.80000E+00 3.60000E+00 1.25500E-01
 -1       551 2.00000E+00 3.60000E+00 1.25500E-01
 -1       552 2.20000E+00 3.60000E+00 1.25500E-01
 -1       553 2.40000E+00 3.60000E+00 1.25500E-01
 -1       554 2.60000E+00 3.60000E+00 1.25500E-01
 -1       555 2.80000E+00 3.60000E+00 1.25500E-01
 -1       556 3.00000E+00 3.60000E+00 1.25500E-01
 -1       557 3.20000E+00 3.60000E+00 1.25500E-01
 -1       558 3.40000E+00 3.60000E+00 1.25500E-01
 -1       559 3.60000E+00 3.60000E+00 1.25500E-01
 -1       560 3.80000E+00 3.60000E+00 1.25500E-01
 -1       561 4.00000E+00 3.60000E+00 1.25500E-01
 -1       562 4.20000E+00 3.60000E+00 1.25500E-01
 -1       563 4.40000E+00 3.60000E+00 1.25500E-01
 -1       564 4.60000E+00 3.60000E+00 1.25500E-01
 -1       565 4.80000E+00 3.60000E+00 1.25500E-01
 -1       566 5.00000E+00 3.60000E+00 1.25500E-01
 -1       567 5.20000E+00 3.60000E+00 1.25500E-01
 -1       568 0.00000E+00 3.80000E+00 1.25500E-01
 -1       569 4.00000E-01 3.80000E+00 1.25500E-01
 -1       570 8.00000E-01 3.80000E+00 1.25500E-01
 -1       571 1.20000E+00 3.80000E+00 1.25500E-01
 -1       572 1.60000E+00 3.80000E+00 1.25500E-01
 -1       573 3.60000E+00 3.80000E+00 1.25500E-01
 -1       574 4.00000E+00 3.80000E+00 1.25500E-01
 -1       575 4.40000E+00 3.80000E+00 1.25500E-01
 -1       576 4.80000E+00 3.80000E+00 1.25500E-01
 -1       577 5.20000E+00 3.80000E+00 1.25500E-01
 -1       578 0.00000E+00 4.00000E+00 1.25500E-01
 -1       579 2.00000E-01 4.00000E+00 1.25500E-01
 -1       580 4.00000E-01 4.00000E+00 1.25500E-01
 -1       581 6.00000E-01 4.00000E+00 1.25500E-01
 -1       582 8.00000E-01 4.00000E+00 1.25500E-01
 -1       583 1.00000E+00 4.00000E+00 1.25500E-01
 -1       584 1.20000E+00 4.00000E+00 1.25500E-01
 -1       585 1.40000E+00 4.00000E+00 1.25500E-01
 -1       586 1.60000E+00 4.00000E+00 1.25500E-01
 -1       587 1.80000E+00 4.00000E+00 1.25500E-01
 -1       588 2.00000E+00 4.00000E+00 1.25500E-01
 -1       589 3.20000E+00 4.00000E+00 1.25500E-01
 -1       590 3.40000E+00 4.00000E+00 1.25500E-01
 -1       591 3.60000E+00 4.00000E+00 1.25500E-01
 -1       592 3.80000E+00 4.00000E+00 1.25500E-01
 -1       593 4.00000E+00 4.00000E+00 1.25500E-01
 -1       594 4.20000E+00 4.00000E+00 1.25500E-01
 -1       595 4.40000E+00 4.00000E+00 1.25500E-01
 -1       596 4.60000E+00 4.00000E+00 1.25500E-01
 -1       597 4.80000E+00 4.00000E+00 1.25500E-01
 -1       598 5.00000E+00 4.00000E+00 1.25500E-01
 -1       599 5.20000E+00 4.00000E+00 1.25500E-01
 -1       600 8.00000E-01 4.20000E+00 1.25500E-01
 -1       601 1.20000E+00 4.20000E+00 1.25500E-01
 -1       602 1.60000E+00 4.20000E+00 1.25500E-01
 -1       603 2.00000E+00 4.20000E+00 1.25500E-01
 -1       604 3.20000E+00 4.20000E+00 1.25500E-01
 -1       605 3.60000E+00 4.20000E+00 1.25500E-01
 -1       606 4.00000E+00 4.20000E+00 1.25500E-01
 -1       607 4.40000E+00 4.20000E+00 1.25500E-01
 -1       608 8.00000E-01 4.40000E+00 1.25500E-01
 -1       609 1.00000E+00 4.40000E+00 1.25500E-01
 -1       610 1.20000E+00 4.40000E+00 1.25500E-01
 -1       611 1.40000E+00 4.40000E+00 1.25500E-01
 -1       612 1.60000E+00 4.40000E+00 1.25500E-01
 -1       613 1.80000E+00 4.40000E+00 1.25500E-01
 -1       614 2.00000E+00 4.40000E+00 1.25500E-01
 -1       615 3.20000E+00 4.40000E+00 1.25500E-01
 -1       616 3.40000E+00 4.40000E+00 1.25500E-01
 -1       617 3.60000E+00 4.40000E+00 1.25500E-01
 -1       618 3.80000E+00 4.40000E+00 1.25500E-01
 -1       619 4.00000E+00 4.40000E+00 1.25500E-01
 -1       620 4.20000E+00 4.40000E+00 1.25500E-01
 -1       621 4.40000E+00 4.40000E+00 1.25500E-01
 -1       622 1.20000E+00 4.60000E+00 1.25500E-01
 -1       623 1.60000E+00 4.60000E+00 1.25500E-01
 -1       624 2.00000E+00 4.60000E+00 1.25500E-01
 -1       625 3.20000E+00 4.60000E+00 1.25500E-01
 -1       626 3.60000E+00 4.60000E+00 1.25500E-01
 -1       627 4.00000E+00 4.60000E+00 1.25500E-01
 -1       628 1.20000E+00 4.80000E+00 1.25500E-01
 -1       629 1.40000E+00 4.80000E+00 1.25500E-01
 -1       630 1.60000E+00 4.80000E+00 1.25500E-01
 -1       631 1.80000E+00 4.80000E+00 1.25500E-01
 -1       632 2.00000E+00 4.80000E+00 1.25500E-01
 -1       633 2.20000E+00 4.80000E+00 1.25500E-01
 -1       634 2.40000E+00 4.80000E+00 1.25500E-01
 -1       635 2.60000E+00 4.80000E+00 1.25500E-01
 -1       636 2.80000E+00 4.80000E+00 1.25500E-01
 -1       637 3.00000E+00 4.80000E+00 1.25500E-01
 -1       638 3.20000E+00 4.80000E+00 1.25500E-01
 -1       639 3.40000E+00 4.80000E+00 1.25500E-01
 -1       640 3.60000E+00 4.80000E+00 1.25500E-01
 -1       641 3.80000E+00 4.80000E+00 1.25500E-01
 -1       642 4.00000E+00 4.80000E+00 1.25500E-01
 -1       643 1.20000E+00 5.00000E+00 1.25500E-01
 -1       644 1.60000E+00 5.00000E+00 1.25500E-01
 -1       645 2.00000E+00 5.00000E+00 1.25500E-01
 -1       646 2.40000E+00 5.00000E+00 1.25500E-01
 -1       647 2.80000E+00 5.00000E+00 1.25500E-01
 -1       648 3.20000E+00 5.00000E+00 1.25500E-01
 -1       649 3.60000E+00 5.00000E+00 1.25500E-01
 -1       650 4.00000E+00 5.00000E+00 1.25500E-01
 -1       651 1.20000E+00 5.20000E+00 1.25500E-01
 -1       652 1.40000E+00 5.20000E+00 1.25500E-01
 -1       653 1.60000E+00 5.20000E+00 1.25500E-01
 -1       654 1.80000E+00 5.20000E+00 1.25500E-01
 -1       655 2.00000E+00 5.20000E+00 1.25500E-01
 -1       656 2.20000E+00 5.20000E+00 1.25500E-01
 -1       657 2.40000E+00 5.20000E+00 1.25500E-01
 -1       658 2.60000E+00 5.20000E+00 1.25500E-01
 -1       659 2.80000E+00 5.20000E+00 1.25500E-01
 -1       660 3.00000E+00 5.20000E+00 1.25500E-01
 -1       661 3.20000E+00 5.20000E+00 1.25500E-01
 -1       662 3.40000E+00 5.20000E+00 1.25500E-01
 -1       663 3.60000E+00 5.20000E+00 1.25500E-01
 -1       664 3.80000E+00 5.20000E+00 1.25500E-01
 -1       665 4.00000E+00 5.20000E+00 1.25500E-01
 -1       666 1.20000E+00 0.00000E+00 1.60000E-01
 -1       667 1.60000E+00 0.00000E+00 1.60000E-01
 -1       668 2.00000E+00 0.00000E+00 1.60000E-01
 -1       669 2.40000E+00 0.00000E+00 1.60000E-01
 -1       670 2.80000E+00 0.00000E+00 1.60000E-01
 -1       671 3.20000E+00 0.00000E+00 1.60000E-01
 -1       672 3.60000E+00 0.00000E+00 1.60000E-01
 -1       673 4.00000E+00 0.00000E+00 1.60000E-01
 -1       674 1.20000E+00 4.00000E-01 1.60000E-01
 -1       675 1.60000E+00 4.00000E-01 1.60000E-01
 -1       676 2.00000E+00 4.00000E-01 1.60000E-01
 -1       677 2.40000E+00 4.00000E-01 1.60000E-01
 -1       678 2.80000E+00 4.00000E-01 1.60000E-01
 -1       679 3.20000E+00 4.00000E-01 1.60000E-01
 -1       680 3.60000E+00 4.00000E-01 1.60000E-01
 -1       681 4.00000E+00 4.00000E-01 1.60000E-01
 -1       682 8.00000E-01 8.00000E-01 1.60000E-01
 -1       683 1.20000E+00 8.00000E-01 1.60000E-01
 -1       684 1.60000E+00 8.00000E-01 1.60000E-01
 -1       685 2.00000E+00 8.00000E-01 1.60000E-01
 -1       686 2.40000E+00 8.00000E-01 1.60000E-01
 -1       687 2.80000E+00 8.00000E-01 1.60000E-01
 -1       688 3.20000E+00 8.00000E-01 1.60000E-01
 -1       689 3.60000E+00 8.00000E-01 1.60000E-01
 -1       690 4.00000E+00 8.00000E-01 1.60000E-01
 -1       691 4.40000E+00 8.00000E-01 1.60000E-01
 -1       692 0.00000E+00 1.20000E+00 1.60000E-01
 -1       693 4.00000E-01 1.20000E+00 1.60000E-01
 -1       694 8.00000E-01 1.20000E+00 1.60000E-01
 -1       695 1.20000E+00 1.20000E+00 1.60000E-01
 -1       696 1.60000E+00 1.20000E+00 1.60000E-01
 -1       697 3.20000E+00 1.20000E+00 1.60000E-01
 -1       698 3.60000E+00 1.20000E+00 1.60000E-01
 -1       699 4.00000E+00 1.20000E+00 1.60000E-01
 -1       700 4.40000E+00 1.20000E+00 1.60000E-01
 -1       701 4.80000E+00 1.20000E+00 1.60000E-01
 -1       702 5.20000E+00 1.20000E+00 1.60000E-01
 -1       703 0.00000E+00 1.60000E+00 1.60000E-01
 -1       704 4.00000E-01 1.60000E+00 1.60000E-01
 -1       705 8.00000E-01 1.60000E+00 1.60000E-01
 -1       706 1.20000E+00 1.60000E+00 1.60000E-01
 -1       707 1.60000E+00 1.60000E+00 1.60000E-01
 -1       708 2.00000E+00 1.60000E+00 1.60000E-01
 -1       709 2.40000E+00 1.60000E+00 1.60000E-01
 -1       710 2.80000E+00 1.60000E+00 1.60000E-01
 -1       711 3.20000E+00 1.60000E+00 1.60000E-01
 -1       712 3.60000E+00 1.60000E+00 1.60000E-01
 -1       713 4.00000E+00 1.60000E+00 1.60000E-01
 -1       714 4.40000E+00 1.60000E+00 1.60000E-01
 -1       715 4.80000E+00 1.60000E+00 1.60000E-01
 -1       716 5.20000E+00 1.60000E+00 1.60000E-01
 -1       717 0.00000E+00 2.00000E+00 1.60000E-01
 -1       718 4.00000E-01 2.00000E+00 1.60000E-01
 -1       719 8.00000E-01 2.00000E+00 1.60000E-01
 -1       720 1.20000E+00 2.00000E+00 1.60000E-01
 -1       721 1.60000E+00 2.00000E+00 1.60000E-01
 -1       722 2.00000E+00 2.00000E+00 1.60000E-01
 -1       723 2.40000E+00 2.00000E+00 1.60000E-01
 -1       724 2.80000E+00 2.00000E+00 1.60000E-01
 -1       725 3.20000E+00 2.00000E+00 1.60000E-01
 -1       726 3.60000E+00 2.00000E+00 1.60000E-01
 -1       727 4.40000E+00 2.00000E+00 1.60000E-01
 -1       728 4.80000E+00 2.00000E+00 1.60000E-01
 -1       729 5.20000E+00 2.00000E+00 1.60000E-01
 -1       730 0.00000E+00 2.40000E+00 1.60000E-01
 -1       731 4.00000E-01 2.40000E+00 1.60000E-01
 -1       732 8.00000E-01 2.40000E+00 1.60000E-01
 -1       733 1.60000E+00 2.40000E+00 1.60000E-01
 -1       734 2.00000E+00 2.40000E+00 1.60000E-01
 -1       735 2.40000E+00 2.40000E+00 1.60000E-01
 -1       736 2.80000E+00 2.40000E+00 1.60000E-01
 -1       737 3.20000E+00 2.40000E+00 1.60000E-01
 -1       738 3.60000E+00 2.40000E+00 1.60000E-01
 -1       739 4.80000E+00 2.40000E+00 1.60000E-01
 -1       740 5.20000E+00 2.40000E+00 1.60000E-01
 -1       741 0.00000E+00 2.80000E+00 1.60000E-01
 -1       742 4.00000E-01 2.80000E+00 1.60000E-01
 -1       743 8.00000E-01 2.80000E+00 1.60000E-01
 -1       744 1.60000E+00 2.80000E+00 1.60000E-01
 -1       745 2.00000E+00 2.80000E+00 1.60000E-01
 -1       746 2.40000E+00 2.80000E+00 1.60000E-01
 -1       747 2.80000E+00 2.80000E+00 1.60000E-01
 -1       748 3.20000E+00 2.80000E+00 1.60000E-01
 -1       749 3.60000E+00 2.80000E+00 1.60000E-01
 -1       750 4.40000E+00 2.80000E+00 1.60000E-01
 -1       751 4.80000E+00 2.80000E+00 1.60000E-01
 -1       752 5.20000E+00 2.80000E+00 1.60000E-01
 -1       753 0.00000E+00 3.20000E+00 1.60000E-01
 -1       754 4.00000E-01 3.20000E+00 1.60000E-01
 -1       755 8.00000E-01 3.20000E+00 1.60000E-01
 -1       756 1.20000E+00 3.20000E+00 1.60000E-01
 -1       757 1.60000E+00 3.20000E+00 1.60000E-01
 -1       758 2.00000E+00 3.20000E+00 1.60000E-01
 -1       759 2.40000E+00 3.20000E+00 1.60000E-01
 -1       760 2.80000E+00 3.20000E+00 1.60000E-01
 -1       761 3.20000E+00 3.20000E+00 1.60000E-01
 -1       762 3.60000E+00 3.20000E+00 1.60000E-01
 -1       763 4.00000E+00 3.20000E+00 1.60000E-01
 -1       764 4.40000E+00 3.20000E+00 1.60000E-01
 -1       765 4.80000E+00 3.20000E+00 1.60000E-01
 -1       766 5.20000E+00 3.20000E+00 1.60000E-01
 -1       767 0.00000E+00 3.60000E+00 1.60000E-01
 -1       768 4.00000E-01 3.60000E+00 1.60000E-01
 -1       769 8.00000E-01 3.60000E+00 1.60000E-01
 -1       770 1.20000E+00 3.60000E+00 1.60000E-01
 -1       771 1.60000E+00 3.60000E+00 1.60000E-01
 -1       772 2.00000E+00 3.60000E+00 1.60000E-01
 -1       773 2.40000E+00 3.60000E+00 1.60000E-01
 -1       774 2.80000E+00 3.60000E+00 1.60000E-01
 -1       775 3.20000E+00 3.60000E+00 1.60000E-01
 -1       776 3.60000E+00 3.60000E+00 1.60000E-01
 -1       777 4.00000E+00 3.60000E+00 1.60000E-01
 -1       778 4.40000E+00 3.60000E+00 1.60000E-01
 -1       779 4.80000E+00 3.60000E+00 1.60000E-01
 -1       780 5.20000E+00 3.60000E+00 1.60000E-01
 -1       781 0.00000E+00 4.00000E+00 1.60000E-01
 -1       782 4.00000E-01 4.00000E+00 1.60000E-01
 -1       783 8.00000E-01 4.00000E+00 1.60000E-01
 -1       784 1.20000E+00 4.00000E+00 1.60000E-01
 -1       785 1.60000E+00 4.00000E+00 1.60000E-01
 -1       786 2.00000E+00 4.00000E+00 1.60000E-01
 -1       787 3.20000E+00 4.00000E+00 1.60000E-01
 -1       788 3.60000E+00 4.00000E+00 1.60000E-01
 -1       789 4.00000E+00 4.00000E+00 1.60000E-01
 -1       790 4.40000E+00 4.00000E+00 1.60000E-01
 -1       791 4.80000E+00 4.00000E+00 1.60000E-01
 -1       792 5.20000E+00 4.00000E+00 1.60000E-01
 -1       793 8.00000E-01 4.40000E+00 1.60000E-01
 -1       794 1.20000E+00 4.40000E+00 1.60000E-01
 -1       795 1.60000E+00 4.40000E+00 1.60000E-01
 -1       796 2.00000E+00 4.40000E+00 1.60000E-01
 -1       797 3.20000E+00 4.40000E+00 1.60000E-01
 -1       798 3.60000E+00 4.40000E+00 1.60000E-01
 -1       799 4.00000E+00 4.40000E+00 1.60000E-01
 -1       800 4.40000E+00 4.40000E+00 1.60000E-01
 -1       801 1.20000E+00 4.80000E+00 1.60000E-01
 -1       802 1.60000E+00 4.80000E+00 1.60000E-01
 -1       803 2.00000E+00 4.80000E+00 1.60000E-01
 -1       804 2.40000E+00 4.80000E+00 1.60000E-01
 -1       805 2.80000E+00 4.80000E+00 1.60000E-01
 -1       806 3.20000E+00 4.80000E+00 1.60000E-01
 -1       807 3.60000E+00 4.80000E+00 1.60000E-01
 -1       808 4.00000E+00 4.80000E+00 1.60000E-01
 -1       809 1.20000E+00 5.20000E+00 1.60000E-01
 -1       810 1.60000E+00 5.20000E+00 1.60000E-01
 -1       811 2.00000E+00 5.20000E+00 1.60000E-01
 -1       812 2.40000E+00 5.20000E+00 1.60000E-01
 -1       813 2.80000E+00 5.20000E+00 1.60000E-01
 -1       814 3.20000E+00 5.20000E+00 1.60000E-01
 -1       815 3.60000E+00 5.20000E+00 1.60000E-01
 -1       816 4.00000E+00 5.20000E+00 1.60000E-01
 -1       817 1.20000E+00 0.00000E+00 1.94500E-01
 -1       818 1.40000E+00 0.00000E+00 1.94500E-01
 -1       819 1.60000E+00 0.00000E+00 1.94500E-01
 -1       820 1.80000E+00 0.00000E+00 1.94500E-01
 -1       821 2.00000E+00 0.00000E+00 1.94500E-01
 -1       822 2.20000E+00 0.00000E+00 1.94500E-01
 -1       823 2.40000E+00 0.00000E+00 1.94500E-01
 -1       824 2.60000E+00 0.00000E+00 1.94500E-01
 -1       825 2.80000E+00 0.00000E+00 1.94500E-01
 -1       826 3.00000E+00 0.00000E+00 1.94500E-01
 -1       827 3.20000E+00 0.00000E+00 1.94500E-01
 -1       828 3.40000E+00 0.00000E+00 1.94500E-01
 -1       829 3.60000E+00 0.00000E+00 1.94500E-01
 -1       830 3.80000E+00 0.00000E+00 1.94500E-01
 -1       831 4.00000E+00 0.00000E+00 1.94500E-01
 -1       832 1.20000E+00 2.00000E-01 1.94500E-01
 -1       833 1.60000E+00 2.00000E-01 1.94500E-01
 -1       834 2.00000E+00 2.00000E-01 1.94500E-01
 -1       835 2.40000E+00 2.00000E-01 1.94500E-01
 -1       836 2.80000E+00 2.00000E-01 1.94500E-01
 -1       837 3.20000E+00 2.00000E-01 1.94500E-01
 -1       838 3.60000E+00 2.00000E-01 1.94500E-01
 -1       839 4.00000E+00 2.00000E-01 1.94500E-01
 -1       840 1.20000E+00 4.00000E-01 1.94500E-01
 -1       841 1.40000E+00 4.00000E-01 1.94500E-01
 -1       842 1.60000E+00 4.00000E-01 1.94500E-01
 -1       843 1.80000E+00 4.00000E-01 1.94500E-01
 -1       844 2.00000E+00 4.00000E-01 1.94500E-01
 -1       845 2.20000E+00 4.00000E-01 1.94500E-01
 -1       846 2.40000E+00 4.00000E-01 1.94500E-01
 -1       847 2.60000E+00 4.00000E-01 1.94500E-01
 -1       848 2.80000E+00 4.00000E-01 1.94500E-01
 -1       849 3.00000E+00 4.00000E-01 1.94500E-01
 -1       850 3.20000E+00 4.00000E-01 1.94500E-01
 -1       851 3.40000E+00 4.00000E-01 1.94500E-01
 -1       852 3.60000E+00 4.00000E-01 1.94500E-01
 -1       853 3.80000E+00 4.00000E-01 1.94500E-01
 -1       854 4.00000E+00 4.00000E-01 1.94500E-01
 -1       855 1.20000E+00 6.00000E-01 1.94500E-01
 -1       856 1.60000E+00 6.00000E-01 1.94500E-01
 -1       857 2.00000E+00 6.00000E-01 1.94500E-01
 -1       858 2.40000E+00 6.00000E-01 1.94500E-01
 -1       859 2.80000E+00 6.00000E-01 1.94500E-01
 -1       860 3.20000E+00 6.00000E-01 1.94500E-01
 -1       861 3.60000E+00 6.00000E-01 1.94500E-01
 -1       862 4.00000E+00 6.00000E-01 1.94500E-01
 -1       863 8.00000E-01 8.00000E-01 1.94500E-01
 -1       864 1.00000E+00 8.00000E-01 1.94500E-01
 -1       865 1.20000E+00 8.00000E-01 1.94500E-01
 -1       866 1.40000E+00 8.00000E-01 1.94500E-01
 -1       867 1.60000E+00 8.00000E-01 1.94500E-01
 -1       868 1.80000E+00 8.00000E-01 1.94500E-01
 -1       869 2.00000E+00 8.00000E-01 1.94500E-01
 -1       870 2.20000E+00 8.00000E-01 1.94500E-01
 -1       871 2.40000E+00 8.00000E-01 1.94500E-01
 -1       872 2.80000E+00 8.00000E-01 1.94500E-01
 -1       873 3.00000E+00 8.00000E-01 1.94500E-01
 -1       874 3.20000E+00 8.00000E-01 1.94500E-01
 -1       875 3.40000E+00 8.00000E-01 1.94500E-01
 -1       876 3.60000E+00 8.00000E-01 1.94500E-01
 -1       877 3.80000E+00 8.00000E-01 1.94500E-01
 -1       878 4.00000E+00 8.00000E-01 1.94500E-01
 -1       879 4.20000E+00 8.00000E-01 1.94500E-01
 -1       880 4.40000E+00 8.00000E-01 1.94500E-01
 -1       881 8.00000E-01 1.00000E+00 1.94500E-01
 -1       882 1.20000E+00 1.00000E+00 1.94500E-01
 -1       883 1.60000E+00 1.00000E+00 1.94500E-01
 -1       884 3.20000E+00 1.00000E+00 1.94500E-01
 -1       885 3.60000E+00 1.00000E+00 1.94500E-01
 -1       886 4.00000E+00 1.00000E+00 1.94500E-01
 -1       887 4.40000E+00 1.00000E+00 1.94500E-01
 -1       888 0.00000E+00 1.20000E+00 1.94500E-01
 -1       889 2.00000E-01 1.20000E+00 1.94500E-01
 -1       890 4.00000E-01 1.20000E+00 1.94500E-01
 -1       891 6.00000E-01 1.20000E+00 1.94500E-01
 -1       892 8.00000E-01 1.20000E+00 1.94500E-01
 -1       893 1.00000E+00 1.20000E+00 1.94500E-01
 -1       894 1.20000E+00 1.20000E+00 1.94500E-01
 -1       895 1.40000E+00 1.20000E+00 1.94500E-01
 -1       896 1.60000E+00 1.20000E+00 1.94500E-01
 -1       897 3.20000E+00 1.20000E+00 1.94500E-01
 -1       898 3.40000E+00 1.20000E+00 1.94500E-01
 -1       899 3.60000E+00 1.20000E+00 1.94500E-01
 -1       900 3.80000E+00 1.20000E+00 1.94500E-01
 -1       901 4.00000E+00 1.20000E+00 1.94500E-01
 -1       902 4.20000E+00 1.20000E+00 1.94500E-01
 -1       903 4.40000E+00 1.20000E+00 1.94500E-01
 -1       904 4.60000E+00 1.20000E+00 1.94500E-01
 -1       905 4.80000E+00 1.20000E+00 1.94500E-01
 -1       906 5.00000E+00 1.20000E+00 1.94500E-01
 -1       907 5.20000E+00 1.20000E+00 1.94500E-01
 -1       908 0.00000E+00 1.40000E+00 1.94500E-01
 -1       909 4.00000E-01 1.40000E+00 1.94500E-01
 -1       910 8.00000E-01 1.40000E+00 1.94500E-01
 -1       911 1.20000E+00 1.40000E+00 1.94500E-01
 -1       912 1.60000E+00 1.40000E+00 1.94500E-01
 -1       913 3.60000E+00 1.40000E+00 1.94500E-01
 -1       914 4.00000E+00 1.40000E+00 1.94500E-01
 -1       915 4.40000E+00 1.40000E+00 1.94500E-01
 -1       916 4.80000E+00 1.40000E+00 1.94500E-01
 -1       917 5.20000E+00 1.40000E+00 1.94500E-01
 -1       918 0.00000E+00 1.60000E+00 1.94500E-01
 -1       919 2.00000E-01 1.60000E+00 1.94500E-01
 -1       920 4.00000E-01 1.60000E+00 1.94500E-01
 -1       921 6.00000E-01 1.60000E+00 1.94500E-01
 -1       922 8.00000E-01 1.60000E+00 1.94500E-01
 -1       923 1.00000E+00 1.60000E+00 1.94500E-01
 -1       924 1.20000E+00 1.60000E+00 1.94500E-01
 -1       925 1.40000E+00 1.60000E+00 1.94500E-01
 -1       926 1.60000E+00 1.60000E+00 1.94500E-01
 -1       927 1.80000E+00 1.60000E+00 1.94500E-01
 -1       928 2.00000E+00 1.60000E+00 1.94500E-01
 -1       929 2.20000E+00 1.60000E+00 1.94500E-01
 -1       930 2.40000E+00 1.60000E+00 1.94500E-01
 -1       931 2.60000E+00 1.60000E+00 1.94500E-01
 -1       932 2.80000E+00 1.60000E+00 1.94500E-01
 -1       933 3.00000E+00 1.60000E+00 1.94500E-01
 -1       934 3.20000E+00 1.60000E+00 1.94500E-01
 -1       935 3.40000E+00 1.60000E+00 1.94500E-01
 -1       936 3.60000E+00 1.60000E+00 1.94500E-01
 -1       937 3.80000E+00 1.60000E+00 1.94500E-01
 -1       938 4.00000E+00 1.60000E+00 1.94500E-01
 -1       939 4.20000E+00 1.60000E+00 1.94500E-01
 -1       940 4.40000E+00 1.60000E+00 1.94500E-01
 -1       941 4.60000E+00 1.60000E+00 1.94500E-01
 -1       942 4.80000E+00 1.60000E+00 1.94500E-01
 -1       943 5.00000E+00 1.60000E+00 1.94500E-01
 -1       944 5.20000E+00 1.60000E+00 1.94500E-01
 -1       945 0.00000E+00 1.80000E+00 1.94500E-01
 -1       946 4.00000E-01 1.80000E+00 1.94500E-01
 -1       947 8.00000E-01 1.80000E+00 1.94500E-01
 -1       948 1.20000E+00 1.80000E+00 1.94500E-01
 -1       949 1.60000E+00 1.80000E+00 1.94500E-01
 -1       950 2.00000E+00 1.80000E+00 1.94500E-01
 -1       951 2.40000E+00 1.80000E+00 1.94500E-01
 -1       952 2.80000E+00 1.80000E+00 1.94500E-01
 -1       953 3.20000E+00 1.80000E+00 1.94500E-01
 -1       954 3.60000E+00 1.80000E+00 1.94500E-01
 -1       955 4.40000E+00 1.80000E+00 1.94500E-01
 -1       956 4.80000E+00 1.80000E+00 1.94500E-01
 -1       957 5.20000E+00 1.80000E+00 1.94500E-01
 -1       958 0.00000E+00 2.00000E+00 1.94500E-01
 -1       959 2.00000E-01 2.00000E+00 1.94500E-01
 -1       960 4.00000E-01 2.00000E+00 1.94500E-01
 -1       961 6.00000E-01 2.00000E+00 1.94500E-01
 -1       962 8.00000E-01 2.00000E+00 1.94500E-01
 -1       963 1.00000E+00 2.00000E+00 1.94500E-01
 -1       964 1.20000E+00 2.00000E+00 1.94500E-01
 -1       965 1.60000E+00 2.00000E+00 1.94500E-01
 -1       966 1.80000E+00 2.00000E+00 1.94500E-01
 -1       967 2.00000E+00 2.00000E+00 1.94500E-01
 -1       968 2.20000E+00 2.00000E+00 1.94500E-01
 -1       969 2.40000E+00 2.00000E+00 1.94500E-01
 -1       970 2.60000E+00 2.00000E+00 1.94500E-01
 -1       971 2.80000E+00 2.00000E+00 1.94500E-01
 -1       972 3.00000E+00 2.00000E+00 1.94500E-01
 -1       973 3.20000E+00 2.00000E+00 1.94500E-01
 -1       974 3.40000E+00 2.00000E+00 1.94500E-01
 -1       975 3.60000E+00 2.00000E+00 1.94500E-01
 -1       976 4.40000E+00 2.00000E+00 1.94500E-01
 -1       977 4.60000E+00 2.00000E+00 1.94500E-01
 -1       978 4.80000E+00 2.00000E+00 1.94500E-01
 -1       979 5.00000E+00 2.00000E+00 1.94500E-01
 -1       980 5.20000E+00 2.00000E+00 1.94500E-01
 -1       981 0.00000E+00 2.20000E+00 1.94500E-01
 -1       982 4.00000E-01 2.20000E+00 1.94500E-01
 -1       983 8.00000E-01 2.20000E+00 1.94500E-01
 -1       984 1.60000E+00 2.20000E+00 1.94500E-01
 -1       985 2.00000E+00 2.20000E+00 1.94500E-01
 -1       986 2.40000E+00 2.20000E+00 1.94500E-01
 -1       987 2.80000E+00 2.20000E+00 1.94500E-01
 -1       988 3.20000E+00 2.20000E+00 1.94500E-01
 -1       989 3.60000E+00 2.20000E+00 1.94500E-01
 -1       990 4.80000E+00 2.20000E+00 1.94500E-01
 -1       991 5.20000E+00 2.20000E+00 1.94500E-01
 -1       992 0.00000E+00 2.40000E+00 1.94500E-01
 -1       993 2.00000E-01 2.40000E+00 1.94500E-01
 -1       994 4.00000E-01 2.40000E+00 1.94500E-01
 -1       995 6.00000E-01 2.40000E+00 1.94500E-01
 -1       996 8.00000E-01 2.40000E+00 1.94500E-01
 -1       997 1.60000E+00 2.40000E+00 1.94500E-01
 -1       998 1.80000E+00 2.40000E+00 1.94500E-01
 -1       999 2.00000E+00 2.40000E+00 1.94500E-01
 -1      1000 2.20000E+00 2.40000E+00 1.94500E-01
 -1      1001 2.40000E+00 2.40000E+00 1.94500E-01
 -1      1002 2.60000E+00 2.40000E+00 1.94500E-01
 -1      1003 2.80000E+00 2.40000E+00 1.94500E-01
 -1      1004 3.00000E+00 2.40000E+00 1.94500E-01
 -1      1005 3.20000E+00 2.40000E+00 1.94500E-01
 -1      1006 3.40000E+00 2.40000E+00 1.94500E-01
 -1      1007 3.60000E+00 2.40000E+00 1.94500E-01
 -1      1008 4.80000E+00 2.40000E+00 1.94500E-01
 -1      1009 5.00000E+00 2.40000E+00 1.94500E-01
 -1      1010 5.20000E+00 2.40000E+00 1.94500E-01
 -1      1011 0.00000E+00 2.60000E+00 1.94500E-01
 -1      1012 4.00000E-01 2.60000E+00 1.94500E-01
 -1      1013 1.60000E+00 2.60000E+00 1.94500E-01
 -1      1014 2.00000E+00 2.60000E+00 1.94500E-01
 -1      1015 2.40000E+00 2.60000E+00 1.94500E-01
 -1      1016 2.80000E+00 2.60000E+00 1.94500E-01
 -1      1017 3.20000E+00 2.60000E+00 1.94500E-01
 -1      1018 3.60000E+00 2.60000E+00 1.94500E-01
 -1      1019 4.80000E+00 2.60000E+00 1.94500E-01
 -1      1020 5.20000E+00 2.60000E+00 1.94500E-01
 -1      1021 0.00000E+00 2.80000E+00 1.94500E-01
 -1      1022 2.00000E-01 2.80000E+00 1.94500E-01
 -1      1023 4.00000E-01 2.80000E+00 1.94500E-01
 -1      1024 6.00000E-01 2.80000E+00 1.94500E-01
 -1      1025 8.00000E-01 2.80000E+00 1.94500E-01
 -1      1026 1.60000E+00 2.80000E+00 1.94500E-01
 -1      1027 1.80000E+00 2.80000E+00 1.94500E-01
 -1      1028 2.00000E+00 2.80000E+00 1.94500E-01
 -1      1029 2.20000E+00 2.80000E+00 1.94500E-01
 -1      1030 2.40000E+00 2.80000E+00 1.94500E-01
 -1      1031 2.60000E+00 2.80000E+00 1.94500E-01
 -1      1032 2.80000E+00 2.80000E+00 1.94500E-01
 -1      1033 3.00000E+00 2.80000E+00 1.94500E-01
 -1      1034 3.20000E+00 2.80000E+00 1.94500E-01
 -1      1035 3.40000E+00 2.80000E+00 1.94500E-01
 -1      1036 3.60000E+00 2.80000E+00 1.94500E-01
 -1      1037 4.40000E+00 2.80000E+00 1.94500E-01
 -1      1038 4.60000E+00 2.80000E+00 1.94500E-01
 -1      1039 4.80000E+00 2.80000E+00 1.94500E-01
 -1      1040 5.00000E+00 2.80000E+00 1.94500E-01
 -1      1041 5.20000E+00 2.80000E+00 1.94500E-01
 -1      1042 0.00000E+00 3.00000E+00 1.94500E-01
 -1      1043 4.00000E-01 3.00000E+00 1.94500E-01
 -1      1044 8.00000E-01 3.00000E+00 1.94500E-01
 -1      1045 1.60000E+00 3.00000E+00 1.94500E-01
 -1      1046 2.00000E+00 3.00000E+00 1.94500E-01
 -1      1047 2.40000E+00 3.00000E+00 1.94500E-01
 -1      1048 2.80000E+00 3.00000E+00 1.94500E-01
 -1      1049 3.20000E+00 3.00000E+00 1.94500E-01
 -1      1050 3.60000E+00 3.00000E+00 1.94500E-01
 -1      1051 4.40000E+00 3.00000E+00 1.94500E-01
 -1      1052 4.80000E+00 3.00000E+00 1.94500E-01
 -1      1053 5.20000E+00 3.00000E+00 1.94500E-01
 -1      1054 0.00000E+00 3.20000E+00 1.94500E-01
 -1      1055 2.00000E-01 3.20000E+00 1.94500E-01
 -1      1056 4.00000E-01 3.20000E+00 1.94500E-01
 -1      1057 6.00000E-01 3.20000E+00 1.94500E-01
 -1      1058 8.00000E-01 3.20000E+00 1.94500E-01
 -1      1059 1.00000E+00 3.20000E+00 1.94500E-01
 -1      1060 1.20000E+00 3.20000E+00 1.94500E-01
 -1      1061 1.60000E+00 3.20000E+00 1.94500E-01
 -1      1062 1.80000E+00 3.20000E+00 1.94500E-01
 -1      1063 2.00000E+00 3.20000E+00 1.94500E-01
 -1      1064 2.20000E+00 3.20000E+00 1.94500E-01
 -1      1065 2.40000E+00 3.20000E+00 1.94500E-01
 -1      1066 2.60000E+00 3.20000E+00 1.94500E-01
 -1      1067 2.80000E+00 3.20000E+00 1.94500E-01
 -1      1068 3.00000E+00 3.20000E+00 1.94500E-01
 -1      1069 3.20000E+00 3.20000E+00 1.94500E-01
 -1      1070 3.40000E+00 3.20000E+00 1.94500E-01
 -1      1071 3.60000E+00 3.20000E+00 1.94500E-01
 -1      1072 4.00000E+00 3.20000E+00 1.94500E-01
 -1      1073 4.20000E+00 3.20000E+00 1.94500E-01
 -1      1074 4.40000E+00 3.20000E+00 1.94500E-01
 -1      1075 4.60000E+00 3.20000E+00 1.94500E-01
 -1      1076 4.80000E+00 3.20000E+00 1.94500E-01
 -1      1077 5.00000E+00 3.20000E+00 1.94500E-01
 -1      1078 5.20000E+00 3.20000E+00 1.94500E-01
 -1      1079 0.00000E+00 3.40000E+00 1.94500E-01
 -1      1080 4.00000E-01 3.40000E+00 1.94500E-01
 -1      1081 8.00000E-01 3.40000E+00 1.94500E-01
 -1      1082 1.20000E+00 3.40000E+00 1.94500E-01
 -1      1083 1.60000E+00 3.40000E+00 1.94500E-01
 -1      1084 2.00000E+00 3.40000E+00 1.94500E-01
 -1      1085 2.40000E+00 3.40000E+00 1.94500E-01
 -1      1086 2.80000E+00 3.40000E+00 1.94500E-01
 -1      1087 3.20000E+00 3.40000E+00 1.94500E-01
 -1      1088 3.60000E+00 3.40000E+00 1.94500E-01
 -1      1089 4.00000E+00 3.40000E+00 1.94500E-01
 -1      1090 4.40000E+00 3.40000E+00 1.94500E-01
 -1      1091 4.80000E+00 3.40000E+00 1.94500E-01
 -1      1092 5.20000E+00 3.40000E+00 1.94500E-01
 -1      1093 0.00000E+00 3.60000E+00 1.94500E-01
 -1      1094 2.00000E-01 3.60000E+00 1.94500E-01
 -1      1095 4.00000E-01 3.60000E+00 1.94500E-01
 -1      1096 6.00000E-01 3.60000E+00 1.94500E-01
 -1      1097 8.00000E-01 3.60000E+00 1.94500E-01
 -1      1098 1.00000E+00 3.60000E+00 1.94500E-01
 -1      1099 1.20000E+00 3.60000E+00 1.94500E-01
 -1      1100 1.40000E+00 3.60000E+00 1.94500E-01
 -1      1101 1.60000E+00 3.60000E+00 1.94500E-01
 -1      1102 1.80000E+00 3.60000E+00 1.94500E-01
 -1      1103 2.00000E+00 3.60000E+00 1.94500E-01
 -1      1104 2.20000E+00 3.60000E+00 1.94500E-01
 -1      1105 2.40000E+00 3.60000E+00 1.94500E-01
 -1      1106 2.60000E+00 3.60000E+00 1.94500E-01
 -1      1107 2.80000E+00 3.60000E+00 1.94500E-01
 -1      1108 3.00000E+00 3.60000E+00 1.94500E-01
 -1      1109 3.20000E+00 3.60000E+00 1.94500E-01
 -1      1110 3.40000E+00 3.60000E+00 1.94500E-01
 -1      1111 3.60000E+00 3.60000E+00 1.94500E-01
 -1      1112 3.80000E+00 3.60000E+00 1.94500E-01
 -1      1113 4.00000E+00 3.60000E+00 1.94500E-01
 -1      1114 4.20000E+00 3.60000E+00 1.94500E-01
 -1      1115 4.40000E+00 3.60000E+00 1.94500E-01
 -1      1116 4.60000E+00 3.60000E+00 1.94500E-01
 -1      1117 4.80000E+00 3.60000E+00 1.94500E-01
 -1      1118 5.00000E+00 3.60000E+00 1.94500E-01
 -1      1119 5.20000E+00 3.60000E+00 1.94500E-01
 -1      1120 0.00000E+00 3.80000E+00 1.94500E-01
 -1      1121 4.00000E-01 3.80000E+00 1.94500E-01
 -1      1122 8.00000E-01 3.80000E+00 1.94500E-01
 -1      1123 1.20000E+00 3.80000E+00 1.94500E-01
 -1      1124 1.60000E+00 3.80000E+00 1.94500E-01
 -1      1125 3.60000E+00 3.80000E+00 1.94500E-01
 -1      1126 4.00000E+00 3.80000E+00 1.94500E-01
 -1      1127 4.40000E+00 3.80000E+00 1.94500E-01
 -1      1128 4.80000E+00 3.80000E+00 1.94500E-01
 -1      1129 5.20000E+00 3.80000E+00 1.94500E-01
 -1      1130 0.00000E+00 4.00000E+00 1.94500E-01
 -1      1131 2.00000E-01 4.00000E+00 1.94500E-01
 -1      1132 4.00000E-01 4.00000E+00 1.94500E-01
 -1      1133 6.00000E-01 4.00000E+00 1.94500E-01
 -1      1134 8.00000E-01 4.00000E+00 1.94500E-01
 -1      1135 1.00000E+00 4.00000E+00 1.94500E-01
 -1      1136 1.20000E+00 4.00000E+00 1.94500E-01
 -1      1137 1.40000E+00 4.00000E+00 1.94500E-01
 -1      1138 1.60000E+00 4.00000E+00 1.94500E-01
 -1      1139 1.80000E+00 4.00000E+00 1.94500E-01
 -1      1140 2.00000E+00 4.00000E+00 1.94500E-01
 -1      1141 3.20000E+00 4.00000E+00 1.94500E-01
 -1      1142 3.40000E+00 4.00000E+00 1.94500E-01
 -1      1143 3.60000E+00 4.00000E+00 1.94500E-01
 -1      1144 3.80000E+00 4.00000E+00 1.94500E-01
 -1      1145 4.00000E+00 4.00000E+00 1.94500E-01
 -1      1146 4.20000E+00 4.00000E+00 1.94500E-01
 -1      1147 4.40000E+00 4.00000E+00 1.94500E-01
 -1      1148 4.60000E+00 4.00000E+00 1.94500E-01
 -1      1149 4.80000E+00 4.00000E+00 1.94500E-01
 -1      1150 5.00000E+00 4.00000E+00 1.94500E-01
 -1      1151 5.20000E+00 4.00000E+00 1.94500E-01
 -1      1152 8.00000E-01 4.20000E+00 1.94500E-01
 -1      1153 1.20000E+00 4.20000E+00 1.94500E-01
 -1      1154 1.60000E+00 4.20000E+00 1.94500E-01
 -1      1155 2.00000E+00 4.20000E+00 1.94500E-01
 -1      1156 3.20000E+00 4.20000E+00 1.94500E-01
 -1      1157 3.60000E+00 4.20000E+00 1.94500E-01
 -1      1158 4.00000E+00 4.20000E+00 1.94500E-01
 -1      1159 4.40000E+00 4.20000E+00 1.94500E-01
 -1      1160 8.00000E-01 4.40000E+00 1.94500E-01
 -1      1161 1.00000E+00 4.40000E+00 1.94500E-01
 -1      1162 1.20000E+00 4.40000E+00 1.94500E-01
 -1      1163 1.40000E+00 4.40000E+00 1.94500E-01
 -1      1164 1.60000E+00 4.40000E+00 1.94500E-01
 -1      1165 1.80000E+00 4.40000E+00 1.94500E-01
 -1      1166 2.00000E+00 4.40000E+00 1.94500E-01
 -1      1167 3.20000E+00 4.40000E+00 1.94500E-01
 -1      1168 3.40000E+00 4.40000E+00 1.94500E-01
 -1      1169 3.60000E+00 4.40000E+00 1.94500E-01
 -1      1170 3.80000E+00 4.40000E+00 1.94500E-01
 -1      1171 4.00000E+00 4.40000E+00 1.94500E-01
 -1      1172 4.20000E+00 4.40000E+00 1.94500E-01
 -1      1173 4.40000E+00 4.40000E+00 1.94500E-01
 -1      1174 1.20000E+00 4.60000E+00 1.94500E-01
 -1      1175 1.60000E+00 4.60000E+00 1.94500E-01
 -1      1176 2.00000E+00 4.60000E+00 1.94500E-01
 -1      1177 3.20000E+00 4.60000E+00 1.94500E-01
 -1      1178 3.60000E+00 4.60000E+00 1.94500E-01
 -1      1179 4.00000E+00 4.60000E+00 1.94500E-01
 -1      1180 1.20000E+00 4.80000E+00 1.94500E-01
 -1      1181 1.40000E+00 4.80000E+00 1.94500E-01
 -1      1182 1.60000E+00 4.80000E+00 1.94500E-01
 -1      1183 1.80000E+00 4.80000E+00 1.94500E-01
 -1      1184 2.00000E+00 4.80000E+00 1.94500E-01
 -1      1185 2.20000E+00 4.80000E+00 1.94500E-01
 -1      1186 2.40000E+00 4.80000E+00 1.94500E-01
 -1      1187 2.60000E+00 4.80000E+00 1.94500E-01
 -1      1188 2.80000E+00 4.80000E+00 1.94500E-01
 -1      1189 3.00000E+00 4.80000E+00 1.94500E-01
 -1      1190 3.20000E+00 4.80000E+00 1.94500E-01
 -1      1191 3.40000E+00 4.80000E+00 1.94500E-01
 -1      1192 3.60000E+00 4.80000E+00 1.94500E-01
 -1      1193 3.80000E+00 4.80000E+00 1.94500E-01
 -1      1194 4.00000E+00 4.80000E+00 1.94500E-01
 -1      1195 1.20000E+00 5.00000E+00 1.94500E-01
 -1      1196 1.60000E+00 5.00000E+00 1.94500E-01
 -1      1197 2.00000E+00 5.00000E+00 1.94500E-01
 -1      1198 2.40000E+00 5.00000E+00 1.94500E-01
 -1      1199 2.80000E+00 5.00000E+00 1.94500E-01
 -1      1200 3.20000E+00 5.00000E+00 1.94500E-01
 -1      1201 3.60000E+00 5.00000E+00 1.94500E-01
 -1      1202 4.00000E+00 5.00000E+00 1.94500E-01
 -1      1203 1.20000E+00 5.20000E+00 1.94500E-01
 -1      1204 1.40000E+00 5.20000E+00 1.94500E-01
 -1      1205 1.60000E+00 5.20000E+00 1.94500E-01
 -1      1206 1.80000E+00 5.20000E+00 1.94500E-01
 -1      1207 2.00000E+00 5.20000E+00 1.94500E-01
 -1      1208 2.20000E+00 5.20000E+00 1.94500E-01
 -1      1209 2.40000E+00 5.20000E+00 1.94500E-01
 -1      1210 2.60000E+00 5.20000E+00 1.94500E-01
 -1      1211 2.80000E+00 5.20000E+00 1.94500E-01
 -1      1212 3.00000E+00 5.20000E+00 1.94500E-01
 -1      1213 3.20000E+00 5.20000E+00 1.94500E-01
 -1      1214 3.40000E+00 5.20000E+00 1.94500E-01
 -1      1215 3.60000E+00 5.20000E+00 1.94500E-01
 -1      1216 3.80000E+00 5.20000E+00 1.94500E-01
 -1      1217 4.00000E+00 5.20000E+00 1.94500E-01
 -1      1218 1.60000E+00 1.60000E+00 2.25875E-01
 -1      1219 2.00000E+00 1.60000E+00 2.25875E-01
 -1      1220 2.40000E+00 1.60000E+00 2.25875E-01
 -1      1221 2.80000E+00 1.60000E+00 2.25875E-01
 -1      1222 3.20000E+00 1.60000E+00 2.25875E-01
 -1      1223 3.60000E+00 1.60000E+00 2.25875E-01
 -1      1224 1.60000E+00 2.00000E+00 2.25875E-01
 -1      1225 2.00000E+00 2.00000E+00 2.25875E-01
 -1      1226 2.40000E+00 2.00000E+00 2.25875E-01
 -1      1227 2.80000E+00 2.00000E+00 2.25875E-01
 -1      1228 3.20000E+00 2.00000E+00 2.25875E-01
 -1      1229 3.60000E+00 2.00000E+00 2.25875E-01
 -1      1230 1.60000E+00 2.40000E+00 2.25875E-01
 -1      1231 2.00000E+00 2.40000E+00 2.25875E-01
 -1      1232 2.40000E+00 2.40000E+00 2.25875E-01
 -1      1233 2.80000E+00 2.40000E+00 2.25875E-01
 -1      1234 3.20000E+00 2.40000E+00 2.25875E-01
 -1      1235 3.60000E+00 2.40000E+00 2.25875E-01
 -1      1236 1.60000E+00 2.80000E+00 2.25875E-01
 -1      1237 2.00000E+00 2.80000E+00 2.25875E-01
 -1      1238 2.40000E+00 2.80000E+00 2.25875E-01
 -1      1239 2.80000E+00 2.80000E+00 2.25875E-01
 -1      1240 3.20000E+00 2.80000E+00 2.25875E-01
 -1      1241 3.60000E+00 2.80000E+00 2.25875E-01
 -1      1242 1.60000E+00 3.20000E+00 2.25875E-01
 -1      1243 2.00000E+00 3.20000E+00 2.25875E-01
 -1      1244 2.40000E+00 3.20000E+00 2.25875E-01
 -1      1245 2.80000E+00 3.20000E+00 2.25875E-01
 -1      1246 3.20000E+00 3.20000E+00 2.25875E-01
 -1      1247 3.60000E+00 3.20000E+00 2.25875E-01
 -1      1248 1.60000E+00 3.60000E+00 2.25875E-01
 -1      1249 2.00000E+00 3.60000E+00 2.25875E-01
 -1      1250 2.40000E+00 3.60000E+00 2.25875E-01
 -1      1251 2.80000E+00 3.60000E+00 2.25875E-01
 -1      1252 3.20000E+00 3.60000E+00 2.25875E-01
 -1      1253 3.60000E+00 3.60000E+00 2.25875E-01
 -1      1254 1.60000E+00 1.60000E+00 2.57250E-01
 -1      1255 1.80000E+00 1.60000E+00 2.57250E-01
 -1      1256 2.00000E+00 1.60000E+00 2.57250E-01
 -1      1257 2.20000E+00 1.60000E+00 2.57250E-01
 -1      1258 2.40000E+00 1.60000E+00 2.57250E-01
 -1      1259 2.60000E+00 1.60000E+00 2.57250E-01
 -1      1260 2.80000E+00 1.60000E+00 2.57250E-01
 -1      1261 3.00000E+00 1.60000E+00 2.57250E-01
 -1      1262 3.20000E+00 1.60000E+00 2.57250E-01
 -1      1263 3.40000E+00 1.60000E+00 2.57250E-01
 -1      1264 3.60000E+00 1.60000E+00 2.57250E-01
 -1      1265 1.60000E+00 1.80000E+00 2.57250E-01
 -1      1266 2.00000E+00 1.80000E+00 2.57250E-01
 -1      1267 2.40000E+00 1.80000E+00 2.57250E-01
 -1      1268 2.80000E+00 1.80000E+00 2.57250E-01
 -1      1269 3.20000E+00 1.80000E+00 2.57250E-01
 -1      1270 3.60000E+00 1.80000E+00 2.57250E-01
 -1      1271 1.60000E+00 2.00000E+00 2.57250E-01
 -1      1272 1.80000E+00 2.00000E+00 2.57250E-01
 -1      1273 2.00000E+00 2.00000E+00 2.57250E-01
 -1      1274 2.20000E+00 2.00000E+00 2.57250E-01
 -1      1275 2.40000E+00 2.00000E+00 2.57250E-01
 -1      1276 2.60000E+00 2.00000E+00 2.57250E-01
 -1      1277 2.80000E+00 2.00000E+00 2.57250E-01
 -1      1278 3.00000E+00 2.00000E+00 2.57250E-01
 -1      1279 3.20000E+00 2.00000E+00 2.57250E-01
 -1      1280 3.40000E+00 2.00000E+00 2.57250E-01
 -1      1281 3.60000E+00 2.00000E+00 2.57250E-01
 -1      1282 1.60000E+00 2.20000E+00 2.57250E-01
 -1      1283 2.00000E+00 2.20000E+00 2.57250E-01
 -1      1284 2.40000E+00 2.20000E+00 2.57250E-01
 -1      1285 2.80000E+00 2.20000E+00 2.57250E-01
 -1      1286 3.20000E+00 2.20000E+00 2.57250E-01
 -1      1287 3.60000E+00 2.20000E+00 2.57250E-01
 -1      1288 1.60000E+00 2.40000E+00 2.57250E-01
 -1      1289 1.80000E+00 2.40000E+00 2.57250E-01
 -1      1290 2.00000E+00 2.40000E+00 2.57250E-01
 -1      1291 2.20000E+00 2.40000E+00 2.57250E-01
 -1      1292 2.40000E+00 2.40000E+00 2.57250E-01
 -1      1293 2.60000E+00 2.40000E+00 2.57250E-01
 -1      1294 2.80000E+00 2.40000E+00 2.57250E-01
 -1      1295 3.00000E+00 2.40000E+00 2.57250E-01
 -1      1296 3.20000E+00 2.40000E+00 2.57250E-01
 -1      1297 3.40000E+00 2.40000E+00 2.57250E-01
 -1      1298 3.60000E+00 2.40000E+00 2.57250E-01
 -1      1299 1.60000E+00 2.60000E+00 2.57250E-01
 -1      1300 2.00000E+00 2.60000E+00 2.57250E-01
 -1      1301 2.40000E+00 2.60000E+00 2.57250E-01
 -1      1302 2.80000E+00 2.60000E+00 2.57250E-01
 -1      1303 3.20000E+00 2.60000E+00 2.57250E-01
 -1      1304 3.60000E+00 2.60000E+00 2.57250E-01
 -1      1305 1.60000E+00 2.80000E+00 2.57250E-01
 -1      1306 1.80000E+00 2.80000E+00 2.57250E-01
 -1      1307 2.00000E+00 2.80000E+00 2.57250E-01
 -1      1308 2.20000E+00 2.80000E+00 2.57250E-01
 -1      1309 2.40000E+00 2.80000E+00 2.57250E-01
 -1      1310 2.60000E+00 2.80000E+00 2.57250E-01
 -1      1311 2.80000E+00 2.80000E+00 2.57250E-01
 -1      1312 3.00000E+00 2.80000E+00 2.57250E-01
 -1      1313 3.20000E+00 2.80000E+00 2.57250E-01
 -1      1314 3.40000E+00 2.80000E+00 2.57250E-01
 -1      1315 3.60000E+00 2.80000E+00 2.57250E-01
 -1      1316 1.60000E+00 3.00000E+00 2.57250E-01
 -1      1317 2.00000E+00 3.00000E+00 2.57250E-01
 -1      1318 2.40000E+00 3.00000E+00 2.57250E-01
 -1      1319 2.80000E+00 3.00000E+00 2.57250E-01
 -1      1320 3.20000E+00 3.00000E+00 2.57250E-01
 -1      1321 3.60000E+00 3.00000E+00 2.57250E-01
 -1      1322 1.60000E+00 3.20000E+00 2.57250E-01
 -1      1323 1.80000E+00 3.20000E+00 2.57250E-01
 -1      1324 2.00000E+00 3.20000E+00 2.57250E-01
 -1      1325 2.20000E+00 3.20000E+00 2.57250E-01
 -1      1326 2.40000E+00 3.20000E+00 2.57250E-01
 -1      1327 2.60000E+00 3.20000E+00 2.57250E-01
 -1      1328 2.80000E+00 3.20000E+00 2.57250E-01
 -1      1329 3.00000E+00 3.20000E+00 2.57250E-01
 -1      1330 3.20000E+00 3.20000E+00 2.57250E-01
 -1      1331 3.40000E+00 3.20000E+00 2.57250E-01
 -1      1332 3.60000E+00 3.20000E+00 2.57250E-01
 -1      1333 1.60000E+00 3.40000E+00 2.57250E-01
 -1      1334 2.00000E+00 3.40000E+00 2.57250E-01
 -1      1335 2.40000E+00 3.40000E+00 2.57250E-01
 -1      1336 2.80000E+00 3.40000E+00 2.57250E-01
 -1      1337 3.20000E+00 3.40000E+00 2.57250E-01
 -1      1338 3.60000E+00 3.40000E+00 2.57250E-01
 -1      1339 1.60000E+00 3.60000E+00 2.57250E-01
 -1      1340 1.80000E+00 3.60000E+00 2.57250E-01
 -1      1341 2.00000E+00 3.60000E+00 2.57250E-01
 -1      1342 2.20000E+00 3.60000E+00 2.57250E-01
 -1      1343 2.40000E+00 3.60000E+00 2.57250E-01
 -1      1344 2.60000E+00 3.60000E+00 2.57250E-01
 -1      1345 2.80000E+00 3.60000E+00 2.57250E-01
 -1      1346 3.00000E+00 3.60000E+00 2.57250E-01
 -1      1347 3.20000E+00 3.60000E+00 2.57250E-01
 -1      1348 3.40000E+00 3.60000E+00 2.57250E-01
 -1      1349 3.60000E+00 3.60000E+00 2.57250E-01
 -1      1350 1.60000E+00 1.60000E+00 2.88625E-01
 -1      1351 2.00000E+00 1.60000E+00 2.88625E-01
 -1      1352 2.40000E+00 1.60000E+00 2.88625E-01
 -1      1353 2.80000E+00 1.60000E+00 2.88625E-01
 -1      1354 3.20000E+00 1.60000E+00 2.88625E-01
 -1      1355 3.60000E+00 1.60000E+00 2.88625E-01
 -1      1356 1.60000E+00 2.00000E+00 2.88625E-01
 -1      1357 2.00000E+00 2.00000E+00 2.88625E-01
 -1      1358 2.40000E+00 2.00000E+00 2.88625E-01
 -1      1359 2.80000E+00 2.00000E+00 2.88625E-01
 -1      1360 3.20000E+00 2.00000E+00 2.88625E-01
 -1      1361 3.60000E+00 2.00000E+00 2.88625E-01
 -1      1362 1.60000E+00 2.40000E+00 2.88625E-01
 -1      1363 2.00000E+00 2.40000E+00 2.88625E-01
 -1      1364 2.40000E+00 2.40000E+00 2.88625E-01
 -1      1365 2.80000E+00 2.40000E+00 2.88625E-01
 -1      1366 3.20000E+00 2.40000E+00 2.88625E-01
 -1      1367 3.60000E+00 2.40000E+00 2.88625E-01
 -1      1368 1.60000E+00 2.80000E+00 2.88625E-01
 -1      1369 2.00000E+00 2.80000E+00 2.88625E-01
 -1      1370 2.40000E+00 2.80000E+00 2.88625E-01
 -1      1371 2.80000E+00 2.80000E+00 2.88625E-01
 -1      1372 3.20000E+00 2.80000E+00 2.88625E-01
 -1      1373 3.60000E+00 2.80000E+00 2.88625E-01
 -1      1374 1.60000E+00 3.20000E+00 2.88625E-01
 -1      1375 2.00000E+00 3.20000E+00 2.88625E-01
 -1      1376 2.40000E+00 3.20000E+00 2.88625E-01
 -1      1377 2.80000E+00 3.20000E+00 2.88625E-01
 -1      1378 3.20000E+00 3.20000E+00 2.88625E-01
 -1      1379 3.60000E+00 3.20000E+00 2.88625E-01
 -1      1380 1.60000E+00 3.60000E+00 2.88625E-01
 -1      1381 2.00000E+00 3.60000E+00 2.88625E-01
 -1      1382 2.40000E+00 3.60000E+00 2.88625E-01
 -1      1383 2.80000E+00 3.60000E+00 2.88625E-01
 -1      1384 3.20000E+00 3.60000E+00 2.88625E-01
 -1      1385 3.60000E+00 3.60000E+00 2.88625E-01
 -1      1386 1.60000E+00 1.60000E+00 3.20000E-01
 -1      1387 1.80000E+00 1.60000E+00 3.20000E-01
 -1      1388 2.00000E+00 1.60000E+00 3.20000E-01
 -1      1389 2.20000E+00 1.60000E+00 3.20000E-01
 -1      1390 2.40000E+00 1.60000E+00 3.20000E-01
 -1      1391 2.60000E+00 1.60000E+00 3.20000E-01
 -1      1392 2.80000E+00 1.60000E+00 3.20000E-01
 -1      1393 3.00000E+00 1.60000E+00 3.20000E-01
 -1      1394 3.20000E+00 1.60000E+00 3.20000E-01
 -1      1395 3.40000E+00 1.60000E+00 3.20000E-01
 -1      1396 3.60000E+00 1.60000E+00 3.20000E-01
 -1      1397 1.60000E+00 1.80000E+00 3.20000E-01
 -1      1398 2.00000E+00 1.80000E+00 3.20000E-01
 -1      1399 2.40000E+00 1.80000E+00 3.20000E-01
 -1      1400 2.80000E+00 1.80000E+00 3.20000E-01
 -1      1401 3.20000E+00 1.80000E+00 3.20000E-01
 -1      1402 3.60000E+00 1.80000E+00 3.20000E-01
 -1      1403 1.60000E+00 2.00000E+00 3.20000E-01
 -1      1404 1.80000E+00 2.00000E+00 3.20000E-01
 -1      1405 2.00000E+00 2.00000E+00 3.20000E-01
 -1      1406 2.20000E+00 2.00000E+00 3.20000E-01
 -1      1407 2.40000E+00 2.00000E+00 3.20000E-01
 -1      1408 2.60000E+00 2.00000E+00 3.20000E-01
 -1      1409 2.80000E+00 2.00000E+00 3.20000E-01
 -1      1410 3.00000E+00 2.00000E+00 3.20000E-01
 -1      1411 3.20000E+00 2.00000E+00 3.20000E-01
 -1      1412 3.40000E+00 2.00000E+00 3.20000E-01
 -1      1413 3.60000E+00 2.00000E+00 3.20000E-01
 -1      1414 1.60000E+00 2.20000E+00 3.20000E-01
 -1      1415 2.00000E+00 2.20000E+00 3.20000E-01
 -1      1416 2.40000E+00 2.20000E+00 3.20000E-01
 -1      1417 2.80000E+00 2.20000E+00 3.20000E-01
 -1      1418 3.20000E+00 2.20000E+00 3.20000E-01
 -1      1419 3.60000E+00 2.20000E+00 3.20000E-01
 -1      1420 1.60000E+00 2.40000E+00 3.20000E-01
 -1      1421 1.80000E+00 2.40000E+00 3.20000E-01
 -1      1422 2.00000E+00 2.40000E+00 3.20000E-01
 -1      1423 2.20000E+00 2.40000E+00 3.20000E-01
 -1      1424 2.40000E+00 2.40000E+00 3.20000E-01
 -1      1425 2.60000E+00 2.40000E+00 3.20000E-01
 -1      1426 2.80000E+00 2.40000E+00 3.20000E-01
 -1      1427 3.00000E+00 2.40000E+00 3.20000E-01
 -1      1428 3.20000E+00 2.40000E+00 3.20000E-01
 -1      1429 3.40000E+00 2.40000E+00 3.20000E-01
 -1      1430 3.60000E+00 2.40000E+00 3.20000E-01
 -1      1431 1.60000E+00 2.60000E+00 3.20000E-01
 -1      1432 2.00000E+00 2.60000E+00 3.20000E-01
 -1      1433 2.40000E+00 2.60000E+00 3.20000E-01
 -1      1434 2.80000E+00 2.60000E+00 3.20000E-01
 -1      1435 3.20000E+00 2.60000E+00 3.20000E-01
 -1      1436 3.60000E+00 2.60000E+00 3.20000E-01
 -1      1437 1.60000E+00 2.80000E+00 3.20000E-01
 -1      1438 1.80000E+00 2.80000E+00 3.20000E-01
 -1      1439 2.00000E+00 2.80000E+00 3.20000E-01
 -1      1440 2.20000E+00 2.80000E+00 3.20000E-01
 -1      1441 2.40000E+00 2.80000E+00 3.20000E-01
 -1      1442 2.60000E+00 2.80000E+00 3.20000E-01
 -1      1443 2.80000E+00 2.80000E+00 3.20000E-01
 -1      1444 3.00000E+00 2.80000E+00 3.20000E-01
 -1      1445 3.20000E+00 2.80000E+00 3.20000E-01
 -1      1446 3.40000E+00 2.80000E+00 3.20000E-01
 -1      1447 3.60000E+00 2.80000E+00 3.20000E-01
 -1      1448 1.60000E+00 3.00000E+00 3.20000E-01
 -1      1449 2.00000E+00 3.00000E+00 3.20000E-01
 -1      1450 2.40000E+00 3.00000E+00 3.20000E-01
 -1      1451 2.80000E+00 3.00000E+00 3.20000E-01
 -1      1452 3.20000E+00 3.00000E+00 3.20000E-01
 -1      1453 3.60000E+00 3.00000E+00 3.20000E-01
 -1      1454 1.60000E+00 3.20000E+00 3.20000E-01
 -1      1455 1.80000E+00 3.20000E+00 3.20000E-01
 -1      1456 2.00000E+00 3.20000E+00 3.20000E-01
 -1      1457 2.20000E+00 3.20000E+00 3.20000E-01
 -1      1458 2.40000E+00 3.20000E+00 3.20000E-01
 -1      1459 2.60000E+00 3.20000E+00 3.20000E-01
 -1      1460 2.80000E+00 3.20000E+00 3.20000E-01
 -1      1461 3.00000E+00 3.20000E+00 3.20000E-01
 -1      1462 3.20000E+00 3.20000E+00 3.20000E-01
 -1      1463 3.40000E+00 3.20000E+00 3.20000E-01
 -1      1464 3.60000E+00 3.20000E+00 3.20000E-01
 -1      1465 1.60000E+00 3.40000E+00 3.20000E-01
 -1      1466 2.00000E+00 3.40000E+00 3.20000E-01
 -1      1467 2.40000E+00 3.40000E+00 3.20000E-01
 -1      1468 2.80000E+00 3.40000E+00 3.20000E-01
 -1      1469 3.20000E+00 3.40000E+00 3.20000E-01
 -1      1470 3.60000E+00 3.40000E+00 3.20000E-01
 -1      1471 1.60000E+00 3.60000E+00 3.20000E-01
 -1      1472 1.80000E+00 3.60000E+00 3.20000E-01
 -1      1473 2.00000E+00 3.60000E+00 3.20000E-01
 -1      1474 2.20000E+00 3.60000E+00 3.20000E-01
 -1      1475 2.40000E+00 3.60000E+00 3.20000E-01
 -1      1476 2.60000E+00 3.60000E+00 3.20000E-01
 -1      1477 2.80000E+00 3.60000E+00 3.20000E-01
 -1      1478 3.00000E+00 3.60000E+00 3.20000E-01
 -1      1479 3.20000E+00 3.60000E+00 3.20000E-01
 -1      1480 3.40000E+00 3.60000E+00 3.20000E-01
 -1      1481 3.60000E+00 3.60000E+00 3.20000E-01
 -3
    3C                           196                                     1
 -1         1    4    0    1
 -2       336       338       368       366       888       890       920       918       337       357
 -2       367       356       692       693       704       703       889       909       919       908
 -1         2    4    0    1
 -2       366       368       408       406       918       920       960       958       367       394
 -2       407       393       703       704       718       717       919       946       959       945
 -1         3    4    0    1
 -2       406       408       442       440       958       960       994       992       407       430
 -2       441       429       717       718       731       730       959       982       993       981
 -1         4    4    0    1
 -2       440       442       471       469       992       994      1023      1021       441       460
 -2       470       459       730       731       742       741       993      1012      1022      1011
 -1         5    4    0    1
 -2       469       471       504       502      1021      1023      1056      1054       470       491
 -2       503       490       741       742       754       753      1022      1043      1055      1042
 -1         6    4    0    1
 -2       502       504       543       541      1054      1056      1095      1093       503       528
 -2       542       527       753       754       768       767      1055      1080      1094      1079
 -1         7    4    0    1
 -2       541       543       580       578      1093      1095      1132      1130       542       569
 -2       579       568       767       768       782       781      1094      1121      1131      1120
 -1         8    4    0    1
 -2       338       340       370       368       890       892       922       920       339       358
 -2       369       357       693       694       705       704       891       910       921       909
 -1         9    4    0    1
 -2       368       370       410       408       920       922       962       960       369       395
 -2       409       394       704       705       719       718       921       947       961       946
 -1        10    4    0    1
 -2       408       410       444       442       960       962       996       994       409       431
 -2       443       430       718       719       732       731       961       983       995       982
 -1        11    4    0    1
 -2       471       473       506       504      1023      1025      1058      1056       472       492
 -2       505       491       742       743       755       754      1024      1044      1057      1043
 -1        12    4    0    1
 -2       504       506       545       543      1056      1058      1097      1095       505       529
 -2       544       528       754       755       769       768      1057      1081      1096      1080
 -1        13    4    0    1
 -2       543       545       582       580      1095      1097      1134      1132       544       570
 -2       581       569       768       769       783       782      1096      1122      1133      1121
 -1        14    4    0    1
 -2       311       313       342       340       863       865       894       892       312       330
 -2       341       329       682       683       695       694       864       882       893       881
 -1        15    4    0    1
 -2       340       342       372       370       892       894       924       922       341       359
 -2       371       358       694       695       706       705       893       911       923       910
 -1        16    4    0    1
 -2       370       372       412       410       922       924       964       962       371       396
 -2       411       395       705       706       720       719       923       948       963       947
 -1        17    4    0    1
 -2       506       508       547       545      1058      1060      1099      1097       507       530
 -2       546       529       755       756       770       769      1059      1082      1098      1081
 -1        18    4    0    1
 -2       545       547       584       582      1097      1099      1136      1134       546       571
 -2       583       570       769       770       784       783      1098      1123      1135      1122
 -1        19    4    0    1
 -2       582       584       610       608      1134      1136      1162      1160       583       601
 -2       609       600       783       784       794       793      1135      1153      1161      1152
 -1        20    4    0    1
 -2       265       267       290       288       817       819       842       840       266       281
 -2       289       280       666       667       675       674       818       833       841       832
 -1        21    4    0    1
 -2       288       290       315       313       840       842       867       865       289       304
 -2       314       303       674       675       684       683       841       856       866       855
 -1        22    4    0    1
 -2       313       315       344       342       865       867       896       894       314       331
 -2       343       330       683       684       696       695       866       883       895       882
 -1        23    4    0    1
 -2       342       344       374       372       894       896       926       924       343       360
 -2       373       359       695       696       707       706       895       912       925       911
 -1        24    4    0    1
 -2       547       549       586       584      1099      1101      1138      1136       548       572
 -2       585       571       770       771       785       784      1100      1124      1137      1123
 -1        25    4    0    1
 -2       584       586       612       610      1136      1138      1164      1162       585       602
 -2       611       601       784       785       795       794      1137      1154      1163      1153
 -1        26    4    0    1
 -2       610       612       630       628      1162      1164      1182      1180       611       623
 -2       629       622       794       795       802       801      1163      1175      1181      1174
 -1        27    4    0    1
 -2       628       630       653       651      1180      1182      1205      1203       629       644
 -2       652       643       801       802       810       809      1181      1196      1204      1195
 -1        28    4    0    1
 -2       267       269       292       290       819       821       844       842       268       282
 -2       291       281       667       668       676       675       820       834       843       833
 -1        29    4    0    1
 -2       290       292       317       315       842       844       869       867       291       305
 -2       316       304       675       676       685       684       843       857       868       856
 -1        30    4    0    1
 -2         1         3        20        18       133       135       152       150         2        13
 -2        19        12        97        98       104       103       134       145       151       144
 -1        31    4    0    1
 -2       133       135       152       150       374       376       415       413       134       145
 -2       151       144       229       230       236       235       375       398       414       397
 -1        32    4    0    1
 -2       374       376       415       413       926       928       967       965       375       398
 -2       414       397       707       708       722       721       927       950       966       949
 -1        33    4    0    1
 -2       926       928       967       965      1254      1256      1273      1271       927       950
 -2       966       949      1218      1219      1225      1224      1255      1266      1272      1265
 -1        34    4    0    1
 -2      1254      1256      1273      1271      1386      1388      1405      1403      1255      1266
 -2      1272      1265      1350      1351      1357      1356      1387      1398      1404      1397
 -1        35    4    0    1
 -2        18        20        37        35       150       152       169       167        19        30
 -2        36        29       103       104       110       109       151       162       168       161
 -1        36    4    0    1
 -2       150       152       169       167       413       415       447       445       151       162
 -2       168       161       235       236       242       241       414       433       446       432
 -1        37    4    0    1
 -2       413       415       447       445       965       967       999       997       414       433
 -2       446       432       721       722       734       733       966       985       998       984
 -1        38    4    0    1
 -2       965       967       999       997      1271      1273      1290      1288       966       985
 -2       998       984      1224      1225      1231      1230      1272      1283      1289      1282
 -1        39    4    0    1
 -2      1271      1273      1290      1288      1403      1405      1422      1420      1272      1283
 -2      1289      1282      1356      1357      1363      1362      1404      1415      1421      1414
 -1        40    4    0    1
 -2        35        37        54        52       167       169       186       184        36        47
 -2        53        46       109       110       116       115       168       179       185       178
 -1        41    4    0    1
 -2       167       169       186       184       445       447       476       474       168       179
 -2       185       178       241       242       248       247       446       462       475       461
 -1        42    4    0    1
 -2       445       447       476       474       997       999      1028      1026       446       462
 -2       475       461       733       734       745       744       998      1014      1027      1013
 -1        43    4    0    1
 -2       997       999      1028      1026      1288      1290      1307      1305       998      1014
 -2      1027      1013      1230      1231      1237      1236      1289      1300      1306      1299
 -1        44    4    0    1
 -2      1288      1290      1307      1305      1420      1422      1439      1437      1289      1300
 -2      1306      1299      1362      1363      1369      1368      1421      1432      1438      1431
 -1        45    4    0    1
 -2        52        54        71        69       184       186       203       201        53        64
 -2        70        63       115       116       122       121       185       196       202       195
 -1        46    4    0    1
 -2       184       186       203       201       474       476       511       509       185       196
 -2       202       195       247       248       254       253       475       494       510       493
 -1        47    4    0    1
 -2       474       476       511       509      1026      1028      1063      1061       475       494
 -2       510       493       744       745       758       757      1027      1046      1062      1045
 -1        48    4    0    1
 -2      1026      1028      1063      1061      1305      1307      1324      1322      1027      1046
 -2      1062      1045      1236      1237      1243      1242      1306      1317      1323      1316
 -1        49    4    0    1
 -2      1305      1307      1324      1322      1437      1439      1456      1454      1306      1317
 -2      1323      1316      1368      1369      1375      1374      1438      1449      1455      1448
 -1        50    4    0    1
 -2        69        71        88        86       201       203       220       218        70        81
 -2        87        80       121       122       128       127       202       213       219       212
 -1        51    4    0    1
 -2       201       203       220       218       509       511       551       549       202       213
 -2       219       212       253       254       260       259       510       532       550       531
 -1        52    4    0    1
 -2       509       511       551       549      1061      1063      1103      1101       510       532
 -2       550       531       757       758       772       771      1062      1084      1102      1083
 -1        53    4    0    1
 -2      1061      1063      1103      1101      1322      1324      1341      1339      1062      1084
 -2      1102      1083      1242      1243      1249      1248      1323      1334      1340      1333
 -1        54    4    0    1
 -2      1322      1324      1341      1339      1454      1456      1473      1471      1323      1334
 -2      1340      1333      1374      1375      1381      1380      1455      1466      1472      1465
 -1        55    4    0    1
 -2       586       588       614       612      1138      1140      1166      1164       587       603
 -2       613       602       785       786       796       795      1139      1155      1165      1154
 -1        56    4    0    1
 -2       612       614       632       630      1164      1166      1184      1182       613       624
 -2       631       623       795       796       803       802      1165      1176      1183      1175
 -1        57    4    0    1
 -2       630       632       655       653      1182      1184      1207      1205       631       645
 -2       654       644       802       803       811       810      1183      1197      1206      1196
 -1        58    4    0    1
 -2       269       271       294       292       821       823       846       844       270       283
 -2       293       282       668       669       677       676       822       835       845       834
 -1        59    4    0    1
 -2       292       294       319       317       844       846       871       869       293       306
 -2       318       305       676       677       686       685       845       858       870       857
 -1        60    4    0    1
 -2         3         5        22        20       135       137       154       152         4        14
 -2        21        13        98        99       105       104       136       146       153       145
 -1        61    4    0    1
 -2       135       137       154       152       376       378       417       415       136       146
 -2       153       145       230       231       237       236       377       399       416       398
 -1        62    4    0    1
 -2       376       378       417       415       928       930       969       967       377       399
 -2       416       398       708       709       723       722       929       951       968       950
 -1        63    4    0    1
 -2       928       930       969       967      1256      1258      1275      1273       929       951
 -2       968       950      1219      1220      1226      1225      1257      1267      1274      1266
 -1        64    4    0    1
 -2      1256      1258      1275      1273      1388      1390      1407      1405      1257      1267
 -2      1274      1266      1351      1352      1358      1357      1389      1399      1406      1398
 -1        65    4    0    1
 -2        20        22        39        37       152       154       171       169        21        31
 -2        38        30       104       105       111       110       153       163       170       162
 -1        66    4    0    1
 -2       152       154       171       169       415       417       449       447       153       163
 -2       170       162       236       237       243       242       416       434       448       433
 -1        67    4    0    1
 -2       415       417       449       447       967       969      1001       999       416       434
 -2       448       433       722       723       735       734       968       986      1000       985
 -1        68    4    0    1
 -2       967       969      1001       999      1273      1275      1292      1290       968       986
 -2      1000       985      1225      1226      1232      1231      1274      1284      1291      1283
 -1        69    4    0    1
 -2      1273      1275      1292      1290      1405      1407      1424      1422      1274      1284
 -2      1291      1283      1357      1358      1364      1363      1406      1416      1423      1415
 -1        70    4    0    1
 -2        37        39        56        54       169       171       188       186        38        48
 -2        55        47       110       111       117       116       170       180       187       179
 -1        71    4    0    1
 -2       169       171       188       186       447       449       478       476       170       180
 -2       187       179       242       243       249       248       448       463       477       462
 -1        72    4    0    1
 -2       447       449       478       476       999      1001      1030      1028       448       463
 -2       477       462       734       735       746       745      1000      1015      1029      1014
 -1        73    4    0    1
 -2       999      1001      1030      1028      1290      1292      1309      1307      1000      1015
 -2      1029      1014      1231      1232      1238      1237      1291      1301      1308      1300
 -1        74    4    0    1
 -2      1290      1292      1309      1307      1422      1424      1441      1439      1291      1301
 -2      1308      1300      1363      1364      1370      1369      1423      1433      1440      1432
 -1        75    4    0    1
 -2        54        56        73        71       186       188       205       203        55        65
 -2        72        64       116       117       123       122       187       197       204       196
 -1        76    4    0    1
 -2       186       188       205       203       476       478       513       511       187       197
 -2       204       196       248       249       255       254       477       495       512       494
 -1        77    4    0    1
 -2       476       478       513       511      1028      1030      1065      1063       477       495
 -2       512       494       745       746       759       758      1029      1047      1064      1046
 -1        78    4    0    1
 -2      1028      1030      1065      1063      1307      1309      1326      1324      1029      1047
 -2      1064      1046      1237      1238      1244      1243      1308      1318      1325      1317
 -1        79    4    0    1
 -2      1307      1309      1326      1324      1439      1441      1458      1456      1308      1318
 -2      1325      1317      1369      1370      1376      1375      1440      1450      1457      1449
 -1        80    4    0    1
 -2        71        73        90        88       203       205       222       220        72        82
 -2        89        81       122       123       129       128       204       214       221       213
 -1        81    4    0    1
 -2       203       205       222       220       511       513       553       551       204       214
 -2       221       213       254       255       261       260       512       533       552       532
 -1        82    4    0    1
 -2       511       513       553       551      1063      1065      1105      1103       512       533
 -2       552       532       758       759       773       772      1064      1085      1104      1084
 -1        83    4    0    1
 -2      1063      1065      1105      1103      1324      1326      1343      1341      1064      1085
 -2      1104      1084      1243      1244      1250      1249      1325      1335      1342      1334
 -1        84    4    0    1
 -2      1324      1326      1343      1341      1456      1458      1475      1473      1325      1335
 -2      1342      1334      1375      1376      1382      1381      1457      1467      1474      1466
 -1        85    4    0    1
 -2       632       634       657       655      1184      1186      1209      1207       633       646
 -2       656       645       803       804       812       811      1185      1198      1208      1197
 -1        86    4    0    1
 -2       271       273       296       294       823       825       848       846       272       284
 -2       295       283       669       670       678       677       824       836       847       835
 -1        87    4    0    1
 -2         5         7        24        22       137       139       156       154         6        15
 -2        23        14        99       100       106       105       138       147       155       146
 -1        88    4    0    1
 -2       137       139       156       154       378       380       419       417       138       147
 -2       155       146       231       232       238       237       379       400       418       399
 -1        89    4    0    1
 -2       378       380       419       417       930       932       971       969       379       400
 -2       418       399       709       710       724       723       931       952       970       951
 -1        90    4    0    1
 -2       930       932       971       969      1258      1260      1277      1275       931       952
 -2       970       951      1220      1221      1227      1226      1259      1268      1276      1267
 -1        91    4    0    1
 -2      1258      1260      1277      1275      1390      1392      1409      1407      1259      1268
 -2      1276      1267      1352      1353      1359      1358      1391      1400      1408      1399
 -1        92    4    0    1
 -2        22        24        41        39       154       156       173       171        23        32
 -2        40        31       105       106       112       111       155       164       172       163
 -1        93    4    0    1
 -2       154       156       173       171       417       419       451       449       155       164
 -2       172       163       237       238       244       243       418       435       450       434
 -1        94    4    0    1
 -2       417       419       451       449       969       971      1003      1001       418       435
 -2       450       434       723       724       736       735       970       987      1002       986
 -1        95    4    0    1
 -2       969       971      1003      1001      1275      1277      1294      1292       970       987
 -2      1002       986      1226      1227      1233      1232      1276      1285      1293      1284
 -1        96    4    0    1
 -2      1275      1277      1294      1292      1407      1409      1426      1424      1276      1285
 -2      1293      1284      1358      1359      1365      1364      1408      1417      1425      1416
 -1        97    4    0    1
 -2        39        41        58        56       171       173       190       188        40        49
 -2        57        48       111       112       118       117       172       181       189       180
 -1        98    4    0    1
 -2       171       173       190       188       449       451       480       478       172       181
 -2       189       180       243       244       250       249       450       464       479       463
 -1        99    4    0    1
 -2       449       451       480       478      1001      1003      1032      1030       450       464
 -2       479       463       735       736       747       746      1002      1016      1031      1015
 -1       100    4    0    1
 -2      1001      1003      1032      1030      1292      1294      1311      1309      1002      1016
 -2      1031      1015      1232      1233      1239      1238      1293      1302      1310      1301
 -1       101    4    0    1
 -2      1292      1294      1311      1309      1424      1426      1443      1441      1293      1302
 -2      1310      1301      1364      1365      1371      1370      1425      1434      1442      1433
 -1       102    4    0    1
 -2        56        58        75        73       188       190       207       205        57        66
 -2        74        65       117       118       124       123       189       198       206       197
 -1       103    4    0    1
 -2       188       190       207       205       478       480       515       513       189       198
 -2       206       197       249       250       256       255       479       496       514       495
 -1       104    4    0    1
 -2       478       480       515       513      1030      1032      1067      1065       479       496
 -2       514       495       746       747       760       759      1031      1048      1066      1047
 -1       105    4    0    1
 -2      1030      1032      1067      1065      1309      1311      1328      1326      1031      1048
 -2      1066      1047      1238      1239      1245      1244      1310      1319      1327      1318
 -1       106    4    0    1
 -2      1309      1311      1328      1326      1441      1443      1460      1458      1310      1319
 -2      1327      1318      1370      1371      1377      1376      1442      1451      1459      1450
 -1       107    4    0    1
 -2        73        75        92        90       205       207       224       222        74        83
 -2        91        82       123       124       130       129       206       215       223       214
 -1       108    4    0    1
 -2       205       207       224       222       513       515       555       553       206       215
 -2       223       214       255       256       262       261       514       534       554       533
 -1       109    4    0    1
 -2       513       515       555       553      1065      1067      1107      1105       514       534
 -2       554       533       759       760       774       773      1066      1086      1106      1085
 -1       110    4    0    1
 -2      1065      1067      1107      1105      1326      1328      1345      1343      1066      1086
 -2      1106      1085      1244      1245      1251      1250      1327      1336      1344      1335
 -1       111    4    0    1
 -2      1326      1328      1345      1343      1458      1460      1477      1475      1327      1336
 -2      1344      1335      1376      1377      1383      1382      1459      1468      1476      1467
 -1       112    4    0    1
 -2       634       636       659       657      1186      1188      1211      1209       635       647
 -2       658       646       804       805       813       812      1187      1199      1210      1198
 -1       113    4    0    1
 -2       273       275       298       296       825       827       850       848       274       285
 -2       297       284       670       671       679       678       826       837       849       836
 -1       114    4    0    1
 -2       296       298       322       320       848       850       874       872       297       308
 -2       321       307       678       679       688       687       849       860       873       859
 -1       115    4    0    1
 -2         7         9        26        24       139       141       158       156         8        16
 -2        25        15       100       101       107       106       140       148       157       147
 -1       116    4    0    1
 -2       139       141       158       156       380       382       421       419       140       148
 -2       157       147       232       233       239       238       381       401       420       400
 -1       117    4    0    1
 -2       380       382       421       419       932       934       973       971       381       401
 -2       420       400       710       711       725       724       933       953       972       952
 -1       118    4    0    1
 -2       932       934       973       971      1260      1262      1279      1277       933       953
 -2       972       952      1221      1222      1228      1227      1261      1269      1278      1268
 -1       119    4    0    1
 -2      1260      1262      1279      1277      1392      1394      1411      1409      1261      1269
 -2      1278      1268      1353      1354      1360      1359      1393      1401      1410      1400
 -1       120    4    0    1
 -2        24        26        43        41       156       158       175       173        25        33
 -2        42        32       106       107       113       112       157       165       174       164
 -1       121    4    0    1
 -2       156       158       175       173       419       421       453       451       157       165
 -2       174       164       238       239       245       244       420       436       452       435
 -1       122    4    0    1
 -2       419       421       453       451       971       973      1005      1003       420       436
 -2       452       435       724       725       737       736       972       988      1004       987
 -1       123    4    0    1
 -2       971       973      1005      1003      1277      1279      1296      1294       972       988
 -2      1004       987      1227      1228      1234      1233      1278      1286      1295      1285
 -1       124    4    0    1
 -2      1277      1279      1296      1294      1409      1411      1428      1426      1278      1286
 -2      1295      1285      1359      1360      1366      1365      1410      1418      1427      1417
 -1       125    4    0    1
 -2        41        43        60        58       173       175       192       190        42        50
 -2        59        49       112       113       119       118       174       182       191       181
 -1       126    4    0    1
 -2       173       175       192       190       451       453       482       480       174       182
 -2       191       181       244       245       251       250       452       465       481       464
 -1       127    4    0    1
 -2       451       453       482       480      1003      1005      1034      1032       452       465
 -2       481       464       736       737       748       747      1004      1017      1033      1016
 -1       128    4    0    1
 -2      1003      1005      1034      1032      1294      1296      1313      1311      1004      1017
 -2      1033      1016      1233      1234      1240      1239      1295      1303      1312      1302
 -1       129    4    0    1
 -2      1294      1296      1313      1311      1426      1428      1445      1443      1295      1303
 -2      1312      1302      1365      1366      1372      1371      1427      1435      1444      1434
 -1       130    4    0    1
 -2        58        60        77        75       190       192       209       207        59        67
 -2        76        66       118       119       125       124       191       199       208       198
 -1       131    4    0    1
 -2       190       192       209       207       480       482       517       515       191       199
 -2       208       198       250       251       257       256       481       497       516       496
 -1       132    4    0    1
 -2       480       482       517       515      1032      1034      1069      1067       481       497
 -2       516       496       747       748       761       760      1033      1049      1068      1048
 -1       133    4    0    1
 -2      1032      1034      1069      1067      1311      1313      1330      1328      1033      1049
 -2      1068      1048      1239      1240      1246      1245      1312      1320      1329      1319
 -1       134    4    0    1
 -2      1311      1313      1330      1328      1443      1445      1462      1460      1312      1320
 -2      1329      1319      1371      1372      1378      1377      1444      1452      1461      1451
 -1       135    4    0    1
 -2        75        77        94        92       207       209       226       224        76        84
 -2        93        83       124       125       131       130       208       216       225       215
 -1       136    4    0    1
 -2       207       209       226       224       515       517       557       555       208       216
 -2       225       215       256       257       263       262       516       535       556       534
 -1       137    4    0    1
 -2       515       517       557       555      1067      1069      1109      1107       516       535
 -2       556       534       760       761       775       774      1068      1087      1108      1086
 -1       138    4    0    1
 -2      1067      1069      1109      1107      1328      1330      1347      1345      1068      1087
 -2      1108      1086      1245      1246      1252      1251      1329      1337      1346      1336
 -1       139    4    0    1
 -2      1328      1330      1347      1345      1460      1462      1479      1477      1329      1337
 -2      1346      1336      1377      1378      1384      1383      1461      1469      1478      1468
 -1       140    4    0    1
 -2       636       638       661       659      1188      1190      1213      1211       637       648
 -2       660       647       805       806       814       813      1189      1200      1212      1199
 -1       141    4    0    1
 -2       275       277       300       298       827       829       852       850       276       286
 -2       299       285       671       672       680       679       828       838       851       837
 -1       142    4    0    1
 -2       298       300       324       322       850       852       876       874       299       309
 -2       323       308       679       680       689       688       851       861       875       860
 -1       143    4    0    1
 -2       322       324       347       345       874       876       899       897       323       333
 -2       346       332       688       689       698       697       875       885       898       884
 -1       144    4    0    1
 -2         9        11        28        26       141       143       160       158        10        17
 -2        27        16       101       102       108       107       142       149       159       148
 -1       145    4    0    1
 -2       141       143       160       158       382       384       423       421       142       149
 -2       159       148       233       234       240       239       383       402       422       401
 -1       146    4    0    1
 -2       382       384       423       421       934       936       975       973       383       402
 -2       422       401       711       712       726       725       935       954       974       953
 -1       147    4    0    1
 -2       934       936       975       973      1262      1264      1281      1279       935       954
 -2       974       953      1222      1223      1229      1228      1263      1270      1280      1269
 -1       148    4    0    1
 -2      1262      1264      1281      1279      1394      1396      1413      1411      1263      1270
 -2      1280      1269      1354      1355      1361      1360      1395      1402      1412      1401
 -1       149    4    0    1
 -2        26        28        45        43       158       160       177       175        27        34
 -2        44        33       107       108       114       113       159       166       176       165
 -1       150    4    0    1
 -2       158       160       177       175       421       423       455       453       159       166
 -2       176       165       239       240       246       245       422       437       454       436
 -1       151    4    0    1
 -2       421       423       455       453       973       975      1007      1005       422       437
 -2       454       436       725       726       738       737       974       989      1006       988
 -1       152    4    0    1
 -2       973       975      1007      1005      1279      1281      1298      1296       974       989
 -2      1006       988      1228      1229      1235      1234      1280      1287      1297      1286
 -1       153    4    0    1
 -2      1279      1281      1298      1296      1411      1413      1430      1428      1280      1287
 -2      1297      1286      1360      1361      1367      1366      1412      1419      1429      1418
 -1       154    4    0    1
 -2        43        45        62        60       175       177       194       192        44        51
 -2        61        50       113       114       120       119       176       183       193       182
 -1       155    4    0    1
 -2       175       177       194       192       453       455       484       482       176       183
 -2       193       182       245       246       252       251       454       466       483       465
 -1       156    4    0    1
 -2       453       455       484       482      1005      1007      1036      1034       454       466
 -2       483       465       737       738       749       748      1006      1018      1035      1017
 -1       157    4    0    1
 -2      1005      1007      1036      1034      1296      1298      1315      1313      1006      1018
 -2      1035      1017      1234      1235      1241      1240      1297      1304      1314      1303
 -1       158    4    0    1
 -2      1296      1298      1315      1313      1428      1430      1447      1445      1297      1304
 -2      1314      1303      1366      1367      1373      1372      1429      1436      1446      1435
 -1       159    4    0    1
 -2        60        62        79        77       192       194       211       209        61        68
 -2        78        67       119       120       126       125       193       200       210       199
 -1       160    4    0    1
 -2       192       194       211       209       482       484       519       517       193       200
 -2       210       199       251       252       258       257       483       498       518       497
 -1       161    4    0    1
 -2       482       484       519       517      1034      1036      1071      1069       483       498
 -2       518       497       748       749       762       761      1035      1050      1070      1049
 -1       162    4    0    1
 -2      1034      1036      1071      1069      1313      1315      1332      1330      1035      1050
 -2      1070      1049      1240      1241      1247      1246      1314      1321      1331      1320
 -1       163    4    0    1
 -2      1313      1315      1332      1330      1445      1447      1464      1462      1314      1321
 -2      1331      1320      1372      1373      1379      1378      1446      1453      1463      1452
 -1       164    4    0    1
 -2        77        79        96        94       209       211       228       226        78        85
 -2        95        84       125       126       132       131       210       217       227       216
 -1       165    4    0    1
 -2       209       211       228       226       517       519       559       557       210       217
 -2       227       216       257       258       264       263       518       536       558       535
 -1       166    4    0    1
 -2       517       519       559       557      1069      1071      1111      1109       518       536
 -2       558       535       761       762       776       775      1070      1088      1110      1087
 -1       167    4    0    1
 -2      1069      1071      1111      1109      1330      1332      1349      1347      1070      1088
 -2      1110      1087      1246      1247      1253      1252      1331      1338      1348      1337
 -1       168    4    0    1
 -2      1330      1332      1349      1347      1462      1464      1481      1479      1331      1338
 -2      1348      1337      1378      1379      1385      1384      1463      1470      1480      1469
 -1       169    4    0    1
 -2       589       591       617       615      1141      1143      1169      1167       590       605
 -2       616       604       787       788       798       797      1142      1157      1168      1156
 -1       170    4    0    1
 -2       615       617       640       638      1167      1169      1192      1190       616       626
 -2       639       625       797       798       807       806      1168      1178      1191      1177
 -1       171    4    0    1
 -2       638       640       663       661      1190      1192      1215      1213       639       649
 -2       662       648       806       807       815       814      1191      1201      1214      1200
 -1       172    4    0    1
 -2       277       279       302       300       829       831       854       852       278       287
 -2       301       286       672       673       681       680       830       839       853       838
 -1       173    4    0    1
 -2       300       302       326       324       852       854       878       876       301       310
 -2       325       309       680       681       690       689       853       862       877       861
 -1       174    4    0    1
 -2       324       326       349       347       876       878       901       899       325       334
 -2       348       333       689       690       699       698       877       886       900       885
 -1       175    4    0    1
 -2       347       349       386       384       899       901       938       936       348       362
 -2       385       361       698       699       713       712       900       914       937       913
 -1       176    4    0    1
 -2       559       561       593       591      1111      1113      1145      1143       560       574
 -2       592       573       776       777       789       788      1112      1126      1144      1125
 -1       177    4    0    1
 -2       591       593       619       617      1143      1145      1171      1169       592       606
 -2       618       605       788       789       799       798      1144      1158      1170      1157
 -1       178    4    0    1
 -2       617       619       642       640      1169      1171      1194      1192       618       627
 -2       641       626       798       799       808       807      1170      1179      1193      1178
 -1       179    4    0    1
 -2       640       642       665       663      1192      1194      1217      1215       641       650
 -2       664       649       807       808       816       815      1193      1202      1216      1201
 -1       180    4    0    1
 -2       326       328       351       349       878       880       903       901       327       335
 -2       350       334       690       691       700       699       879       887       902       886
 -1       181    4    0    1
 -2       349       351       388       386       901       903       940       938       350       363
 -2       387       362       699       700       714       713       902       915       939       914
 -1       182    4    0    1
 -2       520       522       563       561      1072      1074      1115      1113       521       538
 -2       562       537       763       764       778       777      1073      1090      1114      1089
 -1       183    4    0    1
 -2       561       563       595       593      1113      1115      1147      1145       562       575
 -2       594       574       777       778       790       789      1114      1127      1146      1126
 -1       184    4    0    1
 -2       593       595       621       619      1145      1147      1173      1171       594       607
 -2       620       606       789       790       800       799      1146      1159      1172      1158
 -1       185    4    0    1
 -2       351       353       390       388       903       905       942       940       352       364
 -2       389       363       700       701       715       714       904       916       941       915
 -1       186    4    0    1
 -2       388       390       426       424       940       942       978       976       389       404
 -2       425       403       714       715       728       727       941       956       977       955
 -1       187    4    0    1
 -2       485       487       524       522      1037      1039      1076      1074       486       500
 -2       523       499       750       751       765       764      1038      1052      1075      1051
 -1       188    4    0    1
 -2       522       524       565       563      1074      1076      1117      1115       523       539
 -2       564       538       764       765       779       778      1075      1091      1116      1090
 -1       189    4    0    1
 -2       563       565       597       595      1115      1117      1149      1147       564       576
 -2       596       575       778       779       791       790      1116      1128      1148      1127
 -1       190    4    0    1
 -2       353       355       392       390       905       907       944       942       354       365
 -2       391       364       701       702       716       715       906       917       943       916
 -1       191    4    0    1
 -2       390       392       428       426       942       944       980       978       391       405
 -2       427       404       715       716       729       728       943       957       979       956
 -1       192    4    0    1
 -2       426       428       458       456       978       980      1010      1008       427       439
 -2       457       438       728       729       740       739       979       991      1009       990
 -1       193    4    0    1
 -2       456       458       489       487      1008      1010      1041      1039       457       468
 -2       488       467       739       740       752       751      1009      1020      1040      1019
 -1       194    4    0    1
 -2       487       489       526       524      1039      1041      1078      1076       488       501
 -2       525       500       751       752       766       765      1040      1053      1077      1052
 -1       195    4    0    1
 -2       524       526       567       565      1076      1078      1119      1117       525       540
 -2       566       539       765       766       780       779      1077      1092      1118      1091
 -1       196    4    0    1
 -2       565       567       599       597      1117      1119      1151      1149       566       577
 -2       598       576       779       780       792       791      1118      1129      1150      1128
 -3
    1PSTEP                         1           1           1          
    1PGM                1.000000E+00                                  
    1PGK                2.417092E+10                                  
    1PHID                         -1                                  
    1PSUBC                         0                                  
    1PMODE                         1                                  
  100CL  101 24743.81753        1481                     2    1MODAL      1
 -4  DISP        4    1
 -5  D1          1    2    1    0
 -5  D2          1    2    2    0
 -5  D3          1    2    3    0
 -5  ALL         1    2    0    0    1ALL
 -1         1-1.35903E+02-4.46340E+01-1.73320E+04
 -1         2-1.21684E+02-2.71896E+01-1.75096E+04
 -1         3-9.69623E+01-1.00336E+00-1.76675E+04
 -1         4-7.92241E+01 1.02028E+01-1.77884E+04
 -1         5-6.24268E+01 1.61296E+01-1.78837E+04
 -1         6-4.43116E+01 1.77334E+01-1.79522E+04
 -1         7-2.64385E+01 1.55362E+01-1.79938E+04
 -1         8-9.90966E+00 8.93630E+00-1.80091E+04
 -1         9 7.30967E+00-2.55023E+00-1.79992E+04
 -1        10 2.73371E+01-3.02911E+01-1.79534E+04
 -1        11 3.61346E+01-5.60245E+01-1.78899E+04
 -1        12-1.11843E+02-3.50300E+01-1.74043E+04
 -1        13-9.35425E+01-2.75459E+00-1.76719E+04
 -1        14-6.14844E+01 1.30344E+01-1.78664E+04
 -1        15-2.73930E+01 1.25989E+01-1.79773E+04
 -1        16 3.44812E+00-3.98327E+00-1.80056E+04
 -1        17 1.98567E+01-4.06542E+01-1.79657E+04
 -1        18-8.46069E+01-1.44807E+01-1.74587E+04
 -1        19-8.60665E+01-1.07032E+01-1.75677E+04
 -1        20-8.16451E+01 1.23640E+00-1.76735E+04
 -1        21-7.09979E+01 8.85722E+00-1.77701E+04
 -1        22-5.83077E+01 1.33592E+01-1.78520E+04
 -1        23-4.45452E+01 1.47898E+01-1.79162E+04
 -1        24-3.08351E+01 1.31429E+01-1.79633E+04
 -1        25-1.85096E+01 8.39475E+00-1.79931E+04
 -1        26-8.54547E+00 5.50417E-01-1.80088E+04
 -1        27-4.54935E+00-1.13765E+01-1.80165E+04
 -1        28-6.35765E+00-1.47273E+01-1.80212E+04
 -1        29-7.32092E+01 2.57870E+00-1.74775E+04
 -1        30-7.38177E+01 1.11548E+01-1.76669E+04
 -1        31-5.59170E+01 1.92149E+01-1.78322E+04
 -1        32-3.33488E+01 1.91801E+01-1.79438E+04
 -1        33-1.60850E+01 1.14003E+01-1.80026E+04
 -1        34-1.75292E+01 3.32537E+00-1.80390E+04
 -1        35-6.67163E+01 1.88928E+01-1.74714E+04
 -1        36-6.96133E+01 1.98681E+01-1.75576E+04
 -1        37-6.90499E+01 2.33266E+01-1.76464E+04
 -1        38-6.29777E+01 2.59280E+01-1.77296E+04
 -1        39-5.45261E+01 2.73926E+01-1.78038E+04
 -1        40-4.45412E+01 2.79624E+01-1.78657E+04
 -1        41-3.46197E+01 2.76021E+01-1.79153E+04
 -1        42-2.63447E+01 2.64393E+01-1.79527E+04
 -1        43-2.04335E+01 2.42464E+01-1.79813E+04
 -1        44-2.01230E+01 2.12342E+01-1.80045E+04
 -1        45-2.32671E+01 2.03279E+01-1.80308E+04
 -1        46-6.45886E+01 3.64786E+01-1.74392E+04
 -1        47-6.73291E+01 3.67577E+01-1.76089E+04
 -1        48-5.39057E+01 3.71266E+01-1.77634E+04
 -1        49-3.49019E+01 3.75313E+01-1.78745E+04
 -1        50-2.16419E+01 3.81137E+01-1.79423E+04
 -1        51-2.46463E+01 3.86476E+01-1.79954E+04
 -1        52-6.62391E+01 5.40845E+01-1.73807E+04
 -1        53-6.91554E+01 5.32243E+01-1.74663E+04
 -1        54-6.86294E+01 5.01804E+01-1.75545E+04
 -1        55-6.25947E+01 4.79654E+01-1.76372E+04
 -1        56-5.41709E+01 4.68562E+01-1.77110E+04
 -1        57-4.41652E+01 4.66341E+01-1.77724E+04
 -1        58-3.41532E+01 4.73913E+01-1.78215E+04
 -1        59-2.57219E+01 4.90694E+01-1.78582E+04
 -1        60-1.97040E+01 5.19123E+01-1.78859E+04
 -1        61-1.92107E+01 5.56559E+01-1.79081E+04
 -1        62-2.21982E+01 5.67142E+01-1.79330E+04
 -1        63-7.21982E+01 7.03892E+01-1.72961E+04
 -1        64-7.29717E+01 6.23604E+01-1.74832E+04
 -1        65-5.52466E+01 5.49935E+01-1.76466E+04
 -1        66-3.24910E+01 5.56121E+01-1.77564E+04
 -1        67-1.46077E+01 6.43641E+01-1.78122E+04
 -1        68-1.54010E+01 7.33974E+01-1.78440E+04
 -1        69-8.31144E+01 8.73710E+01-1.71866E+04
 -1        70-8.46312E+01 8.38239E+01-1.72937E+04
 -1        71-8.03712E+01 7.23471E+01-1.73978E+04
 -1        72-6.99505E+01 6.50270E+01-1.74930E+04
 -1        73-5.73759E+01 6.07731E+01-1.75736E+04
 -1        74-4.35645E+01 5.95792E+01-1.76367E+04
 -1        75-2.97194E+01 6.14604E+01-1.76826E+04
 -1        76-1.70068E+01 6.64391E+01-1.77107E+04
 -1        77-6.38592E+00 7.45350E+01-1.77241E+04
 -1        78-2.01436E+00 8.69389E+01-1.77284E+04
 -1        79-3.56431E+00 9.08057E+01-1.77296E+04
 -1        80-1.09277E+02 1.08521E+02-1.70419E+04
 -1        81-9.18335E+01 7.63606E+01-1.73040E+04
 -1        82-6.03449E+01 6.11055E+01-1.74954E+04
 -1        83-2.60733E+01 6.17922E+01-1.76034E+04
 -1        84 5.99403E+00 7.86324E+01-1.76277E+04
 -1        85 2.41917E+01 1.12345E+02-1.75789E+04
 -1        86-1.30910E+02 1.19099E+02-1.68790E+04
 -1        87-1.18268E+02 1.00403E+02-1.70528E+04
 -1        88-9.52245E+01 7.46849E+01-1.72075E+04
 -1        89-7.78543E+01 6.38120E+01-1.73264E+04
 -1        90-6.11971E+01 5.80467E+01-1.74199E+04
 -1        91-4.31415E+01 5.64996E+01-1.74870E+04
 -1        92-2.49949E+01 5.87025E+01-1.75272E+04
 -1        93-8.15753E+00 6.51724E+01-1.75406E+04
 -1        94 9.62347E+00 7.68969E+01-1.75283E+04
 -1        95 3.39825E+01 1.03935E+02-1.74788E+04
 -1        96 4.76548E+01 1.22866E+02-1.74097E+04
 -1        97-1.11675E+02-3.62945E+01-1.73318E+04
 -1        98-7.56840E+01-8.60998E-01-1.76685E+04
 -1        99-4.94550E+01 1.31079E+01-1.78845E+04
 -1       100-2.20188E+01 1.26520E+01-1.79946E+04
 -1       101 3.65959E+00-2.17629E+00-1.80002E+04
 -1       102 2.91090E+01-4.79679E+01-1.78897E+04
 -1       103-6.81271E+01-9.43619E+00-1.74597E+04
 -1       104-6.55963E+01 9.66568E-01-1.76745E+04
 -1       105-4.68862E+01 1.09493E+01-1.78529E+04
 -1       106-2.48024E+01 1.07690E+01-1.79642E+04
 -1       107-6.82851E+00 4.92047E-01-1.80098E+04
 -1       108-5.06779E+00-9.54312E+00-1.80223E+04
 -1       109-5.34791E+01 1.59396E+01-1.74721E+04
 -1       110-5.53002E+01 1.87591E+01-1.76473E+04
 -1       111-4.37853E+01 2.20601E+01-1.78049E+04
 -1       112-2.78679E+01 2.22359E+01-1.79164E+04
 -1       113-1.66376E+01 1.94699E+01-1.79822E+04
 -1       114-1.88453E+01 1.70619E+01-1.80316E+04
 -1       115-5.30990E+01 4.27744E+01-1.73814E+04
 -1       116-5.49627E+01 4.03332E+01-1.75554E+04
 -1       117-4.34994E+01 3.76244E+01-1.77121E+04
 -1       118-2.75004E+01 3.80544E+01-1.78225E+04
 -1       119-1.60429E+01 4.17230E+01-1.78868E+04
 -1       120-1.80061E+01 4.47969E+01-1.79338E+04
 -1       121-6.69060E+01 6.80888E+01-1.71876E+04
 -1       122-6.45815E+01 5.81620E+01-1.73987E+04
 -1       123-4.61222E+01 4.86531E+01-1.75745E+04
 -1       124-2.38771E+01 4.91994E+01-1.76835E+04
 -1       125-5.15988E+00 5.99356E+01-1.77251E+04
 -1       126-2.75683E+00 7.07337E+01-1.77306E+04
 -1       127-1.06971E+02 9.65843E+01-1.68789E+04
 -1       128-7.43732E+01 6.01079E+01-1.72086E+04
 -1       129-4.84896E+01 4.65157E+01-1.74207E+04
 -1       130-2.08722E+01 4.70447E+01-1.75280E+04
 -1       131 5.43038E+00 6.18866E+01-1.75294E+04
 -1       132 4.03628E+01 9.94483E+01-1.74095E+04
 -1       133-9.08377E+01-3.11005E+01-1.73314E+04
 -1       134-7.48881E+01-1.65617E+01-1.75117E+04
 -1       135-5.46192E+01-1.83382E-01-1.76694E+04
 -1       136-4.71044E+01 6.78129E+00-1.77895E+04
 -1       137-3.68266E+01 9.92679E+00-1.78851E+04
 -1       138-2.70172E+01 1.07341E+01-1.79533E+04
 -1       139-1.72496E+01 9.57323E+00-1.79952E+04
 -1       140-7.14992E+00 6.00985E+00-1.80102E+04
 -1       141 4.15212E-01-1.19232E+00-1.80010E+04
 -1       142 1.60493E+01-1.84861E+01-1.79549E+04
 -1       143 2.52309E+01-4.34094E+01-1.78893E+04
 -1       144-6.80341E+01-2.09472E+01-1.74059E+04
 -1       145-5.61513E+01-1.92365E+00-1.76734E+04
 -1       146-3.72286E+01 8.04446E+00-1.78680E+04
 -1       147-1.67610E+01 7.81512E+00-1.79789E+04
 -1       148 1.23276E+00-2.81491E+00-1.80070E+04
 -1       149 1.21160E+01-2.59629E+01-1.79680E+04
 -1       150-5.10590E+01-4.76905E+00-1.74605E+04
 -1       151-5.26708E+01-5.68106E+00-1.75691E+04
 -1       152-4.95305E+01 7.68124E-01-1.76753E+04
 -1       153-4.28564E+01 5.46714E+00-1.77719E+04
 -1       154-3.54197E+01 8.42111E+00-1.78536E+04
 -1       155-2.70809E+01 9.36042E+00-1.79179E+04
 -1       156-1.88058E+01 8.29116E+00-1.79649E+04
 -1       157-1.14682E+01 5.23140E+00-1.79949E+04
 -1       158-5.19297E+00 4.39689E-01-1.80106E+04
 -1       159-2.52955E+00-6.23193E+00-1.80180E+04
 -1       160-4.31266E+00-4.52718E+00-1.80232E+04
 -1       161-4.39297E+01 2.67867E+00-1.74786E+04
 -1       162-4.47395E+01 7.00684E+00-1.76687E+04
 -1       163-3.38944E+01 1.16824E+01-1.78340E+04
 -1       164-2.03768E+01 1.16466E+01-1.79455E+04
 -1       165-9.84999E+00 7.24174E+00-1.80044E+04
 -1       166-1.12499E+01 3.04378E+00-1.80401E+04
 -1       167-4.04260E+01 1.26465E+01-1.74727E+04
 -1       168-4.21624E+01 1.21941E+01-1.75592E+04
 -1       169-4.16611E+01 1.42278E+01-1.76480E+04
 -1       170-3.82801E+01 1.58600E+01-1.77313E+04
 -1       171-3.30629E+01 1.67159E+01-1.78057E+04
 -1       172-2.70658E+01 1.70475E+01-1.78676E+04
 -1       173-2.11057E+01 1.68523E+01-1.79172E+04
 -1       174-1.60129E+01 1.61549E+01-1.79544E+04
 -1       175-1.27230E+01 1.47445E+01-1.79829E+04
 -1       176-1.23502E+01 1.30492E+01-1.80062E+04
 -1       177-1.42628E+01 1.34514E+01-1.80322E+04
 -1       178-3.92893E+01 2.22132E+01-1.74403E+04
 -1       179-4.05524E+01 2.23429E+01-1.76105E+04
 -1       180-3.27035E+01 2.25632E+01-1.77653E+04
 -1       181-2.12620E+01 2.28132E+01-1.78764E+04
 -1       182-1.35274E+01 2.31564E+01-1.79439E+04
 -1       183-1.49304E+01 2.33758E+01-1.79965E+04
 -1       184-4.01295E+01 3.17850E+01-1.73820E+04
 -1       185-4.18928E+01 3.22321E+01-1.74679E+04
 -1       186-4.14084E+01 3.04525E+01-1.75561E+04
 -1       187-3.80407E+01 2.90515E+01-1.76390E+04
 -1       188-3.28468E+01 2.84064E+01-1.77129E+04
 -1       189-2.68389E+01 2.82928E+01-1.77743E+04
 -1       190-2.08313E+01 2.87341E+01-1.78234E+04
 -1       191-1.56228E+01 2.97171E+01-1.78599E+04
 -1       192-1.22754E+01 3.14908E+01-1.78875E+04
 -1       193-1.18241E+01 3.36978E+01-1.79098E+04
 -1       194-1.36268E+01 3.32562E+01-1.79344E+04
 -1       195-4.33269E+01 4.17312E+01-1.72972E+04
 -1       196-4.42278E+01 3.76633E+01-1.74849E+04
 -1       197-3.34776E+01 3.34252E+01-1.76483E+04
 -1       198-1.98372E+01 3.38026E+01-1.77581E+04
 -1       199-8.99481E+00 3.88776E+01-1.78139E+04
 -1       200-9.93974E+00 4.34428E+01-1.78451E+04
 -1       201-5.01433E+01 4.91356E+01-1.71884E+04
 -1       202-5.17492E+01 5.01720E+01-1.72951E+04
 -1       203-4.87671E+01 4.39265E+01-1.73995E+04
 -1       204-4.22443E+01 3.94248E+01-1.74947E+04
 -1       205-3.48278E+01 3.66437E+01-1.75752E+04
 -1       206-2.64753E+01 3.58430E+01-1.76384E+04
 -1       207-1.80878E+01 3.70534E+01-1.76842E+04
 -1       208-1.06220E+01 4.02912E+01-1.77125E+04
 -1       209-3.96195E+00 4.52731E+01-1.77259E+04
 -1       210-8.79292E-01 5.20161E+01-1.77298E+04
 -1       211-2.53997E+00 5.10319E+01-1.77315E+04
 -1       212-6.64442E+01 6.59047E+01-1.70436E+04
 -1       213-5.50880E+01 4.66769E+01-1.73055E+04
 -1       214-3.65444E+01 3.70097E+01-1.74970E+04
 -1       215-1.59946E+01 3.74294E+01-1.76051E+04
 -1       216 2.90665E+00 4.80621E+01-1.76291E+04
 -1       217 1.47441E+01 6.80790E+01-1.75806E+04
 -1       218-8.62567E+01 7.71828E+01-1.68785E+04
 -1       219-7.23921E+01 6.10426E+01-1.70547E+04
 -1       220-5.37783E+01 4.49990E+01-1.72094E+04
 -1       221-4.62845E+01 3.82215E+01-1.73275E+04
 -1       222-3.61214E+01 3.51495E+01-1.74214E+04
 -1       223-2.62596E+01 3.43884E+01-1.74881E+04
 -1       224-1.63753E+01 3.55590E+01-1.75286E+04
 -1       225-6.08063E+00 3.90285E+01-1.75417E+04
 -1       226 1.49449E+00 4.63208E+01-1.75303E+04
 -1       227 2.13200E+01 6.32005E+01-1.74809E+04
 -1       228 3.64739E+01 7.92667E+01-1.74091E+04
 -1       229-9.30694E+01-4.63386E+01-1.73277E+04
 -1       230-3.61072E+01-1.00628E+00-1.76694E+04
 -1       231-2.55900E+01 5.98902E+00-1.78850E+04
 -1       232-1.12008E+01 5.45260E+00-1.79951E+04
 -1       233-4.34183E-01-1.85161E+00-1.80011E+04
 -1       234 4.17276E+01-6.29833E+01-1.78856E+04
 -1       235-3.55865E+01-2.49777E+00-1.74606E+04
 -1       236-3.13623E+01 2.35826E+00-1.76770E+04
 -1       237-2.44204E+01 5.68617E+00-1.78540E+04
 -1       238-1.23599E+01 5.52913E+00-1.79654E+04
 -1       239-5.33631E+00 2.61177E+00-1.80123E+04
 -1       240-2.04784E+00-2.12962E+00-1.80231E+04
 -1       241-2.83384E+01 8.08523E+00-1.74726E+04
 -1       242-2.82869E+01 9.26765E+00-1.76485E+04
 -1       243-2.24255E+01 1.12847E+01-1.78063E+04
 -1       244-1.42580E+01 1.13889E+01-1.79178E+04
 -1       245-8.59421E+00 9.53515E+00-1.79834E+04
 -1       246-8.93806E+00 8.40455E+00-1.80320E+04
 -1       247-2.80303E+01 2.20358E+01-1.73819E+04
 -1       248-2.80890E+01 2.10003E+01-1.75566E+04
 -1       249-2.22783E+01 1.92741E+01-1.77135E+04
 -1       250-1.40827E+01 1.94952E+01-1.78240E+04
 -1       251-8.24410E+00 2.17306E+01-1.78880E+04
 -1       252-8.29081E+00 2.30592E+01-1.79343E+04
 -1       253-3.48975E+01 3.25359E+01-1.71885E+04
 -1       254-3.10270E+01 2.79037E+01-1.74012E+04
 -1       255-2.40000E+01 2.48593E+01-1.75757E+04
 -1       256-1.18240E+01 2.51459E+01-1.76846E+04
 -1       257-4.82746E+00 2.87569E+01-1.77276E+04
 -1       258-7.43052E-01 3.37884E+01-1.77315E+04
 -1       259-8.69890E+01 7.80529E+01-1.68749E+04
 -1       260-3.55994E+01 3.13470E+01-1.72094E+04
 -1       261-2.50712E+01 2.45828E+01-1.74212E+04
 -1       262-1.04630E+01 2.48825E+01-1.75285E+04
 -1       263 1.27727E-01 3.22711E+01-1.75302E+04
 -1       264 5.53854E+01 8.00868E+01-1.74053E+04
 -1       265 0.00000E+00 0.00000E+00 0.00000E+00
 -1       266 0.00000E+00 0.00000E+00 0.00000E+00
 -1       267 0.00000E+00 0.00000E+00 0.00000E+00
 -1       268 0.00000E+00 0.00000E+00 0.00000E+00
 -1       269 0.00000E+00 0.00000E+00 0.00000E+00
 -1       270 0.00000E+00 0.00000E+00 0.00000E+00
 -1       271 0.00000E+00 0.00000E+00 0.00000E+00
 -1       272 0.00000E+00 0.00000E+00 0.00000E+00
 -1       273 0.00000E+00 0.00000E+00 0.00000E+00
 -1       274 0.00000E+00 0.00000E+00 0.00000E+00
 -1       275 0.00000E+00 0.00000E+00 0.00000E+00
 -1       276 0.00000E+00 0.00000E+00 0.00000E+00
 -1       277 0.00000E+00 0.00000E+00 0.00000E+00
 -1       278 0.00000E+00 0.00000E+00 0.00000E+00
 -1       279 0.00000E+00 0.00000E+00 0.00000E+00
 -1       280-2.91844E+01-1.18036E+02-3.06933E+02
 -1       281 5.92722E-01-1.48794E+02-4.43629E+02
 -1       282 1.23554E+01-1.27687E+02-3.82419E+02
 -1       283 1.02227E+01-8.69420E+01-2.65782E+02
 -1       284-1.95184E+01-1.06603E+02-3.16631E+02
 -1       285-6.29944E+00-1.50762E+02-4.42674E+02
 -1       286 2.46543E+00-1.59517E+02-4.76202E+02
 -1       287 2.99821E+01-1.20997E+02-3.10294E+02
 -1       288-6.43076E+01-2.46216E+02-1.35861E+03
 -1       289-2.96448E+01-2.75544E+02-1.62765E+03
 -1       290-2.16734E+00-2.82131E+02-1.72597E+03
 -1       291 1.68848E+01-2.76601E+02-1.66451E+03
 -1       292 4.38927E+01-2.48258E+02-1.48952E+03
 -1       293 4.16371E+01-2.06074E+02-1.23727E+03
 -1       294 3.16651E+01-1.66468E+02-9.95253E+02
 -1       295-1.75840E+01-1.68739E+02-1.00249E+03
 -1       296-6.09690E+01-2.12815E+02-1.23325E+03
 -1       297-4.27177E+01-2.60847E+02-1.54533E+03
 -1       298-2.55295E+01-2.94121E+02-1.75688E+03
 -1       299-8.41180E+00-3.08517E+02-1.84580E+03
 -1       300 1.27458E+01-3.05704E+02-1.84575E+03
 -1       301 3.95110E+01-2.85709E+02-1.68975E+03
 -1       302 6.88117E+01-2.51373E+02-1.37647E+03
 -1       303-1.06417E+02-3.26080E+02-3.01640E+03
 -1       304-2.74327E+00-3.97838E+02-3.68318E+03
 -1       305 8.86460E+01-3.16620E+02-3.13634E+03
 -1       306 8.29437E+01-2.24797E+02-2.14125E+03
 -1       307-1.05606E+02-3.28872E+02-2.83993E+03
 -1       308-5.48448E+01-4.08477E+02-3.78727E+03
 -1       309 2.93772E+01-4.09708E+02-3.92057E+03
 -1       310 1.16327E+02-3.34972E+02-3.07443E+03
 -1       311-3.00175E+02-2.88454E+02-2.17268E+03
 -1       312-2.50765E+02-3.23466E+02-3.77489E+03
 -1       313-1.87234E+02-3.76796E+02-5.03127E+03
 -1       314-1.12669E+02-4.49806E+02-5.90554E+03
 -1       315-1.05728E+01-5.22445E+02-6.31614E+03
 -1       316 9.66272E+01-4.47842E+02-5.92615E+03
 -1       317 1.54117E+02-3.62397E+02-5.10921E+03
 -1       318 1.31192E+02-3.06109E+02-4.29490E+03
 -1       319 1.15726E+02-2.66852E+02-3.55587E+03
 -1       320-1.57673E+02-4.03092E+02-4.95836E+03
 -1       321-1.27587E+02-4.57866E+02-5.81601E+03
 -1       322-8.22539E+01-5.24750E+02-6.48445E+03
 -1       323-6.30147E+00-5.28652E+02-6.72969E+03
 -1       324 5.74598E+01-5.02639E+02-6.57353E+03
 -1       325 1.20533E+02-4.54310E+02-6.06293E+03
 -1       326 1.80324E+02-3.99157E+02-5.18668E+03
 -1       327 2.50457E+02-3.42930E+02-3.95027E+03
 -1       328 2.93792E+02-3.15228E+02-2.35594E+03
 -1       329-3.26958E+02-2.46010E+02-3.74032E+03
 -1       330-2.60937E+02-3.68123E+02-7.20990E+03
 -1       331-1.81641E+02-5.83286E+02-9.70104E+03
 -1       332-6.39451E+01-6.17734E+02-9.85231E+03
 -1       333 1.15721E+02-5.59062E+02-9.65790E+03
 -1       334 2.57094E+02-3.98478E+02-7.50902E+03
 -1       335 3.31823E+02-2.63039E+02-4.03524E+03
 -1       336 0.00000E+00 0.00000E+00 0.00000E+00
 -1       337-1.15288E+02-2.92730E+01-2.94606E+02
 -1       338-2.40085E+02-6.76933E+01-1.31064E+03
 -1       339-3.20429E+02-1.14360E+02-2.93373E+03
 -1       340-3.81852E+02-1.77222E+02-4.95444E+03
 -1       341-3.80845E+02-2.53703E+02-7.17522E+03
 -1       342-3.67156E+02-3.63929E+02-9.35845E+03
 -1       343-3.22349E+02-4.71381E+02-1.13081E+04
 -1       344-3.28866E+02-5.81677E+02-1.32373E+04
 -1       345-5.25070E+01-6.81662E+02-1.36429E+04
 -1       346 4.31553E+01-6.58643E+02-1.36870E+04
 -1       347 1.93814E+02-6.14383E+02-1.30699E+04
 -1       348 2.78719E+02-5.01269E+02-1.16337E+04
 -1       349 3.67995E+02-3.84797E+02-9.79654E+03
 -1       350 3.78060E+02-2.77108E+02-7.60544E+03
 -1       351 3.90873E+02-1.96477E+02-5.35908E+03
 -1       352 3.45297E+02-1.11992E+02-3.24955E+03
 -1       353 2.67266E+02-6.94895E+01-1.46636E+03
 -1       354 1.27864E+02-3.10595E+01-3.29398E+02
 -1       355 0.00000E+00 0.00000E+00 0.00000E+00
 -1       356 0.00000E+00 0.00000E+00 0.00000E+00
 -1       357-2.74165E+02-3.95570E+01-1.62085E+03
 -1       358-4.36697E+02-1.20566E+02-5.82164E+03
 -1       359-4.82508E+02-2.76600E+02-1.11792E+04
 -1       360-3.12323E+02-3.48635E+02-1.58800E+04
 -1       361 2.46476E+02-4.09503E+02-1.61116E+04
 -1       362 4.73764E+02-3.39651E+02-1.18446E+04
 -1       363 4.72939E+02-1.27727E+02-6.30091E+03
 -1       364 2.97144E+02-3.22517E+01-1.75941E+03
 -1       365 0.00000E+00 0.00000E+00 0.00000E+00
 -1       366 0.00000E+00 0.00000E+00 0.00000E+00
 -1       367-1.53919E+02-2.82310E+00-4.59116E+02
 -1       368-2.94905E+02-1.39515E+01-1.78015E+03
 -1       369-3.95272E+02-3.16093E+01-3.78155E+03
 -1       370-4.85175E+02-6.04425E+01-6.34203E+03
 -1       371-5.39315E+02-1.18081E+02-9.31748E+03
 -1       372-5.92523E+02-1.94219E+02-1.26107E+04
 -1       373-4.01314E+02-2.45060E+02-1.55568E+04
 -1       374-9.96218E+01-6.57226E+01-1.73262E+04
 -1       375-3.22609E+01-8.81570E+00-1.75161E+04
 -1       376-1.64534E+01-6.60034E-01-1.76686E+04
 -1       377-1.44140E+01 5.22506E+00-1.77911E+04
 -1       378-1.48808E+01 1.78692E+00-1.78848E+04
 -1       379-9.70596E+00 2.88682E+00-1.79535E+04
 -1       380-4.61790E+00 1.04886E+00-1.79950E+04
 -1       381-4.33058E+00 5.54402E+00-1.80116E+04
 -1       382-2.27861E+00-1.24838E+00-1.80005E+04
 -1       383 9.77341E+00-9.95690E+00-1.79581E+04
 -1       384 6.24331E+01-8.70125E+01-1.78841E+04
 -1       385 3.41997E+02-3.17379E+02-1.64779E+04
 -1       386 5.76389E+02-3.47963E+02-1.38799E+04
 -1       387 5.96484E+02-2.04857E+02-1.03227E+04
 -1       388 5.60332E+02-3.32241E+01-6.80902E+03
 -1       389 4.27995E+02-6.08540E+00-3.97423E+03
 -1       390 3.04639E+02-4.84802E-01-1.85985E+03
 -1       391 1.61236E+02 1.62566E-01-4.76600E+02
 -1       392 0.00000E+00 0.00000E+00 0.00000E+00
 -1       393 0.00000E+00 0.00000E+00 0.00000E+00
 -1       394-2.99493E+02 5.97375E+00-1.79100E+03
 -1       395-5.11453E+02 1.75509E-01-6.52387E+03
 -1       396-6.36250E+02-4.87798E+01-1.32480E+04
 -1       397-2.73916E+01-1.16970E+01-1.74092E+04
 -1       398-2.40864E+01-5.02586E+00-1.76718E+04
 -1       399-1.25013E+01 2.99933E+00-1.78690E+04
 -1       400-6.56419E+00 3.07039E+00-1.79798E+04
 -1       401 3.65750E+00-6.64470E+00-1.80057E+04
 -1       402 7.24247E+00-1.53331E+01-1.79727E+04
 -1       403 5.20810E+02 8.00840E+01-6.57612E+03
 -1       404 2.92093E+02 3.56297E+01-1.74206E+03
 -1       405 0.00000E+00 0.00000E+00 0.00000E+00
 -1       406 0.00000E+00 0.00000E+00 0.00000E+00
 -1       407-1.47403E+02 5.03243E+00-4.34608E+02
 -1       408-2.88120E+02 2.18966E+01-1.72024E+03
 -1       409-3.98161E+02 4.71203E+01-3.70354E+03
 -1       410-5.08838E+02 7.21643E+01-6.32606E+03
 -1       411-5.97138E+02 5.41958E+01-9.58533E+03
 -1       412-6.57747E+02 4.37353E+01-1.32463E+04
 -1       413-1.88912E+01 7.65892E-01-1.74600E+04
 -1       414-2.40015E+01-5.32114E+00-1.75677E+04
 -1       415-1.35863E+01 3.60178E+00-1.76785E+04
 -1       416-1.41911E+01 2.38991E+00-1.77731E+04
 -1       417-1.32766E+01 2.97619E+00-1.78543E+04
 -1       418-9.65889E+00 2.91513E+00-1.79183E+04
 -1       419-6.05537E+00 2.80439E+00-1.79656E+04
 -1       420-4.83824E+00 2.47291E+00-1.79962E+04
 -1       421-5.13176E+00 4.37388E+00-1.80139E+04
 -1       422 3.36127E+00-6.65707E+00-1.80163E+04
 -1       423-9.71928E-01 1.47504E+00-1.80223E+04
 -1       424 4.83929E+02 1.55077E+02-5.86465E+03
 -1       425 3.91931E+02 1.08152E+02-3.32407E+03
 -1       426 2.48187E+02 7.95809E+01-1.42045E+03
 -1       427 1.21733E+02 2.53933E+01-3.53859E+02
 -1       428 0.00000E+00 0.00000E+00 0.00000E+00
 -1       429 0.00000E+00 0.00000E+00 0.00000E+00
 -1       430-2.59452E+02 3.45389E+01-1.54271E+03
 -1       431-4.45728E+02 1.13027E+02-5.73062E+03
 -1       432-1.23288E+01 2.80878E+00-1.74800E+04
 -1       433-1.52905E+01 3.28636E+00-1.76700E+04
 -1       434-1.19401E+01 4.21705E+00-1.78349E+04
 -1       435-7.33117E+00 4.16740E+00-1.79465E+04
 -1       436-3.92308E+00 3.64748E+00-1.80056E+04
 -1       437-6.76959E+00 3.50830E+00-1.80417E+04
 -1       438 1.60101E+02 5.36310E+01-9.73309E+02
 -1       439 0.00000E+00 0.00000E+00 0.00000E+00
 -1       440 0.00000E+00 0.00000E+00 0.00000E+00
 -1       441-1.11715E+02 1.57059E+01-3.36197E+02
 -1       442-2.18545E+02 4.67053E+01-1.28961E+03
 -1       443-3.24494E+02 9.03153E+01-2.89207E+03
 -1       444-3.92142E+02 1.40335E+02-4.96566E+03
 -1       445-1.65282E+01 3.00547E+00-1.74725E+04
 -1       446-1.47061E+01 4.92472E+00-1.75602E+04
 -1       447-1.48801E+01 4.44516E+00-1.76487E+04
 -1       448-1.35341E+01 5.72646E+00-1.77323E+04
 -1       449-1.18297E+01 5.81580E+00-1.78067E+04
 -1       450-9.59334E+00 6.06582E+00-1.78685E+04
 -1       451-7.37152E+00 5.88492E+00-1.79181E+04
 -1       452-5.75370E+00 5.81095E+00-1.79554E+04
 -1       453-4.49352E+00 4.47494E+00-1.79836E+04
 -1       454-4.54335E+00 5.38056E+00-1.80072E+04
 -1       455-3.33984E+00 2.82424E+00-1.80318E+04
 -1       456 1.03775E+02 1.48355E+01-6.90468E+02
 -1       457 6.19177E+01 3.78146E+00-2.08154E+02
 -1       458 0.00000E+00 0.00000E+00 0.00000E+00
 -1       459 0.00000E+00 0.00000E+00 0.00000E+00
 -1       460-1.96088E+02 9.35623E-01-1.16912E+03
 -1       461-1.48600E+01 7.89596E+00-1.74405E+04
 -1       462-1.47992E+01 7.92871E+00-1.76109E+04
 -1       463-1.15768E+01 7.99906E+00-1.77662E+04
 -1       464-7.55801E+00 8.09905E+00-1.78773E+04
 -1       465-4.41756E+00 8.15816E+00-1.79444E+04
 -1       466-4.41022E+00 8.16373E+00-1.79967E+04
 -1       467 1.33933E+02-3.22943E+01-8.15464E+02
 -1       468 0.00000E+00 0.00000E+00 0.00000E+00
 -1       469 0.00000E+00 0.00000E+00 0.00000E+00
 -1       470-1.10645E+02-1.52433E+01-3.33643E+02
 -1       471-2.16019E+02-4.51497E+01-1.27700E+03
 -1       472-3.19542E+02-8.89287E+01-2.85603E+03
 -1       473-3.85773E+02-1.38116E+02-4.89694E+03
 -1       474-1.61879E+01 1.27873E+01-1.73818E+04
 -1       475-1.46698E+01 1.08317E+01-1.74688E+04
 -1       476-1.47452E+01 1.14145E+01-1.75568E+04
 -1       477-1.34380E+01 1.02100E+01-1.76399E+04
 -1       478-1.17493E+01 1.01793E+01-1.77138E+04
 -1       479-9.52375E+00 1.00237E+01-1.77752E+04
 -1       480-7.29564E+00 1.02970E+01-1.78243E+04
 -1       481-5.58228E+00 1.04477E+01-1.78609E+04
 -1       482-4.24507E+00 1.18277E+01-1.78882E+04
 -1       483-4.46283E+00 1.12911E+01-1.79107E+04
 -1       484-2.68285E+00 1.34058E+01-1.79342E+04
 -1       485 3.97424E+02-1.66711E+02-4.77171E+03
 -1       486 3.20419E+02-1.14832E+02-2.69353E+03
 -1       487 2.00592E+02-7.16266E+01-1.14164E+03
 -1       488 9.81445E+01-2.11861E+01-2.88329E+02
 -1       489 0.00000E+00 0.00000E+00 0.00000E+00
 -1       490 0.00000E+00 0.00000E+00 0.00000E+00
 -1       491-2.56505E+02-3.43903E+01-1.52589E+03
 -1       492-4.38390E+02-1.12348E+02-5.65280E+03
 -1       493-1.23525E+01 1.29193E+01-1.72986E+04
 -1       494-1.51603E+01 1.25396E+01-1.74861E+04
 -1       495-1.17954E+01 1.18058E+01-1.76493E+04
 -1       496-7.11951E+00 1.19326E+01-1.77590E+04
 -1       497-3.74744E+00 1.29653E+01-1.78152E+04
 -1       498-6.71082E+00 1.34961E+01-1.78466E+04
 -1       499 4.50344E+02-1.35246E+02-5.67555E+03
 -1       500 2.53173E+02-4.87580E+01-1.49331E+03
 -1       501 0.00000E+00 0.00000E+00 0.00000E+00
 -1       502 0.00000E+00 0.00000E+00 0.00000E+00
 -1       503-1.46161E+02-5.32225E+00-4.31420E+02
 -1       504-2.85630E+02-2.29715E+01-1.70570E+03
 -1       505-3.92867E+02-4.86624E+01-3.66702E+03
 -1       506-5.00225E+02-7.38682E+01-6.24981E+03
 -1       507-5.83859E+02-5.76958E+01-9.44249E+03
 -1       508-6.42299E+02-4.58859E+01-1.30195E+04
 -1       509-1.84985E+01 1.49535E+01-1.71879E+04
 -1       510-2.31873E+01 2.11757E+01-1.72937E+04
 -1       511-1.36523E+01 1.22259E+01-1.74027E+04
 -1       512-1.40833E+01 1.35286E+01-1.74959E+04
 -1       513-1.30353E+01 1.30501E+01-1.75759E+04
 -1       514-9.37228E+00 1.30732E+01-1.76388E+04
 -1       515-5.70582E+00 1.32087E+01-1.76848E+04
 -1       516-4.74802E+00 1.38298E+01-1.77138E+04
 -1       517-5.30876E+00 1.25971E+01-1.77292E+04
 -1       518 4.87896E+00 2.19142E+01-1.77284E+04
 -1       519-1.64015E-01 1.55321E+01-1.77309E+04
 -1       520 6.68530E+02-5.55699E+01-1.34088E+04
 -1       521 6.06044E+02-6.96826E+01-9.68975E+03
 -1       522 5.16624E+02-8.77259E+01-6.38067E+03
 -1       523 4.01737E+02-6.01431E+01-3.72708E+03
 -1       524 2.89377E+02-2.82603E+01-1.72950E+03
 -1       525 1.48630E+02-7.65411E+00-4.34448E+02
 -1       526 0.00000E+00 0.00000E+00 0.00000E+00
 -1       527 0.00000E+00 0.00000E+00 0.00000E+00
 -1       528-2.98375E+02-7.98787E+00-1.78571E+03
 -1       529-5.03603E+02-5.72584E+00-6.46866E+03
 -1       530-6.18108E+02 4.33650E+01-1.30418E+04
 -1       531-2.66023E+01 2.78146E+01-1.70471E+04
 -1       532-2.33122E+01 2.09668E+01-1.73040E+04
 -1       533-1.22790E+01 1.29314E+01-1.74979E+04
 -1       534-6.38869E+00 1.30637E+01-1.76060E+04
 -1       535 5.07814E+00 2.15772E+01-1.76276E+04
 -1       536 8.44701E+00 2.86437E+01-1.75841E+04
 -1       537 6.41722E+02 3.89455E+01-1.34730E+04
 -1       538 5.20520E+02-1.28997E+01-6.66134E+03
 -1       539 3.06513E+02-1.12166E+01-1.83617E+03
 -1       540 0.00000E+00 0.00000E+00 0.00000E+00
 -1       541 0.00000E+00 0.00000E+00 0.00000E+00
 -1       542-1.54733E+02 1.95058E+00-4.62108E+02
 -1       543-2.96095E+02 1.09783E+01-1.78901E+03
 -1       544-3.93219E+02 2.57492E+01-3.78912E+03
 -1       545-4.79186E+02 5.14673E+01-6.32795E+03
 -1       546-5.26791E+02 1.08284E+02-9.25018E+03
 -1       547-5.70827E+02 1.83627E+02-1.24449E+04
 -1       548-3.72612E+02 2.31692E+02-1.52322E+04
 -1       549-9.18173E+01 8.29406E+01-1.68733E+04
 -1       550-3.07538E+01 2.45445E+01-1.70587E+04
 -1       551-1.63726E+01 1.65652E+01-1.72087E+04
 -1       552-1.43575E+01 1.07636E+01-1.73290E+04
 -1       553-1.45322E+01 1.42696E+01-1.74211E+04
 -1       554-9.29202E+00 1.30435E+01-1.74883E+04
 -1       555-4.01361E+00 1.44798E+01-1.75283E+04
 -1       556-4.38519E+00 1.09733E+01-1.75433E+04
 -1       557-2.35108E+00 1.70363E+01-1.75295E+04
 -1       558 1.30375E+01 2.54166E+01-1.74852E+04
 -1       559 7.86139E+01 8.51078E+01-1.74037E+04
 -1       560 3.80184E+02 2.40192E+02-1.57584E+04
 -1       561 5.92205E+02 1.87926E+02-1.28808E+04
 -1       562 5.45505E+02 1.08558E+02-9.57031E+03
 -1       563 4.95258E+02 4.94682E+01-6.54622E+03
 -1       564 4.06718E+02 2.38262E+01-3.92188E+03
 -1       565 3.06380E+02 9.77095E+00-1.85229E+03
 -1       566 1.60092E+02 1.68543E+00-4.79008E+02
 -1       567 0.00000E+00 0.00000E+00 0.00000E+00
 -1       568 0.00000E+00 0.00000E+00 0.00000E+00
 -1       569-2.78271E+02 3.56962E+01-1.64976E+03
 -1       570-4.33851E+02 1.11043E+02-5.86095E+03
 -1       571-4.63890E+02 2.58783E+02-1.10989E+04
 -1       572-2.53958E+02 3.50250E+02-1.53550E+04
 -1       573 2.53986E+02 3.59756E+02-1.58462E+04
 -1       574 4.79138E+02 2.66913E+02-1.14958E+04
 -1       575 4.48763E+02 1.12442E+02-6.08117E+03
 -1       576 2.89241E+02 3.57094E+01-1.71585E+03
 -1       577 0.00000E+00 0.00000E+00 0.00000E+00
 -1       578 0.00000E+00 0.00000E+00 0.00000E+00
 -1       579-1.19832E+02 2.79312E+01-3.10763E+02
 -1       580-2.47456E+02 6.33926E+01-1.36381E+03
 -1       581-3.24273E+02 1.06035E+02-3.02199E+03
 -1       582-3.80965E+02 1.65927E+02-5.05603E+03
 -1       583-3.73514E+02 2.39841E+02-7.25238E+03
 -1       584-3.55311E+02 3.45064E+02-9.37244E+03
 -1       585-2.80030E+02 4.51284E+02-1.11903E+04
 -1       586-2.23717E+02 5.54250E+02-1.27167E+04
 -1       587-1.11620E+02 6.16609E+02-1.36371E+04
 -1       588-3.95409E+01 6.42055E+02-1.40690E+04
 -1       589 3.96139E+01 6.61640E+02-1.45117E+04
 -1       590 1.13315E+02 6.35494E+02-1.40749E+04
 -1       591 2.28022E+02 5.70869E+02-1.31374E+04
 -1       592 2.86217E+02 4.66123E+02-1.15781E+04
 -1       593 3.65687E+02 3.56575E+02-9.71368E+03
 -1       594 3.85584E+02 2.47024E+02-7.52836E+03
 -1       595 3.94060E+02 1.70352E+02-5.25845E+03
 -1       596 3.36549E+02 1.08438E+02-3.15110E+03
 -1       597 2.58095E+02 6.45772E+01-1.42647E+03
 -1       598 1.25297E+02 2.86567E+01-3.25658E+02
 -1       599 0.00000E+00 0.00000E+00 0.00000E+00
 -1       600-3.22076E+02 2.31767E+02-3.91722E+03
 -1       601-2.49259E+02 3.67367E+02-7.29731E+03
 -1       602-1.42443E+02 5.34893E+02-9.53226E+03
 -1       603-2.01124E+01 6.21449E+02-1.03848E+04
 -1       604 1.94199E+01 6.40675E+02-1.07141E+04
 -1       605 1.45076E+02 5.51905E+02-9.85305E+03
 -1       606 2.55780E+02 3.79848E+02-7.56862E+03
 -1       607 3.32395E+02 2.38806E+02-4.08823E+03
 -1       608-2.85855E+02 2.78560E+02-2.43411E+03
 -1       609-2.37052E+02 3.17285E+02-3.95182E+03
 -1       610-1.70696E+02 3.79804E+02-5.12195E+03
 -1       611-1.22393E+02 4.41191E+02-5.97134E+03
 -1       612-6.80354E+01 5.02843E+02-6.51847E+03
 -1       613-2.81776E+01 5.53482E+02-6.80545E+03
 -1       614 1.26298E+01 5.96363E+02-6.85372E+03
 -1       615-1.40703E+01 6.15255E+02-7.07229E+03
 -1       616 2.77608E+01 5.71262E+02-7.02940E+03
 -1       617 6.86902E+01 5.19571E+02-6.74127E+03
 -1       618 1.24810E+02 4.56244E+02-6.18496E+03
 -1       619 1.74277E+02 3.93172E+02-5.31823E+03
 -1       620 2.43348E+02 3.28090E+02-4.12001E+03
 -1       621 2.94402E+02 2.87184E+02-2.55947E+03
 -1       622-1.08773E+02 3.29543E+02-3.07904E+03
 -1       623-2.77637E+01 4.03741E+02-3.88158E+03
 -1       624 5.15863E+01 4.56849E+02-3.73964E+03
 -1       625-5.39407E+01 4.71431E+02-3.85968E+03
 -1       626 2.76757E+01 4.17430E+02-4.01600E+03
 -1       627 1.10912E+02 3.41782E+02-3.20080E+03
 -1       628-6.75115E+01 2.53385E+02-1.38021E+03
 -1       629-3.76724E+01 2.84726E+02-1.68536E+03
 -1       630-1.12210E+01 3.01859E+02-1.82558E+03
 -1       631 2.54853E+01 2.98547E+02-1.78132E+03
 -1       632 6.93355E+01 2.73596E+02-1.53150E+03
 -1       633 7.18696E+01 1.68725E+02-1.02223E+03
 -1       634 5.37906E+01 8.76992E+01-5.79254E+02
 -1       635-1.18513E+00 7.10939E+01-4.70046E+02
 -1       636-5.62825E+01 8.98078E+01-5.93239E+02
 -1       637-7.45985E+01 1.73926E+02-1.05362E+03
 -1       638-7.18506E+01 2.82401E+02-1.58104E+03
 -1       639-2.67095E+01 3.08544E+02-1.84103E+03
 -1       640 1.10661E+01 3.12374E+02-1.88937E+03
 -1       641 3.82505E+01 2.95198E+02-1.74796E+03
 -1       642 6.90667E+01 2.63380E+02-1.43672E+03
 -1       643-2.96207E+01 1.20825E+02-3.09301E+02
 -1       644-2.74682E+00 1.59436E+02-4.69218E+02
 -1       645 2.28127E+01 1.32844E+02-3.71868E+02
 -1       646 1.25841E+01 5.16937E+01-1.75540E+02
 -1       647-1.32943E+01 5.29751E+01-1.79476E+02
 -1       648-2.36287E+01 1.37127E+02-3.83971E+02
 -1       649 2.69160E+00 1.65001E+02-4.85685E+02
 -1       650 3.04025E+01 1.25751E+02-3.22663E+02
 -1       651 0.00000E+00 0.00000E+00 0.00000E+00
 -1       652 0.00000E+00 0.00000E+00 0.00000E+00
 -1       653 0.00000E+00 0.00000E+00 0.00000E+00
 -1       654 0.00000E+00 0.00000E+00 0.00000E+00
 -1       655 0.00000E+00 0.00000E+00 0.00000E+00
 -1       656 0.00000E+00 0.00000E+00 0.00000E+00
 -1       657 0.00000E+00 0.00000E+00 0.00000E+00
 -1       658 0.00000E+00 0.00000E+00 0.00000E+00
 -1       659 0.00000E+00 0.00000E+00 0.00000E+00
 -1       660 0.00000E+00 0.00000E+00 0.00000E+00
 -1       661 0.00000E+00 0.00000E+00 0.00000E+00
 -1       662 0.00000E+00 0.00000E+00 0.00000E+00
 -1       663 0.00000E+00 0.00000E+00 0.00000E+00
 -1       664 0.00000E+00 0.00000E+00 0.00000E+00
 -1       665 0.00000E+00 0.00000E+00 0.00000E+00
 -1       666 0.00000E+00 0.00000E+00 0.00000E+00
 -1       667 0.00000E+00 0.00000E+00 0.00000E+00
 -1       668 0.00000E+00 0.00000E+00 0.00000E+00
 -1       669 0.00000E+00 0.00000E+00 0.00000E+00
 -1       670 0.00000E+00 0.00000E+00 0.00000E+00
 -1       671 0.00000E+00 0.00000E+00 0.00000E+00
 -1       672 0.00000E+00 0.00000E+00 0.00000E+00
 -1       673 0.00000E+00 0.00000E+00 0.00000E+00
 -1       674 1.22058E-10 2.43382E-10-1.35477E+03
 -1       675 6.71390E-11 8.08054E-11-1.72116E+03
 -1       676 5.58021E-11-4.16281E-12-1.48549E+03
 -1       677 4.18281E-11-2.91076E-11-9.90821E+02
 -1       678 1.01745E-11-5.18359E-13-1.22805E+03
 -1       679 2.54178E-12 3.09127E-11-1.75160E+03
 -1       680-1.35610E-11 4.38784E-11-1.84071E+03
 -1       681-3.61792E-11 5.27431E-11-1.37234E+03
 -1       682 5.34367E-10 4.63570E-10-2.17588E+03
 -1       683 4.18813E-10 4.61460E-10-5.03308E+03
 -1       684 2.95186E-10 1.94813E-10-6.31615E+03
 -1       685 1.64789E-10-2.65983E-12-5.10961E+03
 -1       686 1.54844E-10-6.26737E-11-3.55500E+03
 -1       687-4.41077E-11-1.13051E-11-4.95786E+03
 -1       688-1.81659E-11 7.47550E-11-6.48389E+03
 -1       689-1.99223E-11 1.21068E-10-6.57292E+03
 -1       690-7.09809E-11 5.79211E-11-5.18851E+03
 -1       691-9.14241E-11-1.48332E-10-2.35914E+03
 -1       692 0.00000E+00 0.00000E+00 0.00000E+00
 -1       693 2.48058E-10 1.28320E-10-1.30667E+03
 -1       694 4.64613E-10 4.01729E-10-4.95619E+03
 -1       695 5.32171E-10 5.40320E-10-9.36048E+03
 -1       696 5.25419E-10 4.37653E-10-1.32412E+04
 -1       697-4.81819E-12 8.79743E-11-1.36427E+04
 -1       698 2.76485E-11 2.82759E-10-1.30752E+04
 -1       699 7.11050E-11 1.37578E-11-9.79865E+03
 -1       700 1.11974E-10-1.35281E-10-5.36117E+03
 -1       701 9.87217E-11-6.70313E-11-1.46217E+03
 -1       702 0.00000E+00 0.00000E+00 0.00000E+00
 -1       703 0.00000E+00 0.00000E+00 0.00000E+00
 -1       704 1.08502E-10 8.04228E-11-1.77527E+03
 -1       705 2.29621E-10 2.86488E-10-6.34142E+03
 -1       706 4.34606E-10 5.57891E-10-1.26158E+04
 -1       707 1.21916E-09 9.07335E-10-1.73387E+04
 -1       708 1.53251E-09 1.17192E-09-1.76658E+04
 -1       709 1.47495E-09 1.31578E-09-1.78855E+04
 -1       710 1.42480E-09 1.36001E-09-1.79957E+04
 -1       711 1.39373E-09 1.35059E-09-1.79975E+04
 -1       712 1.17114E-09 1.11305E-09-1.78969E+04
 -1       713 4.13573E-10 8.06980E-12-1.38842E+04
 -1       714 1.39127E-10-1.14150E-10-6.80884E+03
 -1       715 5.32505E-11-4.07110E-11-1.85506E+03
 -1       716 0.00000E+00 0.00000E+00 0.00000E+00
 -1       717 0.00000E+00 0.00000E+00 0.00000E+00
 -1       718 1.35249E-11 6.00642E-11-1.71507E+03
 -1       719 9.16348E-12 2.27291E-10-6.32550E+03
 -1       720-2.17770E-11 5.49268E-10-1.32462E+04
 -1       721 1.37916E-09 1.07234E-09-1.74570E+04
 -1       722 1.38694E-09 1.20282E-09-1.76794E+04
 -1       723 1.40438E-09 1.32743E-09-1.78542E+04
 -1       724 1.38171E-09 1.37224E-09-1.79656E+04
 -1       725 1.38531E-09 1.36696E-09-1.80148E+04
 -1       726 1.38050E-09 1.38824E-09-1.80194E+04
 -1       727-1.66115E-11-1.28212E-10-5.86537E+03
 -1       728-2.80189E-12-2.01379E-11-1.41504E+03
 -1       729 0.00000E+00 0.00000E+00 0.00000E+00
 -1       730 0.00000E+00 0.00000E+00 0.00000E+00
 -1       731-3.56513E-11 4.14712E-11-1.28422E+03
 -1       732-6.28226E-11 1.65365E-10-4.96540E+03
 -1       733 1.29982E-09 1.09272E-09-1.74732E+04
 -1       734 1.33679E-09 1.20070E-09-1.76487E+04
 -1       735 1.35645E-09 1.29210E-09-1.78068E+04
 -1       736 1.32880E-09 1.37215E-09-1.79183E+04
 -1       737 1.34005E-09 1.37828E-09-1.79836E+04
 -1       738 1.36356E-09 1.32561E-09-1.80325E+04
 -1       739-1.40289E-12-1.37559E-12-6.86573E+02
 -1       740 0.00000E+00 0.00000E+00 0.00000E+00
 -1       741 0.00000E+00 0.00000E+00 0.00000E+00
 -1       742-7.63032E-12-1.49786E-12-1.27166E+03
 -1       743-2.96052E-11-7.59704E-11-4.89669E+03
 -1       744 1.30366E-09 1.12230E-09-1.73825E+04
 -1       745 1.31901E-09 1.18097E-09-1.75568E+04
 -1       746 1.30206E-09 1.28055E-09-1.77140E+04
 -1       747 1.28429E-09 1.31144E-09-1.78245E+04
 -1       748 1.31921E-09 1.33544E-09-1.78882E+04
 -1       749 1.30728E-09 1.31534E-09-1.79349E+04
 -1       750-6.97648E-11 1.35283E-10-4.77096E+03
 -1       751-2.30516E-11 2.00299E-11-1.13697E+03
 -1       752 0.00000E+00 0.00000E+00 0.00000E+00
 -1       753 0.00000E+00 0.00000E+00 0.00000E+00
 -1       754 2.99664E-11-1.33032E-11-1.70058E+03
 -1       755 5.73110E-11-6.28300E-11-6.24925E+03
 -1       756 2.52030E-11-1.53503E-10-1.30194E+04
 -1       757 1.19911E-09 1.11461E-09-1.71851E+04
 -1       758 1.25699E-09 1.19286E-09-1.74035E+04
 -1       759 1.27727E-09 1.28311E-09-1.75759E+04
 -1       760 1.28400E-09 1.29753E-09-1.76848E+04
 -1       761 1.28559E-09 1.33921E-09-1.77301E+04
 -1       762 1.27578E-09 1.34175E-09-1.77279E+04
 -1       763-2.11916E-11 5.03476E-10-1.34086E+04
 -1       764 1.55255E-11 1.63790E-10-6.38021E+03
 -1       765 1.88450E-11 2.76675E-11-1.72428E+03
 -1       766 0.00000E+00 0.00000E+00 0.00000E+00
 -1       767 0.00000E+00 0.00000E+00 0.00000E+00
 -1       768 5.04554E-11-2.86925E-11-1.78411E+03
 -1       769 1.19966E-10-6.77919E-11-6.32749E+03
 -1       770 2.56111E-10-8.64032E-11-1.24500E+04
 -1       771 9.76545E-10 9.23888E-10-1.68853E+04
 -1       772 1.18545E-09 1.17583E-09-1.72060E+04
 -1       773 1.21097E-09 1.27766E-09-1.74218E+04
 -1       774 1.22389E-09 1.32975E-09-1.75290E+04
 -1       775 1.26129E-09 1.35219E-09-1.75266E+04
 -1       776 1.06626E-09 1.10378E-09-1.74163E+04
 -1       777 3.92495E-10 5.20346E-10-1.28863E+04
 -1       778 2.35169E-10 2.14828E-10-6.54578E+03
 -1       779 1.10952E-10 4.32589E-11-1.84728E+03
 -1       780 0.00000E+00 0.00000E+00 0.00000E+00
 -1       781 0.00000E+00 0.00000E+00 0.00000E+00
 -1       782 7.81102E-11-5.30019E-11-1.35983E+03
 -1       783 1.00725E-10-1.04687E-10-5.05778E+03
 -1       784 6.35189E-11-4.17987E-11-9.37543E+03
 -1       785 4.47980E-11 1.88612E-10-1.27218E+04
 -1       786-1.34068E-11 3.70614E-11-1.40698E+04
 -1       787 6.08098E-10 8.72598E-11-1.45126E+04
 -1       788 6.23494E-10 4.70194E-10-1.31427E+04
 -1       789 5.69853E-10 5.23005E-10-9.71682E+03
 -1       790 4.82874E-10 3.00096E-10-5.26032E+03
 -1       791 2.24985E-10 8.58187E-11-1.42233E+03
 -1       792 0.00000E+00 0.00000E+00 0.00000E+00
 -1       793-2.99239E-11-1.28948E-10-2.43741E+03
 -1       794-1.76504E-11 2.04008E-11-5.12382E+03
 -1       795 4.09618E-12 7.46730E-11-6.51758E+03
 -1       796 1.61860E-11 4.55848E-11-6.85281E+03
 -1       797 3.40121E-10 3.20168E-11-7.07135E+03
 -1       798 3.72141E-10 3.01522E-10-6.74036E+03
 -1       799 5.25184E-10 5.03668E-10-5.32019E+03
 -1       800 6.41085E-10 3.61124E-10-2.56290E+03
 -1       801-1.40070E-11 1.82965E-11-1.37608E+03
 -1       802-4.55715E-12 2.47018E-11-1.82093E+03
 -1       803 2.51222E-13 1.64107E-11-1.52543E+03
 -1       804 5.53140E-12 1.45415E-12-5.76293E+02
 -1       805 1.29135E-11-3.15773E-12-5.90218E+02
 -1       806 7.43259E-11-5.39324E-13-1.57476E+03
 -1       807 1.23118E-10 1.32197E-10-1.88456E+03
 -1       808 1.80865E-10 2.94501E-10-1.43243E+03
 -1       809 0.00000E+00 0.00000E+00 0.00000E+00
 -1       810 0.00000E+00 0.00000E+00 0.00000E+00
 -1       811 0.00000E+00 0.00000E+00 0.00000E+00
 -1       812 0.00000E+00 0.00000E+00 0.00000E+00
 -1       813 0.00000E+00 0.00000E+00 0.00000E+00
 -1       814 0.00000E+00 0.00000E+00 0.00000E+00
 -1       815 0.00000E+00 0.00000E+00 0.00000E+00
 -1       816 0.00000E+00 0.00000E+00 0.00000E+00
 -1       817 0.00000E+00 0.00000E+00 0.00000E+00
 -1       818 0.00000E+00 0.00000E+00 0.00000E+00
 -1       819 0.00000E+00 0.00000E+00 0.00000E+00
 -1       820 0.00000E+00 0.00000E+00 0.00000E+00
 -1       821 0.00000E+00 0.00000E+00 0.00000E+00
 -1       822 0.00000E+00 0.00000E+00 0.00000E+00
 -1       823 0.00000E+00 0.00000E+00 0.00000E+00
 -1       824 0.00000E+00 0.00000E+00 0.00000E+00
 -1       825 0.00000E+00 0.00000E+00 0.00000E+00
 -1       826 0.00000E+00 0.00000E+00 0.00000E+00
 -1       827 0.00000E+00 0.00000E+00 0.00000E+00
 -1       828 0.00000E+00 0.00000E+00 0.00000E+00
 -1       829 0.00000E+00 0.00000E+00 0.00000E+00
 -1       830 0.00000E+00 0.00000E+00 0.00000E+00
 -1       831 0.00000E+00 0.00000E+00 0.00000E+00
 -1       832 2.91844E+01 1.18036E+02-3.06933E+02
 -1       833-5.92722E-01 1.48794E+02-4.43629E+02
 -1       834-1.23554E+01 1.27687E+02-3.82419E+02
 -1       835-1.02227E+01 8.69420E+01-2.65782E+02
 -1       836 1.95184E+01 1.06603E+02-3.16631E+02
 -1       837 6.29944E+00 1.50762E+02-4.42674E+02
 -1       838-2.46543E+00 1.59517E+02-4.76202E+02
 -1       839-2.99821E+01 1.20997E+02-3.10294E+02
 -1       840 6.43076E+01 2.46216E+02-1.35861E+03
 -1       841 2.96448E+01 2.75544E+02-1.62765E+03
 -1       842 2.16734E+00 2.82131E+02-1.72597E+03
 -1       843-1.68848E+01 2.76601E+02-1.66451E+03
 -1       844-4.38927E+01 2.48258E+02-1.48952E+03
 -1       845-4.16371E+01 2.06074E+02-1.23727E+03
 -1       846-3.16651E+01 1.66468E+02-9.95253E+02
 -1       847 1.75840E+01 1.68739E+02-1.00249E+03
 -1       848 6.09690E+01 2.12815E+02-1.23325E+03
 -1       849 4.27177E+01 2.60847E+02-1.54533E+03
 -1       850 2.55295E+01 2.94121E+02-1.75688E+03
 -1       851 8.41180E+00 3.08517E+02-1.84580E+03
 -1       852-1.27458E+01 3.05704E+02-1.84575E+03
 -1       853-3.95110E+01 2.85709E+02-1.68975E+03
 -1       854-6.88117E+01 2.51373E+02-1.37647E+03
 -1       855 1.06417E+02 3.26080E+02-3.01640E+03
 -1       856 2.74327E+00 3.97838E+02-3.68318E+03
 -1       857-8.86460E+01 3.16620E+02-3.13634E+03
 -1       858-8.29437E+01 2.24797E+02-2.14125E+03
 -1       859 1.05606E+02 3.28872E+02-2.83993E+03
 -1       860 5.48448E+01 4.08477E+02-3.78727E+03
 -1       861-2.93772E+01 4.09708E+02-3.92057E+03
 -1       862-1.16327E+02 3.34972E+02-3.07443E+03
 -1       863 3.00175E+02 2.88454E+02-2.17268E+03
 -1       864 2.50765E+02 3.23466E+02-3.77489E+03
 -1       865 1.87234E+02 3.76796E+02-5.03127E+03
 -1       866 1.12669E+02 4.49806E+02-5.90554E+03
 -1       867 1.05728E+01 5.22445E+02-6.31614E+03
 -1       868-9.66272E+01 4.47842E+02-5.92615E+03
 -1       869-1.54117E+02 3.62397E+02-5.10921E+03
 -1       870-1.31192E+02 3.06109E+02-4.29490E+03
 -1       871-1.15726E+02 2.66852E+02-3.55587E+03
 -1       872 1.57673E+02 4.03092E+02-4.95836E+03
 -1       873 1.27587E+02 4.57866E+02-5.81601E+03
 -1       874 8.22539E+01 5.24750E+02-6.48445E+03
 -1       875 6.30147E+00 5.28652E+02-6.72969E+03
 -1       876-5.74598E+01 5.02639E+02-6.57353E+03
 -1       877-1.20533E+02 4.54310E+02-6.06293E+03
 -1       878-1.80324E+02 3.99157E+02-5.18668E+03
 -1       879-2.50457E+02 3.42930E+02-3.95027E+03
 -1       880-2.93792E+02 3.15228E+02-2.35594E+03
 -1       881 3.26958E+02 2.46010E+02-3.74032E+03
 -1       882 2.60937E+02 3.68123E+02-7.20990E+03
 -1       883 1.81641E+02 5.83286E+02-9.70104E+03
 -1       884 6.39451E+01 6.17734E+02-9.85231E+03
 -1       885-1.15721E+02 5.59062E+02-9.65790E+03
 -1       886-2.57094E+02 3.98478E+02-7.50902E+03
 -1       887-3.31823E+02 2.63039E+02-4.03524E+03
 -1       888 0.00000E+00 0.00000E+00 0.00000E+00
 -1       889 1.15288E+02 2.92730E+01-2.94606E+02
 -1       890 2.40085E+02 6.76933E+01-1.31064E+03
 -1       891 3.20429E+02 1.14360E+02-2.93373E+03
 -1       892 3.81852E+02 1.77222E+02-4.95444E+03
 -1       893 3.80845E+02 2.53703E+02-7.17522E+03
 -1       894 3.67156E+02 3.63929E+02-9.35845E+03
 -1       895 3.22349E+02 4.71381E+02-1.13081E+04
 -1       896 3.28866E+02 5.81677E+02-1.32373E+04
 -1       897 5.25070E+01 6.81662E+02-1.36429E+04
 -1       898-4.31553E+01 6.58643E+02-1.36870E+04
 -1       899-1.93814E+02 6.14383E+02-1.30699E+04
 -1       900-2.78719E+02 5.01269E+02-1.16337E+04
 -1       901-3.67995E+02 3.84797E+02-9.79654E+03
 -1       902-3.78060E+02 2.77108E+02-7.60544E+03
 -1       903-3.90873E+02 1.96477E+02-5.35908E+03
 -1       904-3.45297E+02 1.11992E+02-3.24955E+03
 -1       905-2.67266E+02 6.94895E+01-1.46636E+03
 -1       906-1.27864E+02 3.10595E+01-3.29398E+02
 -1       907 0.00000E+00 0.00000E+00 0.00000E+00
 -1       908 0.00000E+00 0.00000E+00 0.00000E+00
 -1       909 2.74165E+02 3.95570E+01-1.62085E+03
 -1       910 4.36697E+02 1.20566E+02-5.82164E+03
 -1       911 4.82508E+02 2.76600E+02-1.11792E+04
 -1       912 3.12323E+02 3.48635E+02-1.58800E+04
 -1       913-2.46476E+02 4.09503E+02-1.61116E+04
 -1       914-4.73764E+02 3.39651E+02-1.18446E+04
 -1       915-4.72939E+02 1.27727E+02-6.30091E+03
 -1       916-2.97144E+02 3.22517E+01-1.75941E+03
 -1       917 0.00000E+00 0.00000E+00 0.00000E+00
 -1       918 0.00000E+00 0.00000E+00 0.00000E+00
 -1       919 1.53919E+02 2.82310E+00-4.59116E+02
 -1       920 2.94905E+02 1.39515E+01-1.78015E+03
 -1       921 3.95272E+02 3.16093E+01-3.78155E+03
 -1       922 4.85175E+02 6.04425E+01-6.34203E+03
 -1       923 5.39315E+02 1.18081E+02-9.31748E+03
 -1       924 5.92523E+02 1.94219E+02-1.26107E+04
 -1       925 4.01314E+02 2.45060E+02-1.55568E+04
 -1       926 9.96218E+01 6.57226E+01-1.73262E+04
 -1       927 3.22609E+01 8.81570E+00-1.75161E+04
 -1       928 1.64534E+01 6.60034E-01-1.76686E+04
 -1       929 1.44140E+01-5.22506E+00-1.77911E+04
 -1       930 1.48808E+01-1.78692E+00-1.78848E+04
 -1       931 9.70596E+00-2.88682E+00-1.79535E+04
 -1       932 4.61790E+00-1.04886E+00-1.79950E+04
 -1       933 4.33058E+00-5.54402E+00-1.80116E+04
 -1       934 2.27861E+00 1.24838E+00-1.80005E+04
 -1       935-9.77341E+00 9.95690E+00-1.79581E+04
 -1       936-6.24331E+01 8.70125E+01-1.78841E+04
 -1       937-3.41997E+02 3.17379E+02-1.64779E+04
 -1       938-5.76389E+02 3.47963E+02-1.38799E+04
 -1       939-5.96484E+02 2.04857E+02-1.03227E+04
 -1       940-5.60332E+02 3.32241E+01-6.80902E+03
 -1       941-4.27995E+02 6.08540E+00-3.97423E+03
 -1       942-3.04639E+02 4.84802E-01-1.85985E+03
 -1       943-1.61236E+02-1.62566E-01-4.76600E+02
 -1       944 0.00000E+00 0.00000E+00 0.00000E+00
 -1       945 0.00000E+00 0.00000E+00 0.00000E+00
 -1       946 2.99493E+02-5.97375E+00-1.79100E+03
 -1       947 5.11453E+02-1.75509E-01-6.52387E+03
 -1       948 6.36250E+02 4.87798E+01-1.32480E+04
 -1       949 2.73916E+01 1.16970E+01-1.74092E+04
 -1       950 2.40864E+01 5.02586E+00-1.76718E+04
 -1       951 1.25013E+01-2.99933E+00-1.78690E+04
 -1       952 6.56419E+00-3.07039E+00-1.79798E+04
 -1       953-3.65750E+00 6.64470E+00-1.80057E+04
 -1       954-7.24247E+00 1.53331E+01-1.79727E+04
 -1       955-5.20810E+02-8.00840E+01-6.57612E+03
 -1       956-2.92093E+02-3.56297E+01-1.74206E+03
 -1       957 0.00000E+00 0.00000E+00 0.00000E+00
 -1       958 0.00000E+00 0.00000E+00 0.00000E+00
 -1       959 1.47403E+02-5.03243E+00-4.34608E+02
 -1       960 2.88120E+02-2.18966E+01-1.72024E+03
 -1       961 3.98161E+02-4.71203E+01-3.70354E+03
 -1       962 5.08838E+02-7.21643E+01-6.32606E+03
 -1       963 5.97138E+02-5.41958E+01-9.58533E+03
 -1       964 6.57747E+02-4.37353E+01-1.32463E+04
 -1       965 1.88912E+01-7.65892E-01-1.74600E+04
 -1       966 2.40015E+01 5.32114E+00-1.75677E+04
 -1       967 1.35863E+01-3.60178E+00-1.76785E+04
 -1       968 1.41911E+01-2.38991E+00-1.77731E+04
 -1       969 1.32766E+01-2.97619E+00-1.78543E+04
 -1       970 9.65889E+00-2.91513E+00-1.79183E+04
 -1       971 6.05537E+00-2.80439E+00-1.79656E+04
 -1       972 4.83824E+00-2.47291E+00-1.79962E+04
 -1       973 5.13176E+00-4.37388E+00-1.80139E+04
 -1       974-3.36127E+00 6.65707E+00-1.80163E+04
 -1       975 9.71928E-01-1.47504E+00-1.80223E+04
 -1       976-4.83929E+02-1.55077E+02-5.86465E+03
 -1       977-3.91931E+02-1.08152E+02-3.32407E+03
 -1       978-2.48187E+02-7.95809E+01-1.42045E+03
 -1       979-1.21733E+02-2.53933E+01-3.53859E+02
 -1       980 0.00000E+00 0.00000E+00 0.00000E+00
 -1       981 0.00000E+00 0.00000E+00 0.00000E+00
 -1       982 2.59452E+02-3.45389E+01-1.54271E+03
 -1       983 4.45728E+02-1.13027E+02-5.73062E+03
 -1       984 1.23288E+01-2.80878E+00-1.74800E+04
 -1       985 1.52905E+01-3.28636E+00-1.76700E+04
 -1       986 1.19401E+01-4.21705E+00-1.78349E+04
 -1       987 7.33117E+00-4.16740E+00-1.79465E+04
 -1       988 3.92308E+00-3.64748E+00-1.80056E+04
 -1       989 6.76959E+00-3.50830E+00-1.80417E+04
 -1       990-1.60101E+02-5.36310E+01-9.73309E+02
 -1       991 0.00000E+00 0.00000E+00 0.00000E+00
 -1       992 0.00000E+00 0.00000E+00 0.00000E+00
 -1       993 1.11715E+02-1.57059E+01-3.36197E+02
 -1       994 2.18545E+02-4.67053E+01-1.28961E+03
 -1       995 3.24494E+02-9.03153E+01-2.89207E+03
 -1       996 3.92142E+02-1.40335E+02-4.96566E+03
 -1       997 1.65282E+01-3.00547E+00-1.74725E+04
 -1       998 1.47061E+01-4.92472E+00-1.75602E+04
 -1       999 1.48801E+01-4.44516E+00-1.76487E+04
 -1      1000 1.35341E+01-5.72646E+00-1.77323E+04
 -1      1001 1.18297E+01-5.81580E+00-1.78067E+04
 -1      1002 9.59334E+00-6.06582E+00-1.78685E+04
 -1      1003 7.37152E+00-5.88492E+00-1.79181E+04
 -1      1004 5.75370E+00-5.81095E+00-1.79554E+04
 -1      1005 4.49352E+00-4.47494E+00-1.79836E+04
 -1      1006 4.54335E+00-5.38056E+00-1.80072E+04
 -1      1007 3.33984E+00-2.82424E+00-1.80318E+04
 -1      1008-1.03775E+02-1.48355E+01-6.90468E+02
 -1      1009-6.19177E+01-3.78146E+00-2.08154E+02
 -1      1010 0.00000E+00 0.00000E+00 0.00000E+00
 -1      1011 0.00000E+00 0.00000E+00 0.00000E+00
 -1      1012 1.96088E+02-9.35623E-01-1.16912E+03
 -1      1013 1.48600E+01-7.89596E+00-1.74405E+04
 -1      1014 1.47992E+01-7.92871E+00-1.76109E+04
 -1      1015 1.15768E+01-7.99906E+00-1.77662E+04
 -1      1016 7.55801E+00-8.09905E+00-1.78773E+04
 -1      1017 4.41756E+00-8.15816E+00-1.79444E+04
 -1      1018 4.41022E+00-8.16373E+00-1.79967E+04
 -1      1019-1.33933E+02 3.22943E+01-8.15464E+02
 -1      1020 0.00000E+00 0.00000E+00 0.00000E+00
 -1      1021 0.00000E+00 0.00000E+00 0.00000E+00
 -1      1022 1.10645E+02 1.52433E+01-3.33643E+02
 -1      1023 2.16019E+02 4.51497E+01-1.27700E+03
 -1      1024 3.19542E+02 8.89287E+01-2.85603E+03
 -1      1025 3.85773E+02 1.38116E+02-4.89694E+03
 -1      1026 1.61879E+01-1.27873E+01-1.73818E+04
 -1      1027 1.46698E+01-1.08317E+01-1.74688E+04
 -1      1028 1.47452E+01-1.14145E+01-1.75568E+04
 -1      1029 1.34380E+01-1.02100E+01-1.76399E+04
 -1      1030 1.17493E+01-1.01793E+01-1.77138E+04
 -1      1031 9.52375E+00-1.00237E+01-1.77752E+04
 -1      1032 7.29564E+00-1.02970E+01-1.78243E+04
 -1      1033 5.58228E+00-1.04477E+01-1.78609E+04
 -1      1034 4.24507E+00-1.18277E+01-1.78882E+04
 -1      1035 4.46283E+00-1.12911E+01-1.79107E+04
 -1      1036 2.68285E+00-1.34058E+01-1.79342E+04
 -1      1037-3.97424E+02 1.66711E+02-4.77171E+03
 -1      1038-3.20419E+02 1.14832E+02-2.69353E+03
 -1      1039-2.00592E+02 7.16266E+01-1.14164E+03
 -1      1040-9.81445E+01 2.11861E+01-2.88329E+02
 -1      1041 0.00000E+00 0.00000E+00 0.00000E+00
 -1      1042 0.00000E+00 0.00000E+00 0.00000E+00
 -1      1043 2.56505E+02 3.43903E+01-1.52589E+03
 -1      1044 4.38390E+02 1.12348E+02-5.65280E+03
 -1      1045 1.23525E+01-1.29193E+01-1.72986E+04
 -1      1046 1.51603E+01-1.25396E+01-1.74861E+04
 -1      1047 1.17954E+01-1.18058E+01-1.76493E+04
 -1      1048 7.11951E+00-1.19326E+01-1.77590E+04
 -1      1049 3.74744E+00-1.29653E+01-1.78152E+04
 -1      1050 6.71082E+00-1.34961E+01-1.78466E+04
 -1      1051-4.50344E+02 1.35246E+02-5.67555E+03
 -1      1052-2.53173E+02 4.87580E+01-1.49331E+03
 -1      1053 0.00000E+00 0.00000E+00 0.00000E+00
 -1      1054 0.00000E+00 0.00000E+00 0.00000E+00
 -1      1055 1.46161E+02 5.32225E+00-4.31420E+02
 -1      1056 2.85630E+02 2.29715E+01-1.70570E+03
 -1      1057 3.92867E+02 4.86624E+01-3.66702E+03
 -1      1058 5.00225E+02 7.38682E+01-6.24981E+03
 -1      1059 5.83859E+02 5.76958E+01-9.44249E+03
 -1      1060 6.42299E+02 4.58859E+01-1.30195E+04
 -1      1061 1.84985E+01-1.49535E+01-1.71879E+04
 -1      1062 2.31873E+01-2.11757E+01-1.72937E+04
 -1      1063 1.36523E+01-1.22259E+01-1.74027E+04
 -1      1064 1.40833E+01-1.35286E+01-1.74959E+04
 -1      1065 1.30353E+01-1.30501E+01-1.75759E+04
 -1      1066 9.37228E+00-1.30732E+01-1.76388E+04
 -1      1067 5.70582E+00-1.32087E+01-1.76848E+04
 -1      1068 4.74802E+00-1.38298E+01-1.77138E+04
 -1      1069 5.30876E+00-1.25971E+01-1.77292E+04
 -1      1070-4.87896E+00-2.19142E+01-1.77284E+04
 -1      1071 1.64015E-01-1.55321E+01-1.77309E+04
 -1      1072-6.68530E+02 5.55699E+01-1.34088E+04
 -1      1073-6.06044E+02 6.96826E+01-9.68975E+03
 -1      1074-5.16624E+02 8.77259E+01-6.38067E+03
 -1      1075-4.01737E+02 6.01431E+01-3.72708E+03
 -1      1076-2.89377E+02 2.82603E+01-1.72950E+03
 -1      1077-1.48630E+02 7.65411E+00-4.34448E+02
 -1      1078 0.00000E+00 0.00000E+00 0.00000E+00
 -1      1079 0.00000E+00 0.00000E+00 0.00000E+00
 -1      1080 2.98375E+02 7.98787E+00-1.78571E+03
 -1      1081 5.03603E+02 5.72584E+00-6.46866E+03
 -1      1082 6.18108E+02-4.33650E+01-1.30418E+04
 -1      1083 2.66023E+01-2.78146E+01-1.70471E+04
 -1      1084 2.33122E+01-2.09668E+01-1.73040E+04
 -1      1085 1.22790E+01-1.29314E+01-1.74979E+04
 -1      1086 6.38869E+00-1.30637E+01-1.76060E+04
 -1      1087-5.07814E+00-2.15772E+01-1.76276E+04
 -1      1088-8.44701E+00-2.86437E+01-1.75841E+04
 -1      1089-6.41722E+02-3.89455E+01-1.34730E+04
 -1      1090-5.20520E+02 1.28997E+01-6.66134E+03
 -1      1091-3.06513E+02 1.12166E+01-1.83617E+03
 -1      1092 0.00000E+00 0.00000E+00 0.00000E+00
 -1      1093 0.00000E+00 0.00000E+00 0.00000E+00
 -1      1094 1.54733E+02-1.95058E+00-4.62108E+02
 -1      1095 2.96095E+02-1.09783E+01-1.78901E+03
 -1      1096 3.93219E+02-2.57492E+01-3.78912E+03
 -1      1097 4.79186E+02-5.14673E+01-6.32795E+03
 -1      1098 5.26791E+02-1.08284E+02-9.25018E+03
 -1      1099 5.70827E+02-1.83627E+02-1.24449E+04
 -1      1100 3.72612E+02-2.31692E+02-1.52322E+04
 -1      1101 9.18173E+01-8.29406E+01-1.68733E+04
 -1      1102 3.07538E+01-2.45445E+01-1.70587E+04
 -1      1103 1.63726E+01-1.65652E+01-1.72087E+04
 -1      1104 1.43575E+01-1.07636E+01-1.73290E+04
 -1      1105 1.45322E+01-1.42696E+01-1.74211E+04
 -1      1106 9.29202E+00-1.30435E+01-1.74883E+04
 -1      1107 4.01361E+00-1.44798E+01-1.75283E+04
 -1      1108 4.38519E+00-1.09733E+01-1.75433E+04
 -1      1109 2.35108E+00-1.70363E+01-1.75295E+04
 -1      1110-1.30375E+01-2.54166E+01-1.74852E+04
 -1      1111-7.86139E+01-8.51078E+01-1.74037E+04
 -1      1112-3.80184E+02-2.40192E+02-1.57584E+04
 -1      1113-5.92205E+02-1.87926E+02-1.28808E+04
 -1      1114-5.45505E+02-1.08558E+02-9.57031E+03
 -1      1115-4.95258E+02-4.94682E+01-6.54622E+03
 -1      1116-4.06718E+02-2.38262E+01-3.92188E+03
 -1      1117-3.06380E+02-9.77095E+00-1.85229E+03
 -1      1118-1.60092E+02-1.68543E+00-4.79008E+02
 -1      1119 0.00000E+00 0.00000E+00 0.00000E+00
 -1      1120 0.00000E+00 0.00000E+00 0.00000E+00
 -1      1121 2.78271E+02-3.56962E+01-1.64976E+03
 -1      1122 4.33851E+02-1.11043E+02-5.86095E+03
 -1      1123 4.63890E+02-2.58783E+02-1.10989E+04
 -1      1124 2.53958E+02-3.50250E+02-1.53550E+04
 -1      1125-2.53986E+02-3.59756E+02-1.58462E+04
 -1      1126-4.79138E+02-2.66913E+02-1.14958E+04
 -1      1127-4.48763E+02-1.12442E+02-6.08117E+03
 -1      1128-2.89241E+02-3.57094E+01-1.71585E+03
 -1      1129 0.00000E+00 0.00000E+00 0.00000E+00
 -1      1130 0.00000E+00 0.00000E+00 0.00000E+00
 -1      1131 1.19832E+02-2.79312E+01-3.10763E+02
 -1      1132 2.47456E+02-6.33926E+01-1.36381E+03
 -1      1133 3.24273E+02-1.06035E+02-3.02199E+03
 -1      1134 3.80965E+02-1.65927E+02-5.05603E+03
 -1      1135 3.73514E+02-2.39841E+02-7.25238E+03
 -1      1136 3.55311E+02-3.45064E+02-9.37244E+03
 -1      1137 2.80030E+02-4.51284E+02-1.11903E+04
 -1      1138 2.23717E+02-5.54250E+02-1.27167E+04
 -1      1139 1.11620E+02-6.16609E+02-1.36371E+04
 -1      1140 3.95409E+01-6.42055E+02-1.40690E+04
 -1      1141-3.96139E+01-6.61640E+02-1.45117E+04
 -1      1142-1.13315E+02-6.35494E+02-1.40749E+04
 -1      1143-2.28022E+02-5.70869E+02-1.31374E+04
 -1      1144-2.86217E+02-4.66123E+02-1.15781E+04
 -1      1145-3.65687E+02-3.56575E+02-9.71368E+03
 -1      1146-3.85584E+02-2.47024E+02-7.52836E+03
 -1      1147-3.94060E+02-1.70352E+02-5.25845E+03
 -1      1148-3.36549E+02-1.08438E+02-3.15110E+03
 -1      1149-2.58095E+02-6.45772E+01-1.42647E+03
 -1      1150-1.25297E+02-2.86567E+01-3.25658E+02
 -1      1151 0.00000E+00 0.00000E+00 0.00000E+00
 -1      1152 3.22076E+02-2.31767E+02-3.91722E+03
 -1      1153 2.49259E+02-3.67367E+02-7.29731E+03
 -1      1154 1.42443E+02-5.34893E+02-9.53226E+03
 -1      1155 2.01124E+01-6.21449E+02-1.03848E+04
 -1      1156-1.94199E+01-6.40675E+02-1.07141E+04
 -1      1157-1.45076E+02-5.51905E+02-9.85305E+03
 -1      1158-2.55780E+02-3.79848E+02-7.56862E+03
 -1      1159-3.32395E+02-2.38806E+02-4.08823E+03
 -1      1160 2.85855E+02-2.78560E+02-2.43411E+03
 -1      1161 2.37052E+02-3.17285E+02-3.95182E+03
 -1      1162 1.70696E+02-3.79804E+02-5.12195E+03
 -1      1163 1.22393E+02-4.41191E+02-5.97134E+03
 -1      1164 6.80354E+01-5.02843E+02-6.51847E+03
 -1      1165 2.81776E+01-5.53482E+02-6.80545E+03
 -1      1166-1.26298E+01-5.96363E+02-6.85372E+03
 -1      1167 1.40703E+01-6.15255E+02-7.07229E+03
 -1      1168-2.77608E+01-5.71262E+02-7.02940E+03
 -1      1169-6.86902E+01-5.19571E+02-6.74127E+03
 -1      1170-1.24810E+02-4.56244E+02-6.18496E+03
 -1      1171-1.74277E+02-3.93172E+02-5.31823E+03
 -1      1172-2.43348E+02-3.28090E+02-4.12001E+03
 -1      1173-2.94402E+02-2.87184E+02-2.55947E+03
 -1      1174 1.08773E+02-3.29543E+02-3.07904E+03
 -1      1175 2.77637E+01-4.03741E+02-3.88158E+03
 -1      1176-5.15863E+01-4.56849E+02-3.73964E+03
 -1      1177 5.39407E+01-4.71431E+02-3.85968E+03
 -1      1178-2.76757E+01-4.17430E+02-4.01600E+03
 -1      1179-1.10912E+02-3.41782E+02-3.20080E+03
 -1      1180 6.75115E+01-2.53385E+02-1.38021E+03
 -1      1181 3.76724E+01-2.84726E+02-1.68536E+03
 -1      1182 1.12210E+01-3.01859E+02-1.82558E+03
 -1      1183-2.54853E+01-2.98547E+02-1.78132E+03
 -1      1184-6.93355E+01-2.73596E+02-1.53150E+03
 -1      1185-7.18696E+01-1.68725E+02-1.02223E+03
 -1      1186-5.37906E+01-8.76992E+01-5.79254E+02
 -1      1187 1.18513E+00-7.10939E+01-4.70046E+02
 -1      1188 5.62825E+01-8.98078E+01-5.93239E+02
 -1      1189 7.45985E+01-1.73926E+02-1.05362E+03
 -1      1190 7.18506E+01-2.82401E+02-1.58104E+03
 -1      1191 2.67095E+01-3.08544E+02-1.84103E+03
 -1      1192-1.10661E+01-3.12374E+02-1.88937E+03
 -1      1193-3.82505E+01-2.95198E+02-1.74796E+03
 -1      1194-6.90667E+01-2.63380E+02-1.43672E+03
 -1      1195 2.96207E+01-1.20825E+02-3.09301E+02
 -1      1196 2.74682E+00-1.59436E+02-4.69218E+02
 -1      1197-2.28127E+01-1.32844E+02-3.71868E+02
 -1      1198-1.25841E+01-5.16937E+01-1.75540E+02
 -1      1199 1.32943E+01-5.29751E+01-1.79476E+02
 -1      1200 2.36287E+01-1.37127E+02-3.83971E+02
 -1      1201-2.69160E+00-1.65001E+02-4.85685E+02
 -1      1202-3.04025E+01-1.25751E+02-3.22663E+02
 -1      1203 0.00000E+00 0.00000E+00 0.00000E+00
 -1      1204 0.00000E+00 0.00000E+00 0.00000E+00
 -1      1205 0.00000E+00 0.00000E+00 0.00000E+00
 -1      1206 0.00000E+00 0.00000E+00 0.00000E+00
 -1      1207 0.00000E+00 0.00000E+00 0.00000E+00
 -1      1208 0.00000E+00 0.00000E+00 0.00000E+00
 -1      1209 0.00000E+00 0.00000E+00 0.00000E+00
 -1      1210 0.00000E+00 0.00000E+00 0.00000E+00
 -1      1211 0.00000E+00 0.00000E+00 0.00000E+00
 -1      1212 0.00000E+00 0.00000E+00 0.00000E+00
 -1      1213 0.00000E+00 0.00000E+00 0.00000E+00
 -1      1214 0.00000E+00 0.00000E+00 0.00000E+00
 -1      1215 0.00000E+00 0.00000E+00 0.00000E+00
 -1      1216 0.00000E+00 0.00000E+00 0.00000E+00
 -1      1217 0.00000E+00 0.00000E+00 0.00000E+00
 -1      1218 9.30694E+01 4.63386E+01-1.73277E+04
 -1      1219 3.61072E+01 1.00628E+00-1.76694E+04
 -1      1220 2.55900E+01-5.98902E+00-1.78850E+04
 -1      1221 1.12008E+01-5.45260E+00-1.79951E+04
 -1      1222 4.34183E-01 1.85161E+00-1.80011E+04
 -1      1223-4.17276E+01 6.29833E+01-1.78856E+04
 -1      1224 3.55865E+01 2.49777E+00-1.74606E+04
 -1      1225 3.13623E+01-2.35826E+00-1.76770E+04
 -1      1226 2.44204E+01-5.68617E+00-1.78540E+04
 -1      1227 1.23599E+01-5.52913E+00-1.79654E+04
 -1      1228 5.33631E+00-2.61177E+00-1.80123E+04
 -1      1229 2.04784E+00 2.12962E+00-1.80231E+04
 -1      1230 2.83384E+01-8.08523E+00-1.74726E+04
 -1      1231 2.82869E+01-9.26765E+00-1.76485E+04
 -1      1232 2.24255E+01-1.12847E+01-1.78063E+04
 -1      1233 1.42580E+01-1.13889E+01-1.79178E+04
 -1      1234 8.59421E+00-9.53515E+00-1.79834E+04
 -1      1235 8.93806E+00-8.40455E+00-1.80320E+04
 -1      1236 2.80303E+01-2.20358E+01-1.73819E+04
 -1      1237 2.80890E+01-2.10003E+01-1.75566E+04
 -1      1238 2.22783E+01-1.92741E+01-1.77135E+04
 -1      1239 1.40827E+01-1.94952E+01-1.78240E+04
 -1      1240 8.24410E+00-2.17306E+01-1.78880E+04
 -1      1241 8.29081E+00-2.30592E+01-1.79343E+04
 -1      1242 3.48975E+01-3.25359E+01-1.71885E+04
 -1      1243 3.10270E+01-2.79037E+01-1.74012E+04
 -1      1244 2.40000E+01-2.48593E+01-1.75757E+04
 -1      1245 1.18240E+01-2.51459E+01-1.76846E+04
 -1      1246 4.82746E+00-2.87569E+01-1.77276E+04
 -1      1247 7.43052E-01-3.37884E+01-1.77315E+04
 -1      1248 8.69890E+01-7.80529E+01-1.68749E+04
 -1      1249 3.55994E+01-3.13470E+01-1.72094E+04
 -1      1250 2.50712E+01-2.45828E+01-1.74212E+04
 -1      1251 1.04630E+01-2.48825E+01-1.75285E+04
 -1      1252-1.27727E-01-3.22711E+01-1.75302E+04
 -1      1253-5.53854E+01-8.00868E+01-1.74053E+04
 -1      1254 9.08377E+01 3.11005E+01-1.73314E+04
 -1      1255 7.48881E+01 1.65617E+01-1.75117E+04
 -1      1256 5.46192E+01 1.83382E-01-1.76694E+04
 -1      1257 4.71044E+01-6.78129E+00-1.77895E+04
 -1      1258 3.68266E+01-9.92679E+00-1.78851E+04
 -1      1259 2.70172E+01-1.07341E+01-1.79533E+04
 -1      1260 1.72496E+01-9.57323E+00-1.79952E+04
 -1      1261 7.14992E+00-6.00985E+00-1.80102E+04
 -1      1262-4.15212E-01 1.19232E+00-1.80010E+04
 -1      1263-1.60493E+01 1.84861E+01-1.79549E+04
 -1      1264-2.52309E+01 4.34094E+01-1.78893E+04
 -1      1265 6.80341E+01 2.09472E+01-1.74059E+04
 -1      1266 5.61513E+01 1.92365E+00-1.76734E+04
 -1      1267 3.72286E+01-8.04446E+00-1.78680E+04
 -1      1268 1.67610E+01-7.81512E+00-1.79789E+04
 -1      1269-1.23276E+00 2.81491E+00-1.80070E+04
 -1      1270-1.21160E+01 2.59629E+01-1.79680E+04
 -1      1271 5.10590E+01 4.76905E+00-1.74605E+04
 -1      1272 5.26708E+01 5.68106E+00-1.75691E+04
 -1      1273 4.95305E+01-7.68124E-01-1.76753E+04
 -1      1274 4.28564E+01-5.46714E+00-1.77719E+04
 -1      1275 3.54197E+01-8.42111E+00-1.78536E+04
 -1      1276 2.70809E+01-9.36042E+00-1.79179E+04
 -1      1277 1.88058E+01-8.29116E+00-1.79649E+04
 -1      1278 1.14682E+01-5.23140E+00-1.79949E+04
 -1      1279 5.19297E+00-4.39689E-01-1.80106E+04
 -1      1280 2.52955E+00 6.23193E+00-1.80180E+04
 -1      1281 4.31266E+00 4.52718E+00-1.80232E+04
 -1      1282 4.39297E+01-2.67867E+00-1.74786E+04
 -1      1283 4.47395E+01-7.00684E+00-1.76687E+04
 -1      1284 3.38944E+01-1.16824E+01-1.78340E+04
 -1      1285 2.03768E+01-1.16466E+01-1.79455E+04
 -1      1286 9.84999E+00-7.24174E+00-1.80044E+04
 -1      1287 1.12499E+01-3.04378E+00-1.80401E+04
 -1      1288 4.04260E+01-1.26465E+01-1.74727E+04
 -1      1289 4.21624E+01-1.21941E+01-1.75592E+04
 -1      1290 4.16611E+01-1.42278E+01-1.76480E+04
 -1      1291 3.82801E+01-1.58600E+01-1.77313E+04
 -1      1292 3.30629E+01-1.67159E+01-1.78057E+04
 -1      1293 2.70658E+01-1.70475E+01-1.78676E+04
 -1      1294 2.11057E+01-1.68523E+01-1.79172E+04
 -1      1295 1.60129E+01-1.61549E+01-1.79544E+04
 -1      1296 1.27230E+01-1.47445E+01-1.79829E+04
 -1      1297 1.23502E+01-1.30492E+01-1.80062E+04
 -1      1298 1.42628E+01-1.34514E+01-1.80322E+04
 -1      1299 3.92893E+01-2.22132E+01-1.74403E+04
 -1      1300 4.05524E+01-2.23429E+01-1.76105E+04
 -1      1301 3.27035E+01-2.25632E+01-1.77653E+04
 -1      1302 2.12620E+01-2.28132E+01-1.78764E+04
 -1      1303 1.35274E+01-2.31564E+01-1.79439E+04
 -1      1304 1.49304E+01-2.33758E+01-1.79965E+04
 -1      1305 4.01295E+01-3.17850E+01-1.73820E+04
 -1      1306 4.18928E+01-3.22321E+01-1.74679E+04
 -1      1307 4.14084E+01-3.04525E+01-1.75561E+04
 -1      1308 3.80407E+01-2.90515E+01-1.76390E+04
 -1      1309 3.28468E+01-2.84064E+01-1.77129E+04
 -1      1310 2.68389E+01-2.82928E+01-1.77743E+04
 -1      1311 2.08313E+01-2.87341E+01-1.78234E+04
 -1      1312 1.56228E+01-2.97171E+01-1.78599E+04
 -1      1313 1.22754E+01-3.14908E+01-1.78875E+04
 -1      1314 1.18241E+01-3.36978E+01-1.79098E+04
 -1      1315 1.36268E+01-3.32562E+01-1.79344E+04
 -1      1316 4.33269E+01-4.17312E+01-1.72972E+04
 -1      1317 4.42278E+01-3.76633E+01-1.74849E+04
 -1      1318 3.34776E+01-3.34252E+01-1.76483E+04
 -1      1319 1.98372E+01-3.38026E+01-1.77581E+04
 -1      1320 8.99481E+00-3.88776E+01-1.78139E+04
 -1      1321 9.93974E+00-4.34428E+01-1.78451E+04
 -1      1322 5.01433E+01-4.91356E+01-1.71884E+04
 -1      1323 5.17492E+01-5.01720E+01-1.72951E+04
 -1      1324 4.87671E+01-4.39265E+01-1.73995E+04
 -1      1325 4.22443E+01-3.94248E+01-1.74947E+04
 -1      1326 3.48278E+01-3.66437E+01-1.75752E+04
 -1      1327 2.64753E+01-3.58430E+01-1.76384E+04
 -1      1328 1.80878E+01-3.70534E+01-1.76842E+04
 -1      1329 1.06220E+01-4.02912E+01-1.77125E+04
 -1      1330 3.96195E+00-4.52731E+01-1.77259E+04
 -1      1331 8.79292E-01-5.20161E+01-1.77298E+04
 -1      1332 2.53997E+00-5.10319E+01-1.77315E+04
 -1      1333 6.64442E+01-6.59047E+01-1.70436E+04
 -1      1334 5.50880E+01-4.66769E+01-1.73055E+04
 -1      1335 3.65444E+01-3.70097E+01-1.74970E+04
 -1      1336 1.59946E+01-3.74294E+01-1.76051E+04
 -1      1337-2.90665E+00-4.80621E+01-1.76291E+04
 -1      1338-1.47441E+01-6.80790E+01-1.75806E+04
 -1      1339 8.62567E+01-7.71828E+01-1.68785E+04
 -1      1340 7.23921E+01-6.10426E+01-1.70547E+04
 -1      1341 5.37783E+01-4.49990E+01-1.72094E+04
 -1      1342 4.62845E+01-3.82215E+01-1.73275E+04
 -1      1343 3.61214E+01-3.51495E+01-1.74214E+04
 -1      1344 2.62596E+01-3.43884E+01-1.74881E+04
 -1      1345 1.63753E+01-3.55590E+01-1.75286E+04
 -1      1346 6.08063E+00-3.90285E+01-1.75417E+04
 -1      1347-1.49449E+00-4.63208E+01-1.75303E+04
 -1      1348-2.13200E+01-6.32005E+01-1.74809E+04
 -1      1349-3.64739E+01-7.92667E+01-1.74091E+04
 -1      1350 1.11675E+02 3.62945E+01-1.73318E+04
 -1      1351 7.56840E+01 8.60998E-01-1.76685E+04
 -1      1352 4.94550E+01-1.31079E+01-1.78845E+04
 -1      1353 2.20188E+01-1.26520E+01-1.79946E+04
 -1      1354-3.65959E+00 2.17629E+00-1.80002E+04
 -1      1355-2.91090E+01 4.79679E+01-1.78897E+04
 -1      1356 6.81271E+01 9.43619E+00-1.74597E+04
 -1      1357 6.55963E+01-9.66568E-01-1.76745E+04
 -1      1358 4.68862E+01-1.09493E+01-1.78529E+04
 -1      1359 2.48024E+01-1.07690E+01-1.79642E+04
 -1      1360 6.82851E+00-4.92047E-01-1.80098E+04
 -1      1361 5.06779E+00 9.54312E+00-1.80223E+04
 -1      1362 5.34791E+01-1.59396E+01-1.74721E+04
 -1      1363 5.53002E+01-1.87591E+01-1.76473E+04
 -1      1364 4.37853E+01-2.20601E+01-1.78049E+04
 -1      1365 2.78679E+01-2.22359E+01-1.79164E+04
 -1      1366 1.66376E+01-1.94699E+01-1.79822E+04
 -1      1367 1.88453E+01-1.70619E+01-1.80316E+04
 -1      1368 5.30990E+01-4.27744E+01-1.73814E+04
 -1      1369 5.49627E+01-4.03332E+01-1.75554E+04
 -1      1370 4.34994E+01-3.76244E+01-1.77121E+04
 -1      1371 2.75004E+01-3.80544E+01-1.78225E+04
 -1      1372 1.60429E+01-4.17230E+01-1.78868E+04
 -1      1373 1.80061E+01-4.47969E+01-1.79338E+04
 -1      1374 6.69060E+01-6.80888E+01-1.71876E+04
 -1      1375 6.45815E+01-5.81620E+01-1.73987E+04
 -1      1376 4.61222E+01-4.86531E+01-1.75745E+04
 -1      1377 2.38771E+01-4.91994E+01-1.76835E+04
 -1      1378 5.15988E+00-5.99356E+01-1.77251E+04
 -1      1379 2.75683E+00-7.07337E+01-1.77306E+04
 -1      1380 1.06971E+02-9.65843E+01-1.68789E+04
 -1      1381 7.43732E+01-6.01079E+01-1.72086E+04
 -1      1382 4.84896E+01-4.65157E+01-1.74207E+04
 -1      1383 2.08722E+01-4.70447E+01-1.75280E+04
 -1      1384-5.43038E+00-6.18866E+01-1.75294E+04
 -1      1385-4.03628E+01-9.94483E+01-1.74095E+04
 -1      1386 1.35903E+02 4.46340E+01-1.73320E+04
 -1      1387 1.21684E+02 2.71896E+01-1.75096E+04
 -1      1388 9.69623E+01 1.00336E+00-1.76675E+04
 -1      1389 7.92241E+01-1.02028E+01-1.77884E+04
 -1      1390 6.24268E+01-1.61296E+01-1.78837E+04
 -1      1391 4.43116E+01-1.77334E+01-1.79522E+04
 -1      1392 2.64385E+01-1.55362E+01-1.79938E+04
 -1      1393 9.90966E+00-8.93630E+00-1.80091E+04
 -1      1394-7.30967E+00 2.55023E+00-1.79992E+04
 -1      1395-2.73371E+01 3.02911E+01-1.79534E+04
 -1      1396-3.61346E+01 5.60245E+01-1.78899E+04
 -1      1397 1.11843E+02 3.50300E+01-1.74043E+04
 -1      1398 9.35425E+01 2.75459E+00-1.76719E+04
 -1      1399 6.14844E+01-1.30344E+01-1.78664E+04
 -1      1400 2.73930E+01-1.25989E+01-1.79773E+04
 -1      1401-3.44812E+00 3.98327E+00-1.80056E+04
 -1      1402-1.98567E+01 4.06542E+01-1.79657E+04
 -1      1403 8.46069E+01 1.44807E+01-1.74587E+04
 -1      1404 8.60665E+01 1.07032E+01-1.75677E+04
 -1      1405 8.16451E+01-1.23640E+00-1.76735E+04
 -1      1406 7.09979E+01-8.85722E+00-1.77701E+04
 -1      1407 5.83077E+01-1.33592E+01-1.78520E+04
 -1      1408 4.45452E+01-1.47898E+01-1.79162E+04
 -1      1409 3.08351E+01-1.31429E+01-1.79633E+04
 -1      1410 1.85096E+01-8.39475E+00-1.79931E+04
 -1      1411 8.54547E+00-5.50417E-01-1.80088E+04
 -1      1412 4.54935E+00 1.13765E+01-1.80165E+04
 -1      1413 6.35765E+00 1.47273E+01-1.80212E+04
 -1      1414 7.32092E+01-2.57870E+00-1.74775E+04
 -1      1415 7.38177E+01-1.11548E+01-1.76669E+04
 -1      1416 5.59170E+01-1.92149E+01-1.78322E+04
 -1      1417 3.33488E+01-1.91801E+01-1.79438E+04
 -1      1418 1.60850E+01-1.14003E+01-1.80026E+04
 -1      1419 1.75292E+01-3.32537E+00-1.80390E+04
 -1      1420 6.67163E+01-1.88928E+01-1.74714E+04
 -1      1421 6.96133E+01-1.98681E+01-1.75576E+04
 -1      1422 6.90499E+01-2.33266E+01-1.76464E+04
 -1      1423 6.29777E+01-2.59280E+01-1.77296E+04
 -1      1424 5.45261E+01-2.73926E+01-1.78038E+04
 -1      1425 4.45412E+01-2.79624E+01-1.78657E+04
 -1      1426 3.46197E+01-2.76021E+01-1.79153E+04
 -1      1427 2.63447E+01-2.64393E+01-1.79527E+04
 -1      1428 2.04335E+01-2.42464E+01-1.79813E+04
 -1      1429 2.01230E+01-2.12342E+01-1.80045E+04
 -1      1430 2.32671E+01-2.03279E+01-1.80308E+04
 -1      1431 6.45886E+01-3.64786E+01-1.74392E+04
 -1      1432 6.73291E+01-3.67577E+01-1.76089E+04
 -1      1433 5.39057E+01-3.71266E+01-1.77634E+04
 -1      1434 3.49019E+01-3.75313E+01-1.78745E+04
 -1      1435 2.16419E+01-3.81137E+01-1.79423E+04
 -1      1436 2.46463E+01-3.86476E+01-1.79954E+04
 -1      1437 6.62391E+01-5.40845E+01-1.73807E+04
 -1      1438 6.91554E+01-5.32243E+01-1.74663E+04
 -1      1439 6.86294E+01-5.01804E+01-1.75545E+04
 -1      1440 6.25947E+01-4.79654E+01-1.76372E+04
 -1      1441 5.41709E+01-4.68562E+01-1.77110E+04
 -1      1442 4.41652E+01-4.66341E+01-1.77724E+04
 -1      1443 3.41532E+01-4.73913E+01-1.78215E+04
 -1      1444 2.57219E+01-4.90694E+01-1.78582E+04
 -1      1445 1.97040E+01-5.19123E+01-1.78859E+04
 -1      1446 1.92107E+01-5.56559E+01-1.79081E+04
 -1      1447 2.21982E+01-5.67142E+01-1.79330E+04
 -1      1448 7.21982E+01-7.03892E+01-1.72961E+04
 -1      1449 7.29717E+01-6.23604E+01-1.74832E+04
 -1      1450 5.52466E+01-5.49935E+01-1.76466E+04
 -1      1451 3.24910E+01-5.56121E+01-1.77564E+04
 -1      1452 1.46077E+01-6.43641E+01-1.78122E+04
 -1      1453 1.54010E+01-7.33974E+01-1.78440E+04
 -1      1454 8.31144E+01-8.73710E+01-1.71866E+04
 -1      1455 8.46312E+01-8.38239E+01-1.72937E+04
 -1      1456 8.03712E+01-7.23471E+01-1.73978E+04
 -1      1457 6.99505E+01-6.50270E+01-1.74930E+04
 -1      1458 5.73759E+01-6.07731E+01-1.75736E+04
 -1      1459 4.35645E+01-5.95792E+01-1.76367E+04
 -1      1460 2.97194E+01-6.14604E+01-1.76826E+04
 -1      1461 1.70068E+01-6.64391E+01-1.77107E+04
 -1      1462 6.38592E+00-7.45350E+01-1.77241E+04
 -1      1463 2.01436E+00-8.69389E+01-1.77284E+04
 -1      1464 3.56431E+00-9.08057E+01-1.77296E+04
 -1      1465 1.09277E+02-1.08521E+02-1.70419E+04
 -1      1466 9.18335E+01-7.63606E+01-1.73040E+04
 -1      1467 6.03449E+01-6.11055E+01-1.74954E+04
 -1      1468 2.60733E+01-6.17922E+01-1.76034E+04
 -1      1469-5.99403E+00-7.86324E+01-1.76277E+04
 -1      1470-2.41917E+01-1.12345E+02-1.75789E+04
 -1      1471 1.30910E+02-1.19099E+02-1.68790E+04
 -1      1472 1.18268E+02-1.00403E+02-1.70528E+04
 -1      1473 9.52245E+01-7.46849E+01-1.72075E+04
 -1      1474 7.78543E+01-6.38120E+01-1.73264E+04
 -1      1475 6.11971E+01-5.80467E+01-1.74199E+04
 -1      1476 4.31415E+01-5.64996E+01-1.74870E+04
 -1      1477 2.49949E+01-5.87025E+01-1.75272E+04
 -1      1478 8.15753E+00-6.51724E+01-1.75406E+04
 -1      1479-9.62347E+00-7.68969E+01-1.75283E+04
 -1      1480-3.39825E+01-1.03935E+02-1.74788E+04
 -1      1481-4.76548E+01-1.22866E+02-1.74097E+04
 -3
    1PSTEP                         2           1           1          
    1PGM                1.000000E+00                                  
    1PGK                2.417092E+10                                  
    1PHID                         -1                                  
    1PSUBC                         0                                  
    1PMODE                         1                                  
  100CL  101 24743.81753        1481                     2    1MODAL      1
 -4  STRESS      6    1
 -5  SXX         1    4    1    1
 -5  SYY         1    4    2    2
 -5  SZZ         1    4    3    3
 -5  SXY         1    4    1    2
 -5  SYZ         1    4    2    3
 -5  SZX         1    4    3    1
 -1         1 1.16556E+07 8.44316E+06 5.95775E+06 1.18021E+07-5.97642E+06-7.35178E+06
 -1         2 1.77181E+07 4.72153E+06-5.51214E+05 1.12222E+07 9.23630E+05-2.35766E+06
 -1         3 2.11836E+07 2.11669E+06 4.08615E+05 7.09942E+06-2.22409E+06-1.51814E+06
 -1         4 1.46041E+07-3.52116E+05 8.78236E+04 2.43185E+06-9.76703E+05-1.31971E+06
 -1         5 1.43594E+07-3.07307E+05-8.69662E+05 1.06940E+06 2.79018E+04 5.20811E+05
 -1         6 1.55146E+07 2.95988E+05 4.86048E+05-9.52576E+04-1.43542E+05 2.89313E+04
 -1         7 1.40882E+07-2.85773E+05-9.07489E+05-1.27423E+06 9.39944E+03-3.43863E+05
 -1         8 1.43236E+07-1.99211E+05 1.28025E+05-2.66750E+06-9.84808E+05 1.22253E+06
 -1         9 1.87551E+07 1.47631E+06-7.49254E+04-7.01649E+06-2.52842E+06 1.74280E+06
 -1        10 1.36007E+07 4.82396E+06-3.21082E+03-1.11720E+07 1.17069E+06 2.43643E+06
 -1        11 7.88814E+06 1.24765E+07 6.03500E+06-1.19659E+07-7.76514E+06 5.80140E+06
 -1        12 4.73911E+06 1.41141E+07-1.01033E+05 1.10684E+07-2.40062E+06 1.10799E+06
 -1        13 1.58345E+07 5.68085E+06 1.05408E+06 8.63317E+06-7.58190E+05-4.12161E+04
 -1        14 1.50259E+07 2.89193E+06-4.92458E+05 1.83223E+06 2.82432E+05 3.39609E+05
 -1        15 1.48142E+07 3.01078E+06-4.28659E+05-2.05092E+06 3.03610E+05-2.55830E+05
 -1        16 1.52262E+07 5.86072E+06 9.98029E+05-8.59408E+06-1.01452E+06-1.66340E+05
 -1        17 4.79148E+06 1.87114E+07-6.49969E+05-1.13857E+07-2.37362E+06-9.02837E+05
 -1        18 1.55747E+06 1.89075E+07 1.32124E+04 6.98360E+06-1.68465E+06-2.44130E+06
 -1        19 5.77324E+06 1.51224E+07 1.00024E+06 8.56028E+06 1.37945E+05-9.57542E+05
 -1        20 9.55585E+06 9.11298E+06-7.68950E+05 8.41587E+06-7.34894E+05-6.34999E+05
 -1        21 1.18813E+07 7.50447E+06-4.95598E+05 4.58743E+06-5.41257E+05 7.99876E+04
 -1        22 1.36814E+07 6.78507E+06 3.36792E+05 2.17415E+06-2.71306E+05-3.21609E+05
 -1        23 1.34773E+07 6.41780E+06 1.43632E+04-9.61522E+04-2.55173E+05-1.30520E+04
 -1        24 1.35769E+07 6.91634E+06 3.03031E+05-2.35847E+06-3.16260E+05 2.98935E+05
 -1        25 1.15467E+07 7.89266E+06-4.88364E+05-4.70447E+06-4.95670E+05 2.79472E+04
 -1        26 9.17230E+06 9.73245E+06-7.76156E+05-8.43378E+06-6.08745E+05 7.58995E+05
 -1        27 5.76027E+06 1.61742E+07 1.07699E+06-8.69194E+06-8.46192E+04 7.29731E+05
 -1        28 2.27615E+06 2.19336E+07 4.95820E+05-7.17104E+06-1.48861E+06 2.22272E+06
 -1        29-2.32732E+05 1.41524E+07 1.19002E+05 2.62677E+06-1.23746E+06-9.72784E+05
 -1        30 7.78662E+06 1.14340E+07-4.81950E+05 4.70897E+06-1.32674E+04-5.01742E+05
 -1        31 1.22780E+07 9.46560E+06 2.26086E+05 1.27343E+06 1.60979E+05-1.73183E+05
 -1        32 1.22024E+07 9.62523E+06 2.25550E+05-1.26718E+06 1.35255E+05 1.65180E+05
 -1        33 7.55625E+06 1.20453E+07-5.06069E+05-4.51902E+06 1.02786E+05 5.57396E+05
 -1        34-3.77504E+05 1.48162E+07 8.18109E+04-2.37455E+06-1.34859E+06 9.91119E+05
 -1        35-2.69588E+05 1.39316E+07-8.47651E+05 1.24913E+06 3.64780E+05 1.09811E+04
 -1        36 2.98102E+06 1.46177E+07-4.28993E+05 2.04320E+06 2.72989E+05 2.96248E+05
 -1        37 6.87774E+06 1.33713E+07 3.00046E+05 2.38049E+06-2.94550E+05-3.03244E+05
 -1        38 9.60551E+06 1.20375E+07 2.21836E+05 1.35994E+06-1.60638E+05 1.42158E+05
 -1        39 1.15157E+07 1.13222E+07-3.15150E+04 6.45006E+05-1.32060E+05-1.15762E+05
 -1        40 1.15280E+07 1.09987E+07-4.36049E+04 7.44310E+04-1.35657E+05 1.08787E+03
 -1        41 1.14347E+07 1.15116E+07-3.79044E+04-4.84810E+05-1.06506E+05 1.39473E+05
 -1        42 9.55024E+06 1.23429E+07 2.31582E+05-1.13454E+06-1.75373E+05-1.65741E+05
 -1        43 6.83934E+06 1.38047E+07 3.50170E+05-2.04324E+06-3.32809E+05 2.73659E+05
 -1        44 2.90340E+06 1.51836E+07-5.13235E+05-1.73056E+06 3.60702E+05-2.86989E+05
 -1        45-3.38980E+05 1.44914E+07-9.13647E+05-9.99421E+05 5.79137E+05-3.54996E+04
 -1        46 2.65291E+05 1.51523E+07 4.32192E+05 7.58424E+04-1.81066E+04-1.48696E+05
 -1        47 6.42972E+06 1.32184E+07 1.71021E+04 1.51051E+05-1.93009E+01-2.64262E+05
 -1        48 1.10858E+07 1.13638E+07-4.49267E+04 1.16526E+05-1.17253E+03-1.35204E+05
 -1        49 1.10670E+07 1.14979E+07-4.17355E+04 1.52299E+05-8.77088E+02 1.43045E+05
 -1        50 6.43871E+06 1.35640E+07 9.62905E+03 2.73055E+05-2.71291E+03 2.50258E+05
 -1        51 3.20615E+05 1.57028E+07 5.29659E+05 1.69919E+05 4.93609E+04 1.43167E+05
 -1        52-2.62175E+05 1.39674E+07-8.25745E+05-1.08848E+06-4.02034E+05 4.70703E+01
 -1        53 2.95817E+06 1.46236E+07-4.30404E+05-1.79396E+06-2.63746E+05 2.83840E+05
 -1        54 6.83115E+06 1.33413E+07 2.98356E+05-2.07982E+06 2.88169E+05-2.97804E+05
 -1        55 9.56899E+06 1.20128E+07 2.15219E+05-1.11377E+06 1.61614E+05 1.48348E+05
 -1        56 1.14961E+07 1.13044E+07-2.76773E+04-4.19173E+05 1.27648E+05-1.23781E+05
 -1        57 1.15580E+07 1.09334E+07-4.01216E+04 1.77358E+05 1.45761E+05-1.56192E+03
 -1        58 1.15310E+07 1.13914E+07-3.86992E+04 7.82610E+05 1.27590E+05 1.11877E+05
 -1        59 9.62514E+06 1.22179E+07 2.24895E+05 1.52095E+06 1.72898E+05-1.44394E+05
 -1        60 6.90412E+06 1.36480E+07 3.16721E+05 2.58252E+06 3.24469E+05 3.07764E+05
 -1        61 2.99616E+06 1.49377E+07-4.51167E+05 2.20153E+06-2.86291E+05-3.01029E+05
 -1        62-2.98949E+05 1.42160E+07-9.31369E+05 1.33972E+06-3.52938E+05-1.00181E+04
 -1        63-2.69608E+05 1.41009E+07 1.03720E+05-2.45564E+06 1.19693E+06-9.55727E+05
 -1        64 7.66601E+06 1.14357E+07-4.71672E+05-4.41321E+06-2.17483E+04-5.08868E+05
 -1        65 1.22551E+07 9.40784E+06 2.19562E+05-1.08253E+06-1.47792E+05-1.75795E+05
 -1        66 1.23245E+07 9.49456E+06 2.28865E+05 1.49507E+06-1.58929E+05 1.77836E+05
 -1        67 7.79950E+06 1.16609E+07-4.92843E+05 4.97447E+06 5.33736E+03 5.16788E+05
 -1        68-2.57190E+05 1.44479E+07 1.09024E+05 2.73026E+06 1.26869E+06 9.84313E+05
 -1        69 1.63244E+06 1.90860E+07 1.17772E+05-6.80424E+06 1.60717E+06-2.30606E+06
 -1        70 5.64738E+06 1.50171E+07 9.87864E+05-8.28242E+06-8.40236E+04-8.67962E+05
 -1        71 9.34673E+06 9.09971E+06-7.50562E+05-8.08829E+06 6.99998E+05-6.60191E+05
 -1        72 1.17343E+07 7.48165E+06-4.78550E+05-4.37521E+06 5.27278E+05 5.91467E+04
 -1        73 1.36366E+07 6.72474E+06 3.19218E+05-2.01468E+06 2.86066E+05-3.16774E+05
 -1        74 1.35291E+07 6.32957E+06 8.38747E+03 2.41141E+05 2.44522E+05 9.63538E+03
 -1        75 1.37337E+07 6.78929E+06 3.37309E+05 2.50597E+06 2.81284E+05 3.41887E+05
 -1        76 1.19037E+07 7.59324E+06-4.98483E+05 4.91976E+06 5.43985E+05-5.52436E+04
 -1        77 9.56420E+06 9.27769E+06-7.81887E+05 8.77653E+06 7.40748E+05 6.68121E+05
 -1        78 5.80352E+06 1.54213E+07 1.02215E+06 8.87743E+06-1.22333E+05 9.43088E+05
 -1        79 1.65848E+06 1.95354E+07 8.16060E+04 7.21404E+06 1.72722E+06 2.43517E+06
 -1        80 4.59509E+06 1.47093E+07-2.21440E+05-1.07920E+07 2.32074E+06 1.00509E+06
 -1        81 1.53742E+07 5.58017E+06 1.00618E+06-8.32169E+06 7.81959E+05-1.72707E+03
 -1        82 1.49355E+07 2.89412E+06-4.61071E+05-1.73177E+06-2.81059E+05 2.91442E+05
 -1        83 1.50440E+07 2.90322E+06-4.89111E+05 2.11092E+06-2.92953E+05-3.48011E+05
 -1        84 1.58727E+07 5.74526E+06 1.06058E+06 8.93095E+06 8.07826E+05-3.80546E+03
 -1        85 4.80495E+06 1.49222E+07-1.75140E+05 1.13373E+07 2.45510E+06-1.09437E+06
 -1        86 1.04811E+07 9.05348E+06 5.78697E+06-1.14721E+07 6.13169E+06-6.74214E+06
 -1        87 1.63363E+07 4.59330E+06-4.16526E+05-1.08660E+07-9.25236E+05-2.30507E+06
 -1        88 2.01452E+07 1.88003E+06 2.92391E+05-6.86741E+06 2.20829E+06-1.54842E+06
 -1        89 1.43957E+07-3.21304E+05 8.39037E+04-2.38311E+06 9.52208E+05-1.22162E+06
 -1        90 1.42457E+07-3.03348E+05-8.96407E+05-1.03274E+06-9.09667E+03 4.51424E+05
 -1        91 1.56231E+07 3.17747E+05 5.27095E+05 1.04247E+05 1.42586E+05 2.32742E+04
 -1        92 1.43414E+07-3.20347E+05-9.12446E+05 1.24666E+06-3.34736E+04-4.62493E+05
 -1        93 1.46404E+07-3.47832E+05 8.72024E+04 2.61085E+06 9.81989E+05 1.34307E+06
 -1        94 2.10533E+07 2.04159E+06 3.60476E+05 7.29644E+06 2.28823E+06 1.59822E+06
 -1        95 1.73681E+07 4.78826E+06-4.86866E+05 1.14426E+07-9.65062E+05 2.42511E+06
 -1        96 1.13315E+07 9.12826E+06 6.05853E+06 1.20171E+07 6.26590E+06 7.20972E+06
 -1        97 1.43630E+07 1.06171E+07 8.54557E+06 1.17963E+07-1.31552E+07-1.52175E+07
 -1        98 1.60513E+07 7.92209E+05-5.53251E+05 4.64845E+06-9.49022E+05-1.71345E+06
 -1        99 1.15997E+07-2.61945E+05-6.38718E+05 5.33878E+05-3.76433E+05-2.27665E+05
 -1       100 1.13727E+07-2.27620E+05-6.51980E+05-6.68592E+05-4.59979E+05 4.15742E+05
 -1       101 1.40168E+07 1.84605E+05-9.48630E+05-4.46186E+06-1.11878E+06 2.44320E+06
 -1       102 1.00341E+07 1.53840E+07 8.66208E+06-1.20101E+07-1.58989E+07 1.29570E+07
 -1       103 2.80101E+05 1.41649E+07-8.66899E+05 4.46879E+06-2.31065E+06-1.07539E+06
 -1       104 8.32182E+06 7.90516E+06-2.46204E+05 6.85329E+06-6.48287E+05-6.67710E+05
 -1       105 1.08523E+07 5.34383E+06 2.35688E+05 1.81239E+06-5.16400E+05-2.13253E+05
 -1       106 1.07859E+07 5.42320E+06 1.85085E+05-1.96487E+06-5.36790E+05 2.10874E+05
 -1       107 7.95457E+06 8.49106E+06-2.41306E+05-6.86831E+06-6.65281E+05 6.51182E+05
 -1       108 9.13955E+05 1.66474E+07-4.96727E+05-4.70914E+06-1.56631E+06 9.42789E+05
 -1       109-2.20808E+05 1.12345E+07-6.09858E+05 6.60241E+05-3.75997E+05-4.39837E+05
 -1       110 5.40238E+06 1.06222E+07 1.89620E+05 1.97982E+06-2.05663E+05-5.37829E+05
 -1       111 9.31723E+06 9.15609E+06 2.38785E+04 5.06557E+05-1.68451E+05-1.67645E+05
 -1       112 9.24725E+06 9.31630E+06 1.93167E+04-3.76460E+05-1.55098E+05 1.72364E+05
 -1       113 5.38450E+06 1.09426E+07 2.45637E+05-1.70692E+06-2.10458E+05 5.17756E+05
 -1       114-2.84106E+05 1.17225E+07-6.73221E+05-4.80527E+05-1.70874E+05 3.71900E+05
 -1       115-2.28298E+05 1.12515E+07-6.01420E+05-5.53523E+05 2.97677E+05-4.22737E+05
 -1       116 5.37622E+06 1.05985E+07 1.97081E+05-1.73594E+06 2.05932E+05-5.35864E+05
 -1       117 9.29797E+06 9.14375E+06 2.57943E+04-3.24034E+05 1.68963E+05-1.76598E+05
 -1       118 9.32984E+06 9.21487E+06 1.88046E+04 6.16036E+05 1.74296E+05 1.57303E+05
 -1       119 5.41880E+06 1.08374E+07 2.01422E+05 2.14456E+06 2.22889E+05 5.31707E+05
 -1       120-2.44941E+05 1.14834E+07-6.73739E+05 7.15153E+05 4.63389E+05 4.45530E+05
 -1       121 3.86507E+05 1.43467E+07-7.62634E+05-4.39115E+06 2.11554E+06-1.01130E+06
 -1       122 8.11088E+06 7.88681E+06-2.47030E+05-6.58469E+06 6.58239E+05-6.75376E+05
 -1       123 1.08253E+07 5.29125E+06 2.16193E+05-1.68359E+06 5.17445E+05-2.20607E+05
 -1       124 1.08940E+07 5.33876E+06 2.28226E+05 2.07874E+06 5.20252E+05 2.16157E+05
 -1       125 8.32292E+06 8.05181E+06-2.51811E+05 7.14241E+06 6.73817E+05 6.76867E+05
 -1       126 3.65250E+05 1.46729E+07-8.28641E+05 4.65171E+06 2.32156E+06 1.05842E+06
 -1       127 1.28776E+07 1.12123E+07 8.29330E+06-1.13886E+07 1.32723E+07-1.41908E+07
 -1       128 1.52297E+07 6.16978E+05-6.23207E+05-4.48166E+06 9.51291E+05-1.86646E+06
 -1       129 1.15040E+07-2.59183E+05-6.58930E+05-5.10897E+05 4.00367E+05-2.85930E+05
 -1       130 1.16007E+07-2.62362E+05-6.63837E+05 6.55997E+05 3.94970E+05 3.49879E+05
 -1       131 1.59292E+07 7.14958E+05-6.07667E+05 4.77489E+06 9.71749E+05 1.89556E+06
 -1       132 1.39353E+07 1.13660E+07 8.69107E+06 1.19392E+07 1.36713E+07 1.50826E+07
 -1       133 2.51329E+07 2.07174E+07 2.71814E+07 1.30608E+07-3.81109E+07-4.34261E+07
 -1       134 1.66264E+07 4.74130E+06-3.37048E+05 8.43561E+06-3.24610E+06-9.02250E+06
 -1       135 1.24025E+07 2.91949E+05 6.50902E+05 2.48256E+06-2.15248E+06-5.10477E+06
 -1       136 5.92991E+06-2.63610E+06-3.19373E+06 6.63210E+05 1.01191E+05-2.13757E+06
 -1       137 9.91549E+06 7.80545E+05 2.01516E+06 2.00965E+03-1.35399E+06-1.98600E+06
 -1       138 8.72934E+06 2.80825E+05 1.17881E+06-1.57568E+04-1.04676E+06 4.64488E+04
 -1       139 9.63088E+06 7.11418E+05 1.63811E+06-6.28015E+04-1.77668E+06 2.05924E+06
 -1       140 6.00573E+06-2.47951E+06-2.88546E+06-8.81200E+05 4.28391E+05 2.62609E+06
 -1       141 1.03627E+07-6.87519E+05-4.88673E+05-2.26127E+06-2.42624E+06 5.99296E+06
 -1       142 1.23212E+07 5.20646E+06 1.12992E+06-8.34082E+06-3.84894E+06 9.42486E+06
 -1       143 2.02063E+07 2.65127E+07 2.75747E+07-1.33461E+07-4.53726E+07 3.77938E+07
 -1       144 5.03314E+06 1.28425E+07 8.64605E+05 8.23499E+06-9.27757E+06-3.71271E+06
 -1       145 9.90320E+06 4.18407E+06 3.59518E+06 4.47721E+06-2.28222E+06-3.30981E+06
 -1       146 9.69222E+06 2.04974E+06-8.62227E+04 9.10263E+05-9.09782E+04 2.66662E+05
 -1       147 9.47713E+06 2.08627E+06-8.01065E+04-1.04413E+06-5.49933E+04-1.45376E+05
 -1       148 9.86829E+06 4.40374E+06 3.38157E+06-4.24295E+06-3.12758E+06 2.93148E+06
 -1       149 4.78472E+06 1.77002E+07-5.88810E+05-8.62399E+06-9.05053E+06 3.18785E+06
 -1       150-5.21388E+05 1.05531E+07-3.08712E+05 2.29372E+06-5.80095E+06-2.34366E+06
 -1       151 4.32409E+06 9.74519E+06 3.37725E+06 4.27206E+06-2.93763E+06-2.92979E+06
 -1       152 5.40797E+06 5.02491E+06-3.63466E+06 5.32002E+06 1.48033E+06 1.72762E+06
 -1       153 7.08302E+06 4.55835E+06-6.81179E+05 3.06314E+06-3.81043E+05 6.16663E+05
 -1       154 8.04831E+06 3.96202E+06 2.10831E+05 1.46282E+06-9.26404E+05-7.01655E+05
 -1       155 8.32916E+06 4.00527E+06 5.23015E+05-6.46842E+04-1.19233E+06-2.62383E+04
 -1       156 8.03302E+06 4.01935E+06 2.15083E+05-1.58887E+06-1.01837E+06 6.94139E+05
 -1       157 6.92819E+06 4.84949E+06-7.69367E+05-3.06879E+06-3.47342E+05-5.15801E+05
 -1       158 5.03325E+06 5.53599E+06-3.69541E+06-5.33129E+06 1.85054E+06-1.48352E+06
 -1       159 4.22501E+06 1.00530E+07 3.69970E+06-4.53237E+06-3.43888E+06 2.21019E+06
 -1       160 4.59335E+05 1.29421E+07 8.61111E+05-2.52307E+06-4.96765E+06 2.16146E+06
 -1       161-2.46532E+06 5.90718E+06-2.87323E+06 8.49115E+05-2.53632E+06 3.66424E+05
 -1       162 4.77549E+06 6.84969E+06-7.43261E+05 3.08061E+06 5.24397E+05-3.70379E+05
 -1       163 7.30396E+06 5.56530E+06-1.88969E+04 7.77591E+05-5.51095E+04-2.13287E+05
 -1       164 7.27300E+06 5.66479E+06-3.68858E+04-7.57971E+05-7.73646E+04 2.07735E+05
 -1       165 4.58006E+06 7.17273E+06-6.76982E+05-3.03666E+06 6.62074E+05 3.85628E+05
 -1       166-2.72306E+06 5.94678E+06-3.32874E+06-6.10105E+05-2.02989E+06-4.39395E+04
 -1       167 7.16797E+05 9.51621E+06 1.71155E+06 7.05291E+04-2.00195E+06-1.66531E+06
 -1       168 2.06535E+06 9.35148E+06-1.00413E+05 1.04132E+06 1.56259E+05-7.64020E+04
 -1       169 4.01487E+06 7.91509E+06 2.26486E+05 1.59542E+06-6.64622E+05-1.00684E+06
 -1       170 5.65527E+06 7.17470E+06-2.88877E+04 8.17908E+05-1.99731E+05-8.43523E+04
 -1       171 7.20055E+06 7.07373E+06 1.99882E+05 3.58249E+05-2.68069E+05-2.74488E+05
 -1       172 7.00589E+06 6.78749E+06 8.33366E+04 4.80598E+04-1.88910E+05-1.34796E+04
 -1       173 7.14800E+06 7.20643E+06 2.05939E+05-2.58470E+05-2.54299E+05 2.67375E+05
 -1       174 5.61024E+06 7.33499E+06-2.28705E+04-6.96243E+05-2.00678E+05 4.70307E+04
 -1       175 3.98836E+06 8.10528E+06 2.13297E+05-1.38196E+06-7.08400E+05 9.36412E+05
 -1       176 2.07422E+06 9.82219E+06-7.70810E+04-8.46749E+05 3.20310E+05 7.19515E+04
 -1       177 8.16193E+05 1.00740E+07 2.11617E+06 3.28627E+04-1.97417E+06 1.33179E+06
 -1       178 2.49244E+05 8.51287E+06 1.10284E+06 2.77276E+04-6.64519E+04-1.06505E+06
 -1       179 3.99988E+06 8.15719E+06 5.05004E+05 9.42421E+04 3.66992E+03-1.20740E+06
 -1       180 6.84334E+06 6.90830E+06 8.36365E+04 7.08871E+04 2.57623E+03-2.07042E+05
 -1       181 6.82493E+06 6.98446E+06 8.37739E+04 9.06797E+04 1.07065E+02 1.90121E+05
 -1       182 4.02937E+06 8.39342E+06 5.27374E+05 1.73228E+05-1.59582E+04 1.17794E+06
 -1       183 2.94182E+05 8.84345E+06 1.22717E+06 5.04952E+04 1.30100E+05 1.02055E+06
 -1       184 6.81910E+05 9.50239E+06 1.69765E+06-1.58065E+04 1.87235E+06-1.53753E+06
 -1       185 2.05450E+06 9.36362E+06-8.48259E+04-9.01082E+05-1.68105E+05-9.94410E+04
 -1       186 3.99114E+06 7.88519E+06 2.02250E+05-1.40609E+06 6.67428E+05-9.71405E+05
 -1       187 5.63822E+06 7.16225E+06-2.17722E+04-6.71110E+05 2.11415E+05-7.94260E+04
 -1       188 7.18170E+06 7.06391E+06 1.96905E+05-2.19786E+05 2.70905E+05-2.84265E+05
 -1       189 7.01742E+06 6.74156E+06 8.19933E+04 1.07419E+05 2.03983E+05-1.33461E+04
 -1       190 7.21455E+06 7.12544E+06 2.04711E+05 4.39395E+05 2.74020E+05 2.55145E+05
 -1       191 5.66452E+06 7.27757E+06-3.45232E+04 9.16453E+05 2.20901E+05 6.65879E+04
 -1       192 4.00911E+06 8.05414E+06 2.00437E+05 1.72405E+06 7.20682E+05 9.91300E+05
 -1       193 2.09175E+06 9.58554E+06-6.38034E+04 1.12601E+06-1.53529E+05 5.75549E+04
 -1       194 7.13770E+05 9.74580E+06 1.69688E+06 9.75486E+04 2.21190E+06 1.66780E+06
 -1       195-2.43991E+06 5.89017E+06-2.86087E+06-7.59320E+05 2.32806E+06 2.61768E+05
 -1       196 4.68512E+06 6.84065E+06-7.06962E+05-2.90607E+06-5.20066E+05-4.00907E+05
 -1       197 7.29684E+06 5.53679E+06-2.62437E+04-6.56806E+05 6.74085E+04-2.33041E+05
 -1       198 7.33218E+06 5.58139E+06-2.69357E+04 9.10690E+05 6.45622E+04 1.99574E+05
 -1       199 4.77013E+06 6.98438E+06-7.46577E+05 3.25219E+06-5.30941E+05 3.67682E+05
 -1       200-2.52877E+06 6.01073E+06-2.98677E+06 8.76036E+05 2.63199E+06-3.09460E+05
 -1       201-3.06285E+05 1.07994E+07-5.35148E+04-2.29351E+06 5.46393E+06-2.21297E+06
 -1       202 4.20300E+06 9.59662E+06 3.32466E+06-4.18179E+06 2.93920E+06-2.64170E+06
 -1       203 5.26174E+06 5.06319E+06-3.50128E+06-5.11048E+06-1.43497E+06 1.53218E+06
 -1       204 7.00695E+06 4.54946E+06-6.83499E+05-2.90694E+06 3.99567E+05 5.50741E+05
 -1       205 8.03195E+06 3.91459E+06 1.84925E+05-1.36515E+06 9.37199E+05-7.13437E+05
 -1       206 8.36866E+06 3.96406E+06 5.13715E+05 1.46840E+05 1.15535E+06 4.96736E+02
 -1       207 8.08505E+06 3.95724E+06 2.17931E+05 1.66656E+06 9.62016E+05 6.99637E+05
 -1       208 7.10034E+06 4.61450E+06-6.98248E+05 3.25764E+06 3.91649E+05-6.12464E+05
 -1       209 5.38829E+06 5.13676E+06-3.66876E+06 5.54124E+06-1.51392E+06-1.69088E+06
 -1       210 4.34075E+06 9.89571E+06 3.44805E+06 4.47950E+06 3.03465E+06 2.83593E+06
 -1       211-3.75619E+05 1.10235E+07-1.23272E+05 2.42717E+06 5.86130E+06 2.29800E+06
 -1       212 4.76032E+06 1.34025E+07 5.33073E+05-7.99499E+06 8.96827E+06-3.51792E+06
 -1       213 9.69148E+06 4.12499E+06 3.41226E+06-4.27753E+06 2.35505E+06-3.12341E+06
 -1       214 9.61076E+06 2.04221E+06-4.91091E+04-8.59289E+05 7.42302E+04 2.09363E+05
 -1       215 9.69983E+06 2.05902E+06-7.78658E+04 1.06698E+06 6.17160E+04-2.44395E+05
 -1       216 9.98328E+06 4.25007E+06 3.60486E+06 4.62132E+06 2.39974E+06 3.27067E+06
 -1       217 5.03331E+06 1.36038E+07 6.94325E+05 8.38248E+06 9.45604E+06 3.69432E+06
 -1       218 2.30475E+07 2.10836E+07 2.63491E+07-1.25362E+07 3.81054E+07-4.04752E+07
 -1       219 1.51006E+07 4.63260E+06-7.19269E+02-8.08658E+06 3.30409E+06-8.86406E+06
 -1       220 1.16690E+07 7.07790E+04 3.99304E+05-2.38633E+06 2.10356E+06-5.16339E+06
 -1       221 5.95170E+06-2.52029E+06-3.02571E+06-6.84003E+05-1.29252E+05-2.18541E+06
 -1       222 9.76968E+06 7.07162E+05 1.78209E+06 6.58051E+03 1.43168E+06-1.96532E+06
 -1       223 8.80947E+06 2.84766E+05 1.20441E+06 4.83075E+04 9.89416E+05 1.08652E+05
 -1       224 9.92896E+06 7.86007E+05 1.96576E+06 7.61996E+04 1.44079E+06 2.17541E+06
 -1       225 5.96422E+06-2.63879E+06-3.18564E+06 7.55249E+05-1.30632E+05 2.36031E+06
 -1       226 1.22491E+07 1.66720E+05 5.09566E+05 2.55394E+06 2.16871E+06 5.36804E+06
 -1       227 1.61833E+07 4.83283E+06-1.30311E+05 8.51868E+06 3.37563E+06 9.27864E+06
 -1       228 2.46895E+07 2.16613E+07 2.76042E+07 1.31522E+07 3.93811E+07 4.30126E+07
 -1       229 8.04021E+07 7.21618E+07 5.68316E+07 3.64053E+07-6.73356E+07-7.59719E+07
 -1       230 3.55413E+06-4.43311E+06 1.95566E+06-2.03553E+06-1.52237E+06-5.30130E+06
 -1       231 7.09027E+06 2.45086E+06 3.67594E+06 2.03377E+05-2.86488E+06-3.83354E+06
 -1       232 7.22171E+06 2.98191E+06 3.23075E+06 1.43091E+03-3.54319E+06 3.84560E+06
 -1       233 2.02676E+06-6.54985E+06 1.24205E+05 2.22010E+06-1.82334E+06 6.32213E+06
 -1       234 7.20760E+07 8.38364E+07 5.77384E+07-3.72786E+07-7.93200E+07 6.70120E+07
 -1       235-6.07393E+06 2.27990E+06 3.93826E+05-2.11408E+06-6.12569E+06-1.75046E+06
 -1       236 6.15488E+06 5.50429E+06-5.65497E+06 5.32978E+06 2.38533E+06 2.95167E+06
 -1       237 5.32032E+06 2.46917E+06 3.18821E+05 7.82199E+05-9.91056E+05-9.76184E+05
 -1       238 5.34753E+06 2.37553E+06 3.44832E+05-9.00342E+05-1.16630E+06 9.36287E+05
 -1       239 5.49586E+06 6.39445E+06-5.74918E+06-5.38166E+06 3.18276E+06-2.35773E+06
 -1       240-4.23054E+06 3.79728E+06 2.31958E+06 2.11166E+06-5.11552E+06 1.50018E+06
 -1       241 2.81799E+06 7.06512E+06 3.28758E+06 2.75937E+04-3.75146E+06-3.36150E+06
 -1       242 2.41780E+06 5.26374E+06 3.65661E+05 9.06636E+05-8.94260E+05-1.13384E+06
 -1       243 4.82265E+06 4.73136E+06 1.40266E+05 1.87690E+05-4.04736E+05-4.10776E+05
 -1       244 4.78234E+06 4.82997E+06 1.51760E+05-1.17312E+05-3.82368E+05 4.04265E+05
 -1       245 2.47685E+06 5.34458E+06 3.20061E+05-7.18106E+05-9.99029E+05 1.00207E+06
 -1       246 2.50149E+06 7.18361E+06 3.83890E+06-2.36658E+05-3.86349E+06 2.85586E+06
 -1       247 2.54721E+06 6.95055E+06 3.22899E+06-5.20086E+04 3.57145E+06-3.10357E+06
 -1       248 2.44799E+06 5.24055E+06 3.15577E+05-7.73211E+05 9.04256E+05-1.07951E+06
 -1       249 4.80973E+06 4.73307E+06 1.40399E+05-9.53318E+04 4.04778E+05-4.17307E+05
 -1       250 4.83706E+06 4.77134E+06 1.52658E+05 2.40493E+05 4.06077E+05 3.80308E+05
 -1       251 2.39470E+06 5.35272E+06 3.07476E+05 9.80168E+05 9.92040E+05 1.12348E+06
 -1       252 2.81992E+06 7.21958E+06 3.31141E+06 1.11179E+05 4.05350E+06 3.33684E+06
 -1       253-5.38909E+06 2.66046E+06 7.71109E+05 1.96773E+06 5.76306E+06-1.65441E+06
 -1       254 5.83635E+06 5.53667E+06-5.43954E+06-5.11399E+06-2.37477E+06 2.61148E+06
 -1       255 5.32304E+06 2.39409E+06 2.70633E+05-7.28690E+05 1.03574E+06-9.93857E+05
 -1       256 5.34546E+06 2.41684E+06 3.29616E+05 9.26342E+05 1.05765E+06 9.83119E+05
 -1       257 6.09134E+06 5.65368E+06-5.70428E+06 5.48873E+06-2.47726E+06-2.87331E+06
 -1       258-5.83987E+06 2.57094E+06 6.90266E+05-2.06072E+06 6.19634E+06 1.69618E+06
 -1       259 7.50546E+07 7.13917E+07 5.50082E+07-3.48527E+07 6.69983E+07-7.08501E+07
 -1       260 3.25870E+06-4.67039E+06 1.50465E+06 1.93773E+06 1.51431E+06-5.40079E+06
 -1       261 7.06604E+06 2.47602E+06 3.36443E+06-1.60068E+05 2.92725E+06-3.73507E+06
 -1       262 7.19393E+06 2.63308E+06 3.64998E+06 2.30839E+05 3.00644E+06 4.05299E+06
 -1       263 3.40655E+06-4.74373E+06 1.71658E+06-2.00731E+06 1.53255E+06 5.62280E+06
 -1       264 7.97094E+07 7.40706E+07 5.76433E+07 3.65975E+07 6.93572E+07 7.52496E+07
 -1       265-4.77370E+07-1.22752E+08-4.77370E+07-8.70429E+06 2.17278E+07-6.42193E+01
 -1       266-5.93435E+07-1.52597E+08-5.93435E+07-3.37896E+06-7.33577E+06 5.38091E+01
 -1       267-6.61448E+07-1.70086E+08-6.61448E+07 7.53412E+05-8.05876E+06-6.42290E+01
 -1       268-6.32138E+07-1.62549E+08-6.32138E+07 1.75242E+05-1.67861E+07 5.11988E+01
 -1       269-5.54624E+07-1.42617E+08-5.54624E+07 9.17894E+05-6.66623E+06 4.86504E+01
 -1       270-4.66125E+07-1.19861E+08-4.66125E+07 1.86524E+06-8.11848E+06-1.21895E+02
 -1       271-3.83074E+07-9.85048E+07-3.83075E+07 1.53164E+06-1.12680E+07 6.79446E+01
 -1       272-3.73026E+07-9.59210E+07-3.73027E+07-1.14076E+06 1.01578E+07 2.31624E+01
 -1       273-4.51312E+07-1.16052E+08-4.51313E+07-2.83968E+06-5.52448E+06-5.51941E+01
 -1       274-5.67618E+07-1.45959E+08-5.67619E+07-1.30399E+06-1.22547E+07 7.16806E+01
 -1       275-6.52742E+07-1.67848E+08-6.52743E+07 5.51010E+04-2.29414E+06-2.74834E+01
 -1       276-6.95686E+07-1.78890E+08-6.95686E+07-5.47201E+05-1.34353E+07-1.05286E+01
 -1       277-7.02267E+07-1.80583E+08-7.02267E+07-4.78811E+05-9.80463E+06 6.03738E+01
 -1       278-6.12036E+07-1.57380E+08-6.12036E+07 3.79321E+06-6.72683E+06-7.60240E+01
 -1       279-4.91502E+07-1.26386E+08-4.91503E+07 8.48623E+06 2.24617E+07 6.80859E+01
 -1       280-2.25424E+07-1.16567E+08-2.00458E+07-1.95581E+07 1.64651E+06 5.14116E+06
 -1       281-4.06606E+07-1.38720E+08-2.65313E+07-1.16688E+06-1.36357E+05-2.65995E+06
 -1       282-3.57136E+07-1.22344E+08-2.44075E+07 1.45289E+07-1.51012E+06 1.25286E+06
 -1       283-3.66659E+07-8.43926E+07-1.20604E+07 1.02633E+07 2.12004E+06 3.48934E+06
 -1       284-3.48508E+07-1.03919E+08-1.32657E+07-2.01147E+07 4.52502E+05-4.01320E+06
 -1       285-4.46458E+07-1.45106E+08-2.71544E+07-8.83421E+06-1.47982E+06-1.60905E+05
 -1       286-4.19714E+07-1.49748E+08-2.88264E+07 4.82478E+06 6.18429E+05 5.73525E+05
 -1       287-2.66458E+07-1.20088E+08-2.06907E+07 2.01998E+07 4.38109E+06-4.05660E+06
 -1       288 1.22583E+07-8.87463E+07 1.63929E+07-2.36153E+07-8.07076E+06 6.11251E+06
 -1       289 5.84299E+06-9.19442E+07 1.84917E+07-1.22710E+07-5.53905E+06-3.92681E+06
 -1       290-5.32013E+06-9.69030E+07 1.87681E+07-4.11419E+05-8.29236E+06 2.79865E+06
 -1       291 2.99730E+05-8.78672E+07 1.90250E+07 1.38406E+07-6.12732E+06 6.75437E+06
 -1       292-4.11268E+06-8.02332E+07 1.60804E+07 2.63544E+07-1.24330E+07-3.28587E+06
 -1       293-2.08290E+07-7.16267E+07 1.57971E+07 2.68075E+07-9.13776E+06 1.91249E+06
 -1       294-3.79303E+07-6.85349E+07 1.38619E+07 2.32308E+07-4.33969E+06 3.05973E+06
 -1       295-6.07564E+07-8.34338E+07 7.05284E+06-1.23920E+07-1.82242E+07-5.66461E+06
 -1       296-2.47636E+07-1.01380E+08 1.58598E+07-3.55892E+07-9.17375E+06-7.62258E+05
 -1       297-6.87459E+06-9.99888E+07 2.16444E+07-2.65244E+07-5.01117E+06-4.70714E+06
 -1       298-1.03877E+07-1.04954E+08 1.96566E+07-1.74085E+07-6.12053E+06 2.16018E+05
 -1       299-8.56005E+06-1.07112E+08 1.84433E+07-3.97950E+06-7.93794E+06 1.43666E+06
 -1       300-1.46476E+06-1.00323E+08 2.12098E+07 8.19052E+06-9.55954E+06-4.29599E+06
 -1       301 2.15892E+06-9.62847E+07 1.88947E+07 1.80897E+07-7.85218E+06 1.85577E+06
 -1       302 5.24308E+06-9.08830E+07 1.68104E+07 2.74829E+07-3.39683E+06-2.32228E+06
 -1       303 2.26453E+07-4.83792E+07 2.77378E+06-3.61580E+07 1.79258E+07-1.11797E+07
 -1       304 3.08423E+07-9.16432E+07 6.62580E+06-1.48533E+06 3.72737E+06 3.11844E+06
 -1       305-3.22156E+06-4.84559E+07 3.41302E+06 3.70845E+07 8.51142E+06 9.32578E+06
 -1       306-1.14820E+07-4.28340E+07 1.08727E+07 2.59439E+07 7.59118E+06-8.64383E+06
 -1       307-6.39684E+06-8.17199E+07 3.35408E+06-2.97098E+07 1.45926E+07-2.10350E+06
 -1       308 8.29070E+06-9.44031E+07 4.61838E+06-1.98190E+07 1.39418E+06-7.90202E+05
 -1       309 1.67240E+07-7.58528E+07 1.12929E+07 1.56796E+07 3.72838E+06-7.63621E+04
 -1       310 2.12751E+07-5.64163E+07 1.55358E+06 3.44341E+07 1.22056E+07 3.37901E+06
 -1       311 4.27141E+07 3.40311E+07-1.00412E+07-1.28101E+07-2.39732E+07-1.16142E+07
 -1       312 5.92095E+07 3.76138E+07 2.42016E+06-2.61963E+07-5.57808E+06 8.10782E+06
 -1       313 5.87239E+07 1.30117E+07 2.23505E+06-4.69206E+07-3.07755E+06-4.36334E+06
 -1       314 6.68502E+07-3.05818E+07 1.18447E+06-5.15724E+07-1.34202E+07 3.55831E+06
 -1       315 8.23944E+07-7.56434E+07 1.79981E+06-3.11700E+07-1.82464E+07 3.16125E+05
 -1       316 5.51904E+07-5.18058E+07-1.06347E+06 4.20445E+07-1.17993E+07 1.43793E+07
 -1       317-1.32780E+07-3.81640E+07-1.83355E+07 5.10221E+07-1.16334E+07 1.58528E+07
 -1       318-3.26520E+07-4.02176E+07-1.81243E+07 3.10986E+07-1.71360E+07 5.35788E+06
 -1       319-2.28662E+07-3.75969E+07-8.43946E+06 1.80210E+07-6.51748E+05 1.01349E+07
 -1       320 4.30715E+06-4.60048E+07-6.80179E+06-3.46975E+07-1.24636E+07-1.26891E+07
 -1       321 1.03636E+07-6.68396E+07-1.06228E+07-3.52037E+07-2.33454E+07-7.77389E+06
 -1       322 3.31872E+07-9.05556E+07-1.05557E+07-1.56968E+07-1.01324E+07-3.89832E+06
 -1       323 3.95591E+07-6.84437E+07-2.34016E+06 7.98410E+06-6.40470E+06-2.65917E+06
 -1       324 3.89647E+07-4.96053E+07 3.00820E+06 2.78975E+07-5.79168E+06 3.06032E+06
 -1       325 4.27261E+07-3.11358E+07-2.76254E+06 3.48752E+07-9.03690E+06-1.76700E+06
 -1       326 5.41176E+07-4.75232E+06-4.18093E+06 4.19760E+07-6.31417E+06 4.37670E+06
 -1       327 5.74685E+07 3.25594E+07 4.56495E+05 2.59618E+07-1.15298E+07-1.21369E+07
 -1       328 3.58889E+07 4.58934E+07-8.60037E+06 1.36003E+07-9.83168E+06 2.32852E+07
 -1       329 3.26937E+07 5.66048E+07 6.30798E+05-2.51894E+07 1.17085E+07-1.03151E+07
 -1       330 4.65211E+07 1.82681E+07-8.06790E+05-6.19829E+07-9.80973E+06-8.83495E+05
 -1       331 8.09830E+06-2.99970E+07-2.53255E+07-8.89731E+07-2.63091E+07 1.64126E+07
 -1       332 4.30299E+07-5.45123E+07 4.55072E+05 6.18616E+06 6.07191E+05-2.10466E+07
 -1       333 6.33487E+07-3.39776E+07-1.50846E+07 4.42382E+07-2.40430E+06-3.66381E+06
 -1       334 5.89405E+07 2.36589E+07 3.75916E+06 6.11879E+07 1.68839E+06 1.20496E+06
 -1       335 3.96849E+07 6.22864E+07 2.51812E+06 2.93742E+07 7.73545E+06 6.59385E+06
 -1       336-1.20113E+08-4.67106E+07-4.67106E+07-8.20097E+06-6.55678E+01 2.19496E+07
 -1       337-1.14615E+08-2.52769E+07-1.96480E+07-1.98663E+07 3.98028E+06 4.32340E+06
 -1       338-8.73456E+07 5.01210E+06 1.59903E+07-2.70712E+07 2.24256E+06-2.89614E+06
 -1       339-5.43133E+07 1.99229E+07 1.28463E+06-3.38807E+07-3.25731E+06 1.18391E+07
 -1       340-4.22652E+06 5.20935E+07-3.81298E+06-4.15245E+07-4.03150E+06-6.38500E+06
 -1       341 2.28873E+07 5.59807E+07 3.45287E+06-6.09526E+07-1.00670E+06 1.92359E+06
 -1       342 5.85927E+07 5.90107E+07 1.28843E+07-7.86299E+07 1.17073E+07 2.20176E+07
 -1       343 2.93106E+07 5.27547E+07-6.19262E+06-7.75554E+07-3.55069E+07-2.34950E+07
 -1       344-3.09810E+06 9.82714E+07-1.16487E+07-7.30929E+07-1.80607E+07-4.19483E+06
 -1       345 5.41055E+07-2.39655E+07 1.02719E+07 6.77403E+06-1.67052E+07-2.33306E+07
 -1       346 1.00118E+08-1.48168E+07-1.50169E+06 2.15319E+07-1.18230E+07 1.20652E+07
 -1       347 1.03451E+08 3.54812E+07-1.37037E+07 6.91495E+07-1.58147E+07 5.35958E+06
 -1       348 8.55852E+07 4.21754E+07-8.96386E+05 8.08875E+07-3.03827E+07 6.94288E+06
 -1       349 6.35573E+07 6.08692E+07 1.41053E+07 7.88045E+07 2.27117E+07-1.08743E+07
 -1       350 2.25693E+07 4.70397E+07-1.16066E+06 6.43838E+07-2.52947E+05 8.99174E+06
 -1       351 1.55514E+07 5.68278E+07-3.02073E+05 5.18017E+07-5.14784E+06 2.53286E+06
 -1       352-4.39167E+07 2.55551E+07 5.21725E+06 3.76427E+07-8.72908E+06-1.83814E+07
 -1       353-9.26704E+07 1.33726E+07 1.90819E+07 2.41992E+07 4.47128E+06 1.02955E+07
 -1       354-1.27197E+08-2.62727E+07-2.23290E+07 2.07926E+07 3.36749E+06-2.67753E+06
 -1       355-1.32675E+08-5.15960E+07-5.15961E+07 9.08919E+06-9.19580E+01-2.46971E+07
 -1       356-1.50822E+08-5.86532E+07-5.86533E+07-3.66965E+06 7.32957E+01-6.22632E+06
 -1       357-9.26666E+07 1.98623E+06 1.81876E+07-1.82856E+07-1.80724E+06-7.54052E+06
 -1       358-3.04220E+07 4.03224E+07-2.82503E+06-3.47650E+07 1.70662E+06-9.00803E+06
 -1       359 3.97715E+07 8.30341E+07-8.17658E+05-7.95538E+07-7.52346E+06-2.88063E+07
 -1       360 1.93513E+08 2.88677E+08 5.43269E+07 6.38407E+07-7.75927E+06 1.94907E+07
 -1       361 2.12709E+08 2.98799E+08 5.39522E+07-4.39396E+07-1.10194E+07-3.04523E+07
 -1       362 5.69718E+07 2.94974E+07-7.53157E+06 7.47272E+07-2.41350E+07 3.36751E+07
 -1       363-2.63247E+07 6.21870E+07 6.24515E+05 5.90443E+07 5.13823E+06 1.46973E+07
 -1       364-9.65721E+07 7.70724E+06 1.93582E+07 1.22130E+07-3.24714E+06 6.48162E+06
 -1       365-1.64867E+08-6.41149E+07-6.41149E+07 3.99622E+06 8.73934E+01 7.50521E+06
 -1       366-1.74284E+08-6.77771E+07-6.77772E+07 4.41464E+05-5.96140E+01-9.34808E+06
 -1       367-1.44490E+08-4.06325E+07-2.77781E+07-5.19945E+06-4.34067E+05 7.33160E+05
 -1       368-9.67677E+07-1.67827E+06 2.05477E+07-8.96304E+06 4.35995E+06-9.07489E+06
 -1       369-7.35418E+07 1.53746E+07 1.07802E+07-1.62580E+07-3.10562E+04 3.48522E+06
 -1       370-4.80014E+07 3.70207E+07 2.94684E+06-2.80282E+07-2.96751E+06-5.20641E+06
 -1       371-3.25853E+07 6.08268E+07-1.42626E+07-4.34352E+07 3.77248E+06-2.61790E+06
 -1       372 3.27291E+07 9.94086E+07-1.33633E+07-6.70973E+07-5.83553E+06-1.48244E+07
 -1       373 2.82006E+08 2.08407E+08 5.05970E+07 4.16747E+07 2.95960E+07-1.03892E+07
 -1       374 2.20791E+08 2.01810E+08 3.70495E+07 1.08017E+08-4.65976E+07-5.52111E+07
 -1       375 3.61651E+07 1.91967E+07-1.62746E+07 1.97426E+07-2.30726E+06-4.92172E+06
 -1       376 2.16876E+05-4.77961E+06 1.56891E+07-6.48672E+06 1.15677E+06-7.69005E+06
 -1       377-1.74061E+05-5.54170E+06 2.53264E+06-2.04335E+06-1.62867E+06-4.38958E+06
 -1       378 1.28459E+06 1.33845E+06-2.06033E+06 3.95593E+05-8.98567E+05-1.45456E+06
 -1       379 4.48813E+06 2.25958E+06-1.80875E+06 1.44990E+03-1.05617E+06 2.01783E+05
 -1       380 2.11271E+06 2.73733E+06-1.94549E+06 8.04343E+04-6.24854E+05 1.99457E+06
 -1       381-5.01176E+04-6.53741E+06 2.80723E+06 1.57136E+06-1.82552E+06 4.50860E+06
 -1       382-2.42370E+04-7.29242E+06 1.52775E+07 6.57873E+06 1.31071E+06 8.28814E+06
 -1       383 2.88031E+07 2.11812E+07-1.65369E+07-2.06571E+07-3.20935E+06 8.29026E+06
 -1       384 2.02516E+08 2.31613E+08 3.82452E+07-1.12058E+08-5.67396E+07 4.55363E+07
 -1       385 2.89724E+08 2.01433E+08 5.31804E+07-7.26361E+07 1.95074E+07 6.48166E+06
 -1       386 1.05216E+08-4.38999E+06-1.45206E+07 6.64488E+07-3.87976E+06 1.49326E+07
 -1       387-9.50803E+06 1.06141E+07-2.01990E+07 8.88763E+07 1.73334E+07 2.57547E+07
 -1       388-7.26308E+07 7.90310E+07 3.52645E+06 4.43797E+07-1.22450E+06 1.51678E+07
 -1       389-9.81422E+07 3.17309E+07 5.86973E+06 1.02745E+07 8.75070E+05-2.17337E+06
 -1       390-1.01252E+08 3.19850E+06 1.97403E+07-7.76512E+05 2.88491E+06 9.74702E+06
 -1       391-1.49228E+08-4.09155E+07-2.96426E+07 3.16861E+05-3.27279E+06-1.58621E+06
 -1       392-1.84897E+08-7.19045E+07-7.19045E+07-1.88417E+05-4.74604E+01 7.72823E+06
 -1       393-1.73382E+08-6.74265E+07-6.74265E+07 4.06292E+05 1.20646E+01-1.29577E+07
 -1       394-1.04080E+08-8.89251E+06 1.79081E+07 2.37635E+06-1.55233E+06-7.78232E+06
 -1       395-6.57051E+07 3.73519E+07-2.17443E+06-8.50353E+06 2.31306E+06-6.31190E+06
 -1       396-1.41818E+07 9.67597E+07-1.43016E+06-2.07806E+07-1.16264E+07-1.10990E+07
 -1       397 2.04347E+07 2.94511E+07-1.61730E+07 2.01119E+07-7.72062E+06-3.05186E+06
 -1       398-5.31074E+05 4.22928E+06 9.16672E+06-4.80185E+05 1.98304E+06 1.71542E+06
 -1       399 3.48282E+06 1.11568E+06-1.30336E+06 5.61754E+05-6.19165E+05-8.03730E+05
 -1       400 3.33247E+06 1.29156E+06-1.38435E+06-5.35540E+05-7.15252E+05 8.60739E+05
 -1       401 1.53762E+06 5.68221E+06 1.02221E+07 1.32965E+06 2.58390E+06-9.35133E+05
 -1       402 1.94075E+07 3.83736E+07-1.66716E+07-2.01342E+07-4.27843E+06 2.15578E+06
 -1       403-6.25858E+07 6.16780E+07-2.95133E+06-1.95358E+07 2.63376E+06 2.54087E+07
 -1       404-1.07647E+08 1.03232E+07 2.29868E+07-1.86068E+07 4.36669E+06 5.39258E+06
 -1       405-1.65827E+08-6.44883E+07-6.44883E+07-1.26921E+06-2.30109E+01 2.03672E+07
 -1       406-1.63809E+08-6.37034E+07-6.37035E+07-2.93347E+05 2.97586E+01-3.01949E+06
 -1       407-1.42288E+08-4.41326E+07-2.67139E+07 7.44730E+06 1.01695E+06-1.86356E+06
 -1       408-1.03252E+08-1.23087E+07 1.86110E+07 1.49405E+07-4.27600E+05-5.69682E+06
 -1       409-9.07419E+07 6.33781E+06 4.60458E+06 1.77182E+07 1.07905E+06 1.74994E+06
 -1       410-8.60760E+07 3.06053E+07-1.00243E+07 1.44083E+07 3.42234E+06-1.03288E+07
 -1       411-5.16037E+07 4.12434E+07 4.81906E+05-5.83200E+06 2.03288E+07 5.12330E+05
 -1       412-2.22769E+07 5.26406E+07 9.75983E+06-5.67417E+06 2.24688E+07-1.62093E+07
 -1       413-6.70838E+06 6.28772E+04 1.50578E+07-6.40918E+06-8.12279E+06 1.26462E+06
 -1       414 5.35278E+06 1.19133E+06 9.87340E+06-1.13905E+06 1.03684E+06 2.42156E+06
 -1       415 7.94231E+06 7.03201E+06-4.18673E+06 5.16668E+06-3.38306E+06-3.81213E+06
 -1       416-3.47258E+05 1.28095E+06-2.99156E+06 1.13878E+06-1.39180E+06-4.78781E+05
 -1       417 2.87771E+06 1.25813E+06 9.76670E+05 1.73645E+05-8.79896E+05 2.61626E+05
 -1       418 3.87629E+06 1.30315E+06 1.57954E+06-7.80283E+04-7.96162E+05 2.99804E+04
 -1       419 2.90254E+06 9.79162E+05 9.34594E+05-2.88925E+05-8.67383E+05-1.69992E+05
 -1       420 1.19936E+05 1.88609E+06-2.86000E+06-8.31004E+05-1.60176E+06 2.50557E+05
 -1       421 7.02268E+06 8.30611E+06-4.25821E+06-5.25416E+06-3.94694E+06 3.36715E+06
 -1       422 4.09239E+06-9.33718E+05 9.23526E+06 3.89085E+05 1.93323E+06-1.95164E+06
 -1       423-4.54920E+06 1.84516E+05 1.61915E+07 6.68882E+06-7.62761E+06-1.15109E+06
 -1       424-5.18035E+07 2.91863E+07-1.34614E+07-3.04349E+07 1.71881E+07 1.78190E+07
 -1       425-9.89152E+07 7.16963E+06-2.61326E+06-2.32888E+07 1.30539E+07-1.65896E+07
 -1       426-1.17532E+08-6.08912E+06 1.86657E+07-4.20247E+07-8.50205E+05 1.27016E+07
 -1       427-1.19035E+08-3.25943E+07-1.58164E+07-2.66956E+07 3.96258E+06 1.50256E+06
 -1       428-1.29717E+08-5.04454E+07-5.04455E+07-3.65107E+06 4.71517E+01-8.32202E+05
 -1       429-1.47254E+08-5.72657E+07-5.72657E+07 1.23075E+06-7.29391E+01-1.23634E+07
 -1       430-9.70733E+07-1.05056E+07 2.18971E+07 2.26672E+07 5.01072E+06-5.99417E+06
 -1       431-6.43371E+07 7.64078E+06-1.18485E+07 3.34380E+07 8.29205E+06-2.16502E+07
 -1       432-6.26381E+06-4.45145E+04 2.70501E+06-1.62203E+06-4.46875E+06-1.77351E+06
 -1       433 1.79164E+06 7.28092E+04-2.81208E+06 8.98640E+05-2.84467E+05-1.57061E+06
 -1       434 2.78202E+06 2.08698E+06 3.61129E+05 4.03562E+05-1.13837E+05-3.20447E+05
 -1       435 2.81988E+06 2.20635E+06 3.83902E+05-3.86235E+05-8.55319E+04 3.38339E+05
 -1       436 1.17751E+06-4.93231E+05-3.09281E+06-1.17155E+06-5.12428E+05 1.37126E+06
 -1       437-5.48578E+06-2.49953E+05 2.54468E+06 2.19039E+06-4.35369E+06 1.62765E+06
 -1       438-6.95471E+07-4.29791E+07 1.43250E+07-3.88660E+07 1.79580E+07 1.72582E+07
 -1       439-9.53216E+07-3.70695E+07-3.70696E+07-2.91583E+06-9.03292E+01-2.25481E+06
 -1       440-1.24050E+08-4.82415E+07-4.82416E+07 2.67594E+06 5.33108E+01-9.16000E+06
 -1       441-1.07708E+08-3.85366E+07-1.44134E+07 1.53397E+07 3.38055E+06 9.35570E+05
 -1       442-9.76154E+07-2.85261E+07 1.77506E+07 2.82675E+07 4.65109E+05-9.97780E+06
 -1       443-7.43325E+07-7.00889E+06 5.03229E+06 2.82250E+07 1.56584E+06 1.43110E+07
 -1       444-4.27569E+07 3.08210E+06-8.56342E+06 3.38836E+07 1.20125E+07-1.19123E+07
 -1       445 2.37485E+06 1.88443E+06-1.96420E+06-2.93787E+04-1.90783E+06-6.90918E+05
 -1       446 1.24718E+06 3.31943E+06-1.36672E+06 5.46772E+05-8.16629E+05-6.92538E+05
 -1       447 1.06263E+06 2.85008E+06 9.53006E+05 2.92232E+05 1.83741E+05-8.89748E+05
 -1       448 2.17674E+06 2.76646E+06 3.77308E+05 4.01366E+05-3.26333E+05-1.14622E+05
 -1       449 2.34390E+06 2.28922E+06-1.82311E+05-1.29970E+04-2.65823E+05-2.95265E+05
 -1       450 2.50341E+06 2.32472E+06-1.51222E+05 2.15171E+04-3.17888E+05-2.67750E+04
 -1       451 2.31050E+06 2.34563E+06-1.82058E+05 5.43132E+04-2.74732E+05 2.63659E+05
 -1       452 2.11445E+06 2.80461E+06 3.78350E+05-3.86254E+05-2.95085E+05 1.01557E+05
 -1       453 1.26134E+06 2.88479E+06 1.00557E+06-1.26618E+05 3.07561E+05 8.72079E+05
 -1       454 1.09527E+06 3.51731E+06-1.35672E+06-5.45504E+05-7.92578E+05 6.27266E+05
 -1       455 1.27602E+06 1.17139E+06-2.17006E+06-4.98092E+05-1.28165E+06 9.34390E+05
 -1       456-3.58382E+07-4.66599E+07 1.52856E+07-9.61559E+06 7.10256E+05 5.90990E+06
 -1       457-5.39438E+07-3.06472E+07-4.49301E+06-4.81455E+06 1.22212E+06-4.55183E+06
 -1       458-7.81821E+07-3.04041E+07-3.04042E+07-4.81923E+04 7.18714E+00 2.35984E+07
 -1       459-1.12058E+08-4.35780E+07-4.35781E+07 5.06786E+04-1.16842E+00 9.59862E+06
 -1       460-9.41443E+07-6.29077E+07 8.89748E+06 6.79292E+05 2.92132E+05-2.03480E+07
 -1       461 2.25661E+06 4.29257E+06-1.77396E+06 3.87322E+04-1.22797E+05-1.04743E+06
 -1       462 1.23860E+06 3.72640E+06 1.49105E+06 4.40602E+04 2.30924E+01-8.18136E+05
 -1       463 2.35348E+06 2.47535E+06-1.36450E+05 2.61603E+04 9.06806E+03-3.50426E+05
 -1       464 2.32502E+06 2.48160E+06-1.59354E+05 2.83670E+04-6.08273E+03 3.13410E+05
 -1       465 1.39022E+06 3.97061E+06 1.62967E+06 1.11182E+05 4.98421E+04 8.01951E+05
 -1       466 2.17251E+06 4.60413E+06-1.79100E+06-2.45934E+04 3.09351E+05 1.07413E+06
 -1       467-6.15079E+07-5.09780E+07 1.06815E+07 2.50839E+07-1.27402E+07 1.68931E+07
 -1       468-8.13308E+07-3.16286E+07-3.16287E+07 1.71199E+06 7.24494E+01-3.93063E+06
 -1       469-1.23096E+08-4.78708E+07-4.78709E+07-2.62699E+06-5.31936E+01-9.55716E+06
 -1       470-1.06600E+08-3.85272E+07-1.42987E+07-1.48166E+07-3.25523E+06 9.69039E+05
 -1       471-9.60671E+07-2.91600E+07 1.76102E+07-2.75599E+07-4.11979E+05-9.70390E+06
 -1       472-7.28328E+07-7.53878E+06 5.08481E+06-2.79634E+07-1.30470E+06 1.40927E+07
 -1       473-4.22610E+07 2.23042E+06-8.70463E+06-3.31704E+07-1.14924E+07-1.17812E+07
 -1       474 1.94308E+06 1.75807E+06-1.84549E+06-7.46514E+04 1.65907E+06-7.59619E+05
 -1       475 1.19900E+06 3.34155E+06-1.24927E+06-5.13956E+05 7.96267E+05-6.50123E+05
 -1       476 1.15011E+06 2.83908E+06 8.97549E+05-2.11726E+05-1.80487E+05-9.13244E+05
 -1       477 2.13882E+06 2.74158E+06 3.49585E+05-3.48740E+05 3.37166E+05-1.27774E+05
 -1       478 2.34587E+06 2.31020E+06-1.60726E+05 5.84354E+04 2.83768E+05-3.06365E+05
 -1       479 2.49519E+06 2.29969E+06-1.48687E+05 3.62043E+04 3.29648E+05-1.55838E+04
 -1       480 2.35340E+06 2.31172E+06-1.76457E+05 1.12920E+04 2.85586E+05 2.69331E+05
 -1       481 2.18644E+06 2.80953E+06 3.68608E+05 4.51069E+05 3.46397E+05 7.82148E+04
 -1       482 1.04078E+06 2.90694E+06 9.12658E+05 3.12127E+05-1.71584E+05 8.70240E+05
 -1       483 1.23496E+06 3.36970E+06-1.33033E+06 5.77511E+05 9.02786E+05 6.87103E+05
 -1       484 2.37511E+06 1.96102E+06-1.91427E+06 1.14773E+05 2.03939E+06 7.06787E+05
 -1       485-4.68182E+07 5.66295E+06-4.10503E+06 3.40183E+07-1.22032E+07 1.24210E+07
 -1       486-8.50088E+07-6.03925E+06 1.20088E+06 2.97864E+07-2.71493E+06-1.41004E+07
 -1       487-1.02294E+08-2.19179E+07 1.11908E+07 4.15542E+07 9.39582E+03 7.94608E+06
 -1       488-9.76935E+07-3.13008E+07-1.31333E+07 2.34783E+07-4.29028E+06 6.19116E+05
 -1       489-1.04311E+08-4.05654E+07-4.05655E+07 2.17777E+06-6.76658E+01 1.93879E+06
 -1       490-1.45866E+08-5.67256E+07-5.67257E+07-1.22849E+06 7.29540E+01-1.21715E+07
 -1       491-9.56108E+07-1.12819E+07 2.16550E+07-2.27140E+07-4.97562E+06-6.14902E+06
 -1       492-6.30573E+07 6.32477E+06-1.18741E+07-3.27604E+07-8.34733E+06-2.11638E+07
 -1       493-5.84479E+06 5.03534E+02 2.55811E+06 1.65067E+06 4.26390E+06-1.69541E+06
 -1       494 1.64581E+06 3.48027E+04-2.75335E+06-9.09295E+05 3.32045E+05-1.52624E+06
 -1       495 2.78570E+06 2.09609E+06 3.42635E+05-3.59224E+05 1.04814E+05-3.45087E+05
 -1       496 2.81837E+06 2.13352E+06 3.81489E+05 4.56980E+05 1.05192E+05 2.99569E+05
 -1       497 1.68156E+06-1.30914E+04-2.89659E+06 9.84448E+05 3.22074E+05 1.53849E+06
 -1       498-6.14695E+06-6.31018E+04 2.69362E+06-1.65981E+06 4.66922E+06 1.74391E+06
 -1       499-6.55617E+07 1.27513E+07-8.78580E+06 3.48736E+07-6.78882E+06 2.37658E+07
 -1       500-9.89457E+07-3.68659E+06 1.99552E+07 2.91068E+07-3.74409E+06 3.99766E+06
 -1       501-1.39501E+08-5.42503E+07-5.42503E+07 1.08761E+06 5.62460E+01 1.12442E+07
 -1       502-1.62462E+08-6.31796E+07-6.31796E+07 2.79340E+05-3.10579E+01-3.31693E+06
 -1       503-1.41172E+08-4.40313E+07-2.66091E+07-7.77750E+06-1.05228E+06-1.84043E+06
 -1       504-1.01860E+08-1.28611E+07 1.83742E+07-1.55140E+07 4.49732E+05-5.75067E+06
 -1       505-8.84072E+07 5.26014E+06 4.72596E+06-1.79420E+07-1.08032E+06 1.80514E+06
 -1       506-8.28744E+07 2.84969E+07-9.70741E+06-1.46723E+07-3.34000E+06-9.74337E+06
 -1       507-4.89908E+07 3.99913E+07 6.91135E+05 5.67182E+06-1.95045E+07-5.01633E+04
 -1       508-2.24290E+07 5.03453E+07 8.72011E+06 7.39602E+06-2.18725E+07-1.51650E+07
 -1       509-5.89440E+06 1.86794E+05 1.45853E+07 6.13130E+06 7.78671E+06 1.16586E+06
 -1       510 4.88846E+06 7.98145E+05 9.30462E+06 9.05906E+05-1.11917E+06 2.17965E+06
 -1       511 7.41705E+06 7.01961E+06-4.02051E+06-4.95258E+06 3.40904E+06-3.61545E+06
 -1       512-1.51032E+05 1.37368E+06-2.85003E+06-1.00706E+06 1.42310E+06-4.19400E+05
 -1       513 2.88166E+06 1.14096E+06 8.80403E+05-1.62378E+05 8.76904E+05 1.92030E+05
 -1       514 3.95199E+06 1.39548E+06 1.59329E+06 4.51663E+04 8.08548E+05-2.17412E+04
 -1       515 2.88548E+06 1.15416E+06 9.77370E+05 2.59035E+05 8.65965E+05-2.56098E+05
 -1       516-2.93521E+05 1.33770E+06-2.98903E+06 1.15474E+06 1.43040E+06 4.36135E+05
 -1       517 7.84540E+06 7.22665E+06-4.22596E+06 5.26447E+06 3.50146E+06 3.76733E+06
 -1       518 5.21450E+06 9.71925E+05 9.84214E+06-9.83875E+05-1.12193E+06-2.36567E+06
 -1       519-6.44961E+06 1.11634E+05 1.52815E+07-6.44083E+06 8.31439E+06-1.25459E+06
 -1       520-2.42261E+07 5.30053E+07 9.27893E+06-9.16412E+06-2.33140E+07 1.60838E+07
 -1       521-5.23060E+07 4.33654E+07 3.98990E+05-6.77822E+06-2.07114E+07 2.46766E+05
 -1       522-8.84720E+07 3.39031E+07-1.06955E+07 1.55795E+07-4.11852E+06 9.13534E+06
 -1       523-9.25557E+07 9.60295E+06 4.77219E+06 2.06391E+07-4.86520E+05-1.10449E+06
 -1       524-1.01866E+08-8.13755E+06 2.06131E+07 1.90755E+07-4.53072E+05 6.61226E+06
 -1       525-1.42696E+08-4.38651E+07-2.65301E+07 9.90785E+06 9.75121E+05 1.03875E+06
 -1       526-1.65792E+08-6.44747E+07-6.44747E+07 3.91130E+05-1.73890E+01 1.37668E+06
 -1       527-1.73016E+08-6.72841E+07-6.72842E+07-4.54550E+05-9.38249E+00-1.29589E+07
 -1       528-1.02644E+08-9.26388E+06 1.80276E+07-3.59750E+06 1.54518E+06-8.07397E+06
 -1       529-6.26909E+07 3.49481E+07-2.73637E+06 7.52869E+06-1.95205E+06-6.78296E+06
 -1       530-1.04652E+07 9.42100E+07-1.44081E+06 2.23668E+07 1.19196E+07-1.05343E+07
 -1       531 1.92195E+07 2.99236E+07-1.55450E+07-1.91603E+07 6.90335E+06-2.85423E+06
 -1       532 3.67176E+04 4.37022E+06 8.98453E+06 6.13760E+05-1.99441E+06 1.40559E+06
 -1       533 3.40816E+06 1.12832E+06-1.22945E+06-5.10154E+05 6.33429E+05-8.41832E+05
 -1       534 3.43884E+06 1.11955E+06-1.36969E+06 5.88495E+05 6.54571E+05 8.43281E+05
 -1       535-2.11456E+05 4.45566E+06 9.38632E+06-5.31242E+05-2.06105E+06-1.60826E+06
 -1       536 2.03018E+07 3.06776E+07-1.63457E+07 2.01639E+07 7.57277E+06 3.01310E+06
 -1       537-1.08899E+07 1.00081E+08-1.27128E+06-2.39923E+07 1.26791E+07 1.12443E+07
 -1       538-6.56385E+07 3.90857E+07-3.01183E+06-7.67277E+06-2.65323E+06 6.73743E+06
 -1       539-1.04962E+08-7.98063E+06 1.87336E+07 5.75618E+06 1.20549E+06 8.12790E+06
 -1       540-1.78319E+08-6.93465E+07-6.93466E+07 7.74394E+05-6.45588E+00 1.34961E+07
 -1       541-1.75407E+08-6.82137E+07-6.82138E+07-5.27275E+05 5.74884E+01-9.86583E+06
 -1       542-1.45269E+08-4.12681E+07-2.81165E+07 4.17700E+06 4.51014E+05 8.30514E+05
 -1       543-9.56606E+07-2.17217E+06 2.08345E+07 7.13634E+06-4.37137E+06-9.47336E+06
 -1       544-7.05718E+07 1.50304E+07 1.08346E+07 1.42652E+07-3.39478E+04 3.33864E+06
 -1       545-4.42415E+07 3.65813E+07 2.40003E+06 2.63335E+07 3.62104E+06-6.37341E+06
 -1       546-2.62735E+07 5.91331E+07-1.38680E+07 4.28619E+07-5.01642E+06-1.53169E+06
 -1       547 4.39916E+07 9.54634E+07-1.16348E+07 6.49393E+07 2.71837E+06-1.05056E+07
 -1       548 2.75736E+08 2.06928E+08 5.07724E+07-3.35567E+07-2.40501E+07-1.79730E+07
 -1       549 2.02740E+08 1.94016E+08 3.33159E+07-9.52094E+07 4.65982E+07-5.01637E+07
 -1       550 3.29270E+07 1.86650E+07-1.55839E+07-1.90013E+07 2.51785E+06-5.66637E+06
 -1       551 2.53618E+05-5.09071E+06 1.48762E+07 6.18457E+06-1.11196E+06-7.63234E+06
 -1       552-6.13478E+04-5.47064E+06 2.45758E+06 1.82949E+06 1.61168E+06-4.26310E+06
 -1       553 1.62640E+06 1.68689E+06-1.87557E+06-3.17655E+05 8.12772E+05-1.50701E+06
 -1       554 4.56652E+06 2.06606E+06-1.72335E+06 5.62574E+04 1.06196E+06 1.40159E+05
 -1       555 1.47109E+06 1.69364E+06-2.09044E+06 3.79224E+05 8.46304E+05 1.72052E+06
 -1       556-1.53143E+05-5.62481E+06 2.55389E+06-1.96539E+06 1.64181E+06 4.61223E+06
 -1       557 2.15783E+05-5.14121E+06 1.57305E+07-6.49164E+06-1.18472E+06 7.99802E+06
 -1       558 3.52640E+07 1.94489E+07-1.64006E+07 1.99171E+07 2.50715E+06 5.65185E+06
 -1       559 2.15636E+08 2.01250E+08 3.49088E+07 1.00427E+08 4.81485E+07 5.30888E+07
 -1       560 2.93746E+08 2.15784E+08 5.37480E+07 3.49588E+07-2.53682E+07 1.90775E+07
 -1       561 4.69008E+07 1.01380E+08-1.21919E+07-6.87946E+07 2.77637E+06 1.12902E+07
 -1       562-2.76616E+07 6.31486E+07-1.47878E+07-4.48785E+07-4.85638E+06 1.64902E+06
 -1       563-4.53429E+07 3.97590E+07 2.69862E+06-2.69973E+07 4.26386E+06 6.71713E+06
 -1       564-7.21718E+07 1.74702E+07 1.14651E+07-1.40114E+07-6.61572E+04-3.59347E+06
 -1       565-9.89212E+07-1.61661E+06 2.11504E+07-6.38345E+06-4.01385E+06 1.00295E+07
 -1       566-1.50266E+08-4.23409E+07-2.92794E+07-3.82981E+06 6.06161E+05-6.39281E+05
 -1       567-1.81464E+08-7.05695E+07-7.05696E+07 5.02901E+05 5.66859E+01 1.05830E+07
 -1       568-1.54224E+08-5.99760E+07-5.99760E+07 3.50107E+06-7.04547E+01-7.08653E+06
 -1       569-9.20279E+07 1.66842E+06 1.84289E+07 1.61643E+07 1.88095E+06-8.36671E+06
 -1       570-2.47798E+07 4.12248E+07-1.72320E+06 3.30280E+07-2.57793E+06-8.89735E+06
 -1       571 4.96668E+07 8.15866E+07-3.32346E+06 7.63799E+07 1.19670E+07-3.08017E+07
 -1       572 2.06388E+08 2.72053E+08 4.98447E+07-3.99278E+07 1.58960E+07 2.09061E+07
 -1       573 2.18259E+08 2.82121E+08 5.19944E+07 4.46117E+07 1.58085E+07-2.18767E+07
 -1       574 5.30293E+07 8.55399E+07-3.51450E+06-8.01578E+07 1.20404E+07 3.26886E+07
 -1       575-2.47419E+07 4.39706E+07-1.70482E+06-3.40400E+07-2.64129E+06 9.08684E+06
 -1       576-9.51128E+07 1.97604E+06 1.89817E+07-1.60236E+07 1.95746E+06 8.80718E+06
 -1       577-1.60576E+08-6.24463E+07-6.24464E+07-3.65990E+06-7.34722E+01 7.70795E+06
 -1       578-1.25983E+08-4.89934E+07-4.89935E+07 8.02394E+06 6.42878E+01 2.00477E+07
 -1       579-1.18578E+08-2.67995E+07-2.10901E+07 1.84751E+07-4.28237E+06 4.24217E+06
 -1       580-8.68240E+07 5.07271E+06 1.63411E+07 2.45481E+07-2.72070E+06-4.21508E+06
 -1       581-5.04606E+07 1.99579E+07 2.47468E+06 3.18787E+07 3.71044E+06 1.11999E+07
 -1       582 1.47889E+06 5.08237E+07-2.55575E+06 4.07936E+07 3.18044E+06-7.24676E+06
 -1       583 2.81529E+07 6.02006E+07 1.40541E+06 5.87168E+07 8.83225E+05 2.35576E+06
 -1       584 6.93776E+07 7.29421E+07 1.03829E+07 7.60228E+07-9.80742E+06 1.22996E+07
 -1       585 7.07044E+07 5.68731E+07-4.09771E+06 7.44561E+07 3.04822E+07-1.61893E+07
 -1       586 7.74435E+07 5.98589E+07-1.17276E+07 6.41195E+07 1.09289E+07-3.91442E+06
 -1       587 7.57242E+07-6.87148E+05-8.42444E+06 2.73593E+07 1.03909E+06-9.65111E+06
 -1       588 4.44960E+07-2.27789E+06 3.12373E+06 6.56112E+06 1.28233E+07 1.38362E+07
 -1       589 4.55284E+07-2.24182E+06 3.34539E+06-6.79048E+06 1.32599E+07-1.43734E+07
 -1       590 7.74311E+07-5.35174E+05-8.90320E+06-2.81544E+07 9.73946E+05 1.00415E+07
 -1       591 7.93329E+07 6.26121E+07-1.23486E+07-6.50384E+07 1.07924E+07 3.96940E+06
 -1       592 7.38666E+07 5.91214E+07-4.26861E+06-7.64215E+07 3.15732E+07 1.74721E+07
 -1       593 7.35410E+07 7.60424E+07 1.09661E+07-7.89731E+07-1.01592E+07-1.32645E+07
 -1       594 3.01045E+07 6.30458E+07 1.40354E+06-6.10337E+07 1.08263E+06-2.54168E+06
 -1       595 2.45545E+06 5.35342E+07-2.76277E+06-4.23361E+07 3.47566E+06 7.73844E+06
 -1       596-5.08836E+07 2.16464E+07 3.00310E+06-3.28973E+07 4.00915E+06-1.16284E+07
 -1       597-8.93948E+07 5.61291E+06 1.73600E+07-2.50161E+07-2.82345E+06 4.85474E+06
 -1       598-1.23765E+08-2.81413E+07-2.21244E+07-1.88228E+07-4.30834E+06-4.35638E+06
 -1       599-1.32078E+08-5.13637E+07-5.13637E+07-8.30906E+06 6.72330E+01-2.05597E+07
 -1       600 3.56222E+07 5.82408E+07 1.41869E+06 2.91537E+07-1.08293E+07-1.15813E+07
 -1       601 5.54215E+07 3.02911E+07 3.02820E+04 6.06332E+07-1.46595E+06-4.10117E+05
 -1       602 4.82031E+07-1.12498E+07-1.03527E+07 5.03964E+07-5.72441E+05 6.80075E+06
 -1       603 3.56567E+07-7.15987E+06 8.12562E+06 1.56148E+07 1.66691E+06 1.79205E+07
 -1       604 3.67869E+07-7.02048E+06 8.54503E+06-1.59833E+07 1.87079E+06-1.82925E+07
 -1       605 4.95858E+07-1.09171E+07-1.07111E+07-5.15582E+07-4.62074E+05-7.31462E+06
 -1       606 5.81172E+07 3.18565E+07 1.06286E+05-6.28805E+07-1.42564E+06 1.89682E+05
 -1       607 3.73287E+07 6.04562E+07 1.25077E+06-3.04881E+07-1.15848E+07 1.21952E+07
 -1       608 4.30744E+07 4.12445E+07-8.91613E+06 1.71707E+07 1.34161E+07-1.14126E+07
 -1       609 6.01465E+07 3.80239E+07 1.98911E+06 3.11359E+07 1.10266E+07 1.00600E+07
 -1       610 4.76893E+07 6.07677E+06-3.41729E+06 4.41401E+07 6.70944E+06-3.18176E+06
 -1       611 3.64176E+07-2.43045E+07-1.45779E+06 4.13774E+07 1.07060E+07 3.73889E+06
 -1       612 2.81791E+07-4.91430E+07 2.90296E+06 3.97464E+07 4.27508E+06-2.24497E+06
 -1       613 1.77412E+07-5.69735E+07-2.10350E+06 3.11720E+07 1.53231E+07-1.41886E+06
 -1       614 1.86975E+07-5.68514E+07-1.69283E+06 2.77190E+07 1.78058E+07-7.04662E+05
 -1       615 1.90622E+07-5.84449E+07-1.83157E+06-2.84346E+07 1.82702E+07 6.04964E+05
 -1       616 1.81526E+07-5.85759E+07-2.21250E+06-3.19164E+07 1.58897E+07 1.51920E+06
 -1       617 2.92567E+07-5.03072E+07 3.12234E+06-4.07268E+07 4.32774E+06 2.56410E+06
 -1       618 3.74635E+07-2.48739E+07-1.59440E+06-4.24772E+07 1.12304E+07-3.99054E+06
 -1       619 4.91499E+07 6.75073E+06-3.60329E+06-4.55753E+07 6.91028E+06 3.32554E+06
 -1       620 6.28589E+07 3.99212E+07 2.24161E+06-3.25634E+07 1.13364E+07-1.04021E+07
 -1       621 4.50788E+07 4.26179E+07-9.26309E+06-1.82532E+07 1.43454E+07 1.16294E+07
 -1       622 2.13759E+07-4.66114E+07 4.04025E+06 3.17634E+07-1.31234E+07-1.42599E+06
 -1       623 1.31888E+07-7.92659E+07 8.78628E+06 2.12821E+07 1.96458E+06 5.08128E+05
 -1       624-3.56541E+06-1.39769E+08-5.69194E+06 1.33505E+07 4.21950E+06-1.97593E+06
 -1       625-3.83302E+06-1.44196E+08-5.92466E+06-1.35750E+07 4.21372E+06 2.01896E+06
 -1       626 1.36018E+07-8.16916E+07 9.13844E+06-2.16254E+07 2.01373E+06-5.15847E+05
 -1       627 2.18687E+07-4.78605E+07 4.20750E+06-3.24142E+07-1.34758E+07 1.58095E+06
 -1       628 6.41528E+06-9.00734E+07 1.72600E+07 2.48770E+07 6.75828E+06 1.24757E+06
 -1       629 3.00036E+06-9.28198E+07 1.80942E+07 1.56839E+07 7.70109E+06-1.42685E+06
 -1       630 4.10886E+06-9.38681E+07 2.06703E+07 5.57016E+06 1.09028E+07 2.29564E+06
 -1       631 7.61599E+06-1.17230E+08 2.21561E+07-7.57592E+06 5.86852E+06-2.33053E+05
 -1       632-8.79797E+05-1.34185E+08 2.20751E+07-3.29759E+07 1.15118E+07 4.62249E+06
 -1       633-2.03093E+07-6.85873E+07 1.96490E+07-5.14816E+07 1.36026E+07 1.97525E+07
 -1       634-4.26493E+07-3.36918E+07 7.81161E+06-3.55946E+07 3.12142E+06 1.92073E+06
 -1       635-5.34447E+07-2.99335E+07 6.13559E+06 7.24691E+05 1.79681E+07-4.05627E+04
 -1       636-4.29936E+07-3.42003E+07 8.16166E+06 3.71850E+07 3.41374E+06-2.27592E+06
 -1       637-2.07421E+07-7.06676E+07 2.02189E+07 5.33709E+07 1.40232E+07-2.04012E+07
 -1       638-9.56309E+05-1.38475E+08 2.28106E+07 3.42392E+07 1.19041E+07-4.76006E+06
 -1       639 7.77179E+06-1.21013E+08 2.29134E+07 8.09007E+06 6.08060E+06 2.22751E+05
 -1       640 4.08517E+06-9.70305E+07 2.13660E+07-5.44603E+06 1.13341E+07-2.37546E+06
 -1       641 3.03497E+06-9.59812E+07 1.87834E+07-1.58395E+07 8.06741E+06 1.52241E+06
 -1       642 6.69805E+06-9.31576E+07 1.80173E+07-2.52610E+07 7.21615E+06-1.40512E+06
 -1       643-2.69835E+07-1.21164E+08-2.11391E+07 1.99769E+07-3.43117E+06 3.08589E+06
 -1       644-4.10120E+07-1.48195E+08-3.00766E+07 3.47730E+06-3.80932E+06-3.27832E+06
 -1       645-3.12155E+07-1.29212E+08-1.49731E+07-2.42299E+07-1.44601E+06 3.03305E+06
 -1       646-2.66506E+07-4.63733E+07-5.85319E+06-1.65123E+07-3.33570E+06 5.53527E+06
 -1       647-2.71671E+07-4.74571E+07-6.00686E+06 1.73455E+07-3.48046E+06-5.43914E+06
 -1       648-3.22287E+07-1.33369E+08-1.54417E+07 2.51014E+07-1.46779E+06-3.07037E+06
 -1       649-4.25316E+07-1.53394E+08-3.11640E+07-3.41822E+06-3.93153E+06 3.38061E+06
 -1       650-2.81248E+07-1.25982E+08-2.20370E+07-2.04133E+07-3.52985E+06-3.26121E+06
 -1       651-4.85798E+07-1.24919E+08-4.85799E+07 8.46210E+06-2.37405E+07-8.87624E+01
 -1       652-6.12761E+07-1.57567E+08-6.12761E+07 3.93042E+06 6.07732E+06 9.86813E+01
 -1       653-7.09702E+07-1.82494E+08-7.09702E+07-3.87943E+04 8.51465E+06-4.65138E+01
 -1       654-6.50047E+07-1.67155E+08-6.50047E+07-1.24552E+06 1.76646E+07-3.12596E+01
 -1       655-5.44669E+07-1.40058E+08-5.44669E+07-3.63826E+06-7.31001E+06 6.79516E-01
 -1       656-3.72943E+07-9.58995E+07-3.72943E+07-3.24335E+06 1.04338E+06-7.46197E+01
 -1       657-2.51598E+07-6.46968E+07-2.51600E+07 5.73483E+05 2.04039E+07 3.48993E+01
 -1       658-2.17472E+07-5.59216E+07-2.17473E+07 1.88760E+04 1.25908E+06-3.37939E-01
 -1       659-2.57973E+07-6.63360E+07-2.57974E+07-5.15531E+05 2.06963E+07-3.42483E+01
 -1       660-3.84388E+07-9.88426E+07-3.84389E+07 3.37192E+06 1.03598E+06 7.71398E+01
 -1       661-5.62267E+07-1.44583E+08-5.62267E+07 3.76261E+06-7.49646E+06-1.05375E+00
 -1       662-6.71966E+07-1.72791E+08-6.71966E+07 1.29477E+06 1.82517E+07 3.25889E+01
 -1       663-7.34519E+07-1.88876E+08-7.34519E+07 4.97425E+04 8.86035E+06 4.77349E+01
 -1       664-6.35882E+07-1.63512E+08-6.35882E+07-4.03515E+06 6.40299E+06-1.01337E+02
 -1       665-5.06307E+07-1.30193E+08-5.06307E+07-8.72304E+06-2.42487E+07 9.14999E+01
 -1       666 4.78905E-05 1.22365E-04 4.86427E-05 1.20335E-05 2.23646E+07 6.82291E+01
 -1       667 1.54966E-05 4.02443E-05 1.50957E-05-1.00225E-06-7.26069E+06 3.31784E+01
 -1       668 1.22702E-06 2.59327E-06 1.79344E-06 9.64501E-07-5.99777E+06 7.71428E-01
 -1       669-5.84335E-06-1.54069E-05-5.46561E-06 6.13579E-06-1.05324E+07-2.11580E+01
 -1       670-9.28529E-07-2.95509E-06-3.47034E-07 7.58399E-06-4.66245E+06-6.10631E+00
 -1       671 4.82402E-06 1.19945E-05 5.25804E-06 3.41711E-06-1.41922E+06 1.08354E+01
 -1       672 8.36130E-06 2.08141E-05 9.05601E-06-2.12653E-06-8.96744E+06-3.45164E+01
 -1       673 1.04803E-05 2.73027E-05 1.00116E-05-5.07990E-06 2.31487E+07-8.00756E+01
 -1       674 3.02715E-06 1.08593E-04 1.19747E-05-4.65385E-06-8.22126E+06 6.27391E+06
 -1       675-1.31124E-06 3.88180E-05 2.68660E-06 1.23747E-06-8.29334E+06 2.81468E+06
 -1       676 5.69446E-07 7.24336E-07 6.06519E-06 1.37477E-05-1.24663E+07-3.31706E+06
 -1       677-1.56003E-05-1.92258E-05 7.26102E-06 1.27294E-05-4.04694E+06 3.14652E+06
 -1       678 3.36386E-06 6.26190E-06 1.39660E-05 2.46343E-06-8.85920E+06-7.11479E+05
 -1       679-1.41625E-06 2.08779E-05 2.38375E-06 3.08659E-06-6.07439E+06 2.03603E+05
 -1       680 7.28140E-06 3.07722E-05 2.88403E-05-7.42398E-06-9.50931E+06-4.39005E+06
 -1       681-1.09209E-05 7.79284E-06-2.74757E-05 5.31785E-07-3.54866E+06-2.47263E+06
 -1       682-3.39304E-05-2.02435E-05-3.50870E-05 1.28634E-05-2.37323E+07-1.13839E+07
 -1       683-5.35917E-05 4.73159E-05 1.44150E-05 1.48901E-05-3.41511E+06-4.08712E+06
 -1       684-1.25816E-05 8.18095E-05 4.88598E-05-2.95819E-06-1.89945E+07 4.94157E+05
 -1       685-2.62950E-05-3.24217E-06 2.14216E-05 1.17597E-05-1.23686E+07 1.59254E+07
 -1       686 1.24844E-05 1.21072E-07-6.66827E-07-1.22935E-06-1.24462E+06 1.03443E+07
 -1       687 3.28512E-06-4.49549E-06 1.25796E-05-8.17422E-06-1.32440E+07-1.26787E+07
 -1       688 3.34854E-05 3.99862E-05-1.50034E-06 1.88428E-05-1.06750E+07-3.88959E+06
 -1       689-3.98047E-06 4.35491E-05 4.55223E-05 5.12192E-06-6.65373E+06 2.86220E+06
 -1       690-9.80822E-06 1.77898E-06 1.36594E-05-1.64894E-05-6.67517E+06 4.03157E+06
 -1       691-1.37053E-05-1.58176E-05-4.43048E-05 2.91504E-07-9.64767E+06 2.30581E+07
 -1       692 1.30802E-04 5.04216E-05 4.92437E-05 1.75015E-05 7.78528E+01 2.26072E+07
 -1       693 1.15751E-04 1.21753E-05 2.82104E-05-4.72780E-06 2.39541E+06-3.04132E+06
 -1       694 3.50391E-05-5.47566E-05-2.20057E-05 1.62090E-05-3.69025E+06-6.73286E+06
 -1       695 6.77959E-05 7.69633E-05 1.08662E-05 4.30665E-05 1.14330E+07 2.18398E+07
 -1       696-1.35535E-05 1.60449E-04 6.86864E-05-4.41018E-05-1.90974E+07-4.50274E+06
 -1       697 2.82861E-05-2.14227E-06 1.63247E-04-1.34795E-05-1.67675E+07-2.42481E+07
 -1       698 2.47434E-05 1.50870E-04-1.31343E-04 9.44749E-06-1.68851E+07 5.41193E+06
 -1       699 1.04589E-05-4.77582E-05-3.43064E-05-3.35241E-06 2.25029E+07-1.06040E+07
 -1       700-7.00952E-06-6.06827E-06-2.24895E-05 1.64128E-05-4.83604E+06 2.88242E+06
 -1       701-3.23597E-05-2.71481E-07-9.14640E-06 2.62810E-06 4.57086E+06 1.04689E+07
 -1       702-3.77819E-05-4.35486E-06 2.20230E-05 8.47239E-06 9.13095E+01-2.53924E+07
 -1       703 5.03743E-05 1.95155E-05 1.93015E-05 1.34949E-06 3.39666E+01-8.53780E+06
 -1       704 4.74544E-05-1.76951E-07 5.86400E-06 7.27910E-06 4.46043E+06-9.02437E+06
 -1       705 6.10957E-05-2.14059E-05-2.75967E-06 2.79225E-06-2.77602E+06-6.03610E+06
 -1       706 1.65809E-04-4.89069E-06 3.84559E-07-4.09400E-05-5.88628E+06-1.58664E+07
 -1       707 4.78934E-04 3.80043E-04 3.04534E-04 2.31331E-04-3.01698E+07-3.82988E+07
 -1       708 2.25175E-04 1.52298E-04 5.29848E-04-1.45385E-05 1.90439E+05-1.22784E+07
 -1       709 9.61522E-05 1.00027E-04 3.97752E-04-1.00584E-06 2.08632E+06 1.51589E+06
 -1       710 3.91011E-05 2.95271E-05 2.75859E-04 6.47301E-06 3.30013E+06-5.04230E+05
 -1       711-8.19016E-05-8.34134E-05-2.08458E-04 5.67126E-06 5.61950E+05 1.19586E+07
 -1       712-2.16861E-04 2.21745E-04-4.35473E-05-1.17671E-05-3.86990E+07 2.86578E+07
 -1       713-1.73471E-04 3.81190E-06 6.98765E-05 4.63575E-05-4.25111E+06 1.60086E+07
 -1       714-8.93725E-05-3.20669E-05-6.67813E-05-1.16854E-05-1.02368E+06 1.59286E+07
 -1       715-2.82633E-05 5.43860E-06 5.37082E-07 6.85115E-06 2.98602E+06 9.73267E+06
 -1       716-2.81911E-06 4.56907E-06 1.91717E-05 2.10106E-06 5.07862E+00 6.93341E+06
 -1       717 3.96650E-06 1.62545E-06 1.84187E-06 3.96103E-07-2.56216E+00-2.16115E+06
 -1       718-5.64149E-06-1.39168E-05-3.86881E-05 6.95349E-06-3.85803E+05-5.65068E+06
 -1       719-1.30584E-05-2.19306E-05 1.39109E-05 7.53126E-06 3.40015E+06-1.08635E+07
 -1       720-3.33926E-05-1.68383E-05-3.51134E-05 1.26837E-05 2.33388E+07-1.62813E+07
 -1       721-9.31924E-05-1.10929E-05-1.01195E-04 3.30689E-06-1.18608E+07 5.03303E+05
 -1       722-1.43081E-05-3.27064E-05-1.36991E-04 1.87929E-05-8.21671E+06-9.58109E+06
 -1       723-5.28635E-05-1.54348E-06-2.01644E-04-3.87374E-07-8.46423E+05 1.24305E+06
 -1       724-7.36168E-05-2.43395E-05-1.93283E-04-6.06734E-06-6.56520E+05-1.01422E+06
 -1       725 3.08584E-05 3.89978E-05-7.48145E-05-1.39744E-05-1.00508E+07 8.14488E+06
 -1       726 2.57258E-05 7.83390E-05 2.56438E-04 1.74879E-05-1.24985E+07-9.61734E+04
 -1       727-1.58548E-05-3.38851E-05-7.38564E-05 5.69504E-06 1.70391E+07 1.88371E+07
 -1       728-2.49594E-07 2.41888E-06-3.82176E-06 1.92656E-06-8.65412E+05 1.24428E+07
 -1       729 7.98097E-06 6.98352E-06 1.71121E-05-7.22677E-07 5.23862E+00-1.72951E+06
 -1       730-1.94935E-05-7.57951E-06-7.49536E-06 3.52168E-06-2.93476E-01-8.26616E+06
 -1       731-2.99333E-05-2.64659E-05-9.31712E-06 1.75134E-05 4.86540E+05-9.66572E+06
 -1       732 2.28826E-05 1.01969E-05 4.47202E-05-4.38094E-06 1.19629E+07-1.27637E+07
 -1       733 6.76708E-05 8.00919E-05 2.66733E-04 2.96823E-06 5.52468E+05 2.98606E+06
 -1       734-1.17231E-04-1.58994E-04-5.87842E-04 1.45211E-05 1.00905E+06-7.29338E+05
 -1       735 1.56901E-04 1.36946E-04 7.16852E-04 3.46905E-06-7.10787E+04-1.17410E+05
 -1       736 8.31037E-05 1.75672E-05 1.25619E-04-1.63076E-06-1.08249E+05 6.61173E+04
 -1       737 2.65505E-04 2.55853E-04 8.68362E-04-8.28703E-06 1.35172E+06 8.27074E+05
 -1       738 1.25667E-04 5.32996E-05 1.21664E-04-1.18814E-05 1.88800E+06-2.04272E+06
 -1       739-5.37140E-06 3.27313E-06-1.03540E-05 1.54032E-06 6.48702E+05 5.26341E+06
 -1       740 1.23098E-05 8.74000E-06 1.88795E-05-7.09435E-07 1.83002E+01 2.29519E+07
 -1       741-7.74022E-06-2.78815E-06-2.24785E-06 6.33625E-06 1.02647E+00-8.67000E+06
 -1       742-6.63350E-06-1.04885E-05-3.24292E-06-3.37100E-06-4.38707E+05-9.39428E+06
 -1       743 2.23704E-06 1.76413E-05 2.43266E-05-9.53209E-07-1.14419E+07-1.26266E+07
 -1       744 1.15284E-04 1.45137E-04 5.36994E-04 1.94788E-06-8.35856E+05 2.53584E+06
 -1       745-1.37044E-04-1.84051E-04-5.25213E-04 6.16761E-06-1.02171E+06-8.15407E+05
 -1       746-5.35599E-06 5.01388E-05-2.41522E-05 5.85578E-06 1.07111E+05-1.35531E+05
 -1       747-1.02187E-04-1.12442E-04-2.70837E-04 5.25749E-06 1.04531E+05 1.03298E+05
 -1       748-8.47767E-06 5.50437E-06 1.00689E-04-5.13938E-06-1.07353E+06 6.96289E+05
 -1       749-4.80611E-05-6.16150E-05-2.78210E-04-2.57233E-05-6.32085E+05-2.91036E+06
 -1       750 1.00164E-05 7.30229E-06 1.40448E-05 4.82216E-06-1.22512E+07 1.30708E+07
 -1       751 2.34668E-05 1.48001E-05 4.37093E-06-1.10627E-05 1.13090E+05 7.64650E+06
 -1       752 2.15955E-05 1.36090E-05 2.68510E-05-1.32318E-06-1.85991E+00 1.16453E+06
 -1       753 1.20047E-05 4.54928E-06 4.18155E-06 1.28374E-06 3.20463E+00-2.46655E+06
 -1       754 1.37980E-05-6.07988E-06-1.31542E-05-6.07179E-07 4.12245E+05-5.70444E+06
 -1       755 4.15899E-05 4.18824E-05 7.41455E-05 8.65610E-06-3.33422E+06-1.02747E+07
 -1       756-3.14973E-06 4.39826E-05 1.27165E-04-1.37961E-05-2.27419E+07-1.52432E+07
 -1       757 1.54970E-05-1.66276E-06-1.26210E-04 1.00574E-05 1.15824E+07 4.05901E+05
 -1       758 2.55356E-05-2.27042E-05-5.82868E-05 1.22720E-06 8.27841E+06-8.89926E+06
 -1       759 1.42425E-04 1.76667E-04 6.99645E-04-1.61584E-06 7.86573E+05 1.13222E+06
 -1       760 3.35094E-05 2.21559E-06-1.38703E-04 2.17212E-06 7.57109E+05-1.23570E+06
 -1       761-7.14392E-05-4.16981E-05-1.35233E-04-2.38923E-05 8.52894E+06 9.42362E+06
 -1       762 3.33069E-05 3.53646E-06 3.09525E-05 1.86236E-05 1.22348E+07-4.34375E+05
 -1       763-9.99914E-06-5.24209E-05-8.16027E-05-1.82767E-05-2.42398E+07 1.61409E+07
 -1       764 3.38831E-06 1.35505E-05-7.93396E-06-1.05988E-05-4.13826E+06 9.68047E+06
 -1       765-2.63511E-05-2.24222E-05-6.44564E-05-3.37611E-06-4.25050E+05 6.57390E+06
 -1       766-2.09827E-06 5.18048E-06 2.06106E-05 4.39355E-06 1.72335E+01 5.10813E+05
 -1       767 2.03252E-05 7.49092E-06 6.46935E-06-2.90159E-06-3.24404E+01-9.05363E+06
 -1       768 1.82302E-05-5.89999E-06-8.23068E-06-5.90604E-06-4.46629E+06-9.43530E+06
 -1       769 3.49776E-05-1.30220E-05-2.81399E-06 4.23286E-07 3.42960E+06-7.20677E+06
 -1       770 1.70597E-04 7.82122E-05 2.88131E-05-1.35352E-07 2.66713E+06-1.15047E+07
 -1       771 2.05577E-04-1.62373E-04 1.61344E-04-2.95849E-06 3.03627E+07-3.36141E+07
 -1       772-1.72473E-04-2.38671E-04-6.46343E-04 1.03578E-05-2.19768E+05-1.18369E+07
 -1       773-1.08650E-04-5.73517E-05-3.93681E-04 4.52523E-06-2.25272E+06 1.30901E+06
 -1       774 8.02916E-06-1.79943E-05 4.70234E-05-8.45535E-06-2.34761E+06-1.23120E+06
 -1       775 1.11626E-05 3.35900E-05-7.04033E-06 1.41738E-05-2.06969E+05 1.24857E+07
 -1       776-3.04748E-04-2.94372E-04 1.53439E-04-2.34326E-04 3.12551E+07 3.54555E+07
 -1       777-1.09377E-04 2.56042E-05 3.24305E-05 3.96658E-05 2.72406E+06 1.23373E+07
 -1       778-6.07716E-05 1.06735E-05-1.48395E-05-2.39404E-06 4.06984E+06 7.58505E+06
 -1       779-6.88939E-05-2.27870E-05-4.89250E-05 9.38232E-07-4.10313E+06 9.99384E+06
 -1       780-3.92124E-05-8.95350E-06 7.28643E-06 3.69354E-06-3.34944E+01 9.75269E+06
 -1       781 4.71435E-05 1.82448E-05 1.79302E-05-7.53393E-06-7.68285E+01 2.07084E+07
 -1       782 3.33160E-05 5.58235E-06 2.17206E-05-2.35159E-07-2.87232E+06-4.36016E+06
 -1       783 2.86290E-05 1.53668E-05 6.55789E-05-1.41741E-05 2.85024E+06-7.70159E+06
 -1       784 1.33325E-05 7.95419E-05 1.19250E-04 5.16034E-06-9.53580E+06 1.20215E+07
 -1       785-2.07185E-05-1.23101E-04 1.48572E-05 5.03783E-06 1.19726E+07-3.91429E+06
 -1       786 2.88761E-05 6.92869E-05 1.23334E-04 1.47079E-05 1.31216E+07 1.45352E+07
 -1       787 8.12537E-05 8.69045E-05 2.27710E-04-1.61510E-05 1.35630E+07-1.51034E+07
 -1       788-1.73991E-05-1.48059E-04-1.04345E-04 5.83800E-05 1.18836E+07 3.96421E+06
 -1       789-9.00680E-05-5.47802E-05-8.19397E-06-5.13420E-05-9.86868E+06-1.29807E+07
 -1       790-4.57834E-05 4.45081E-05 3.14580E-05-9.22180E-06 3.13443E+06 8.21153E+06
 -1       791-1.26048E-04-2.33571E-05-4.65324E-05 2.27778E-06-2.96641E+06 5.01027E+06
 -1       792-1.03511E-04-3.71132E-05-2.92622E-05-1.40076E-05-7.86237E+01-2.12471E+07
 -1       793-5.90086E-06-1.02539E-05-3.58005E-05-6.00889E-06 1.31581E+07-1.11760E+07
 -1       794 4.65598E-05 3.49959E-05 8.81443E-05 1.53451E-05 7.16532E+06-2.79693E+06
 -1       795 2.13070E-05-1.06682E-05 5.57440E-05-5.00298E-06 5.08380E+06-2.01358E+06
 -1       796-2.89627E-05-3.21814E-05-5.19122E-05-1.47582E-05 1.83840E+07-7.00816E+05
 -1       797 2.64651E-05 1.00415E-05 1.12723E-04-1.57568E-06 1.88655E+07 6.01758E+05
 -1       798 2.84400E-05-7.04229E-05 1.65763E-05-5.71346E-06 5.16603E+06 2.32437E+06
 -1       799 6.51334E-05-1.82171E-05-2.39194E-05-2.05662E-05 7.38671E+06 2.92632E+06
 -1       800 2.08486E-05-5.38304E-06-4.20632E-06-9.91672E-06 1.40865E+07 1.13842E+07
 -1       801 5.07891E-06 1.80071E-06 7.89179E-06 2.55386E-06 6.91406E+06 1.33389E+06
 -1       802 8.89049E-06-2.21655E-06 1.57754E-05 2.13482E-06 1.08292E+07 2.45747E+06
 -1       803-5.49480E-07-9.98223E-06 8.01131E-06-4.87627E-06 1.11253E+07 4.60833E+06
 -1       804 1.99012E-06 4.90807E-07 1.78278E-06 1.65464E-06 2.62989E+06 1.66710E+06
 -1       805 1.07604E-05-6.26314E-07-5.49480E-08-5.83968E-08 2.91230E+06-2.00084E+06
 -1       806 3.08520E-05 9.36445E-06 2.02828E-05-1.12346E-05 1.15054E+07-4.74237E+06
 -1       807 5.22699E-06-6.35078E-05-3.92180E-06-2.17748E-05 1.12584E+07-2.54080E+06
 -1       808-8.42009E-06-1.16831E-04-9.57376E-06 3.76627E-06 7.37854E+06-1.49222E+06
 -1       809 4.36977E-06-4.88199E-06 2.06409E-05 2.51230E-06-2.44257E+07 1.07350E+02
 -1       810-5.85290E-06-1.38301E-05-7.13137E-06 1.59885E-06 7.74323E+06-1.05922E+00
 -1       811-6.28573E-06-1.11992E-05-1.13220E-05-2.11992E-06-8.31873E+06-1.10416E+01
 -1       812-6.59260E-07-1.09943E-06-1.25112E-06-2.51381E-06 1.99124E+07 7.58492E+01
 -1       813 6.81099E-06 1.18436E-05 1.25882E-05-6.97083E-06 2.01949E+07-7.55367E+01
 -1       814-8.22823E-07-9.14559E-07-2.07499E-06-3.25155E-07-8.53817E+06 1.21147E+01
 -1       815-2.43266E-05-6.13136E-05-2.55916E-05-3.43529E-06 8.06219E+06 1.15205E+00
 -1       816-7.15405E-05-1.74455E-04-8.11089E-05-2.49343E-05-2.49599E+07-1.10719E+02
 -1       817 4.77370E+07 1.22752E+08 4.77370E+07 8.70429E+06 2.17278E+07-6.42193E+01
 -1       818 5.93435E+07 1.52597E+08 5.93435E+07 3.37896E+06-7.33577E+06 5.38091E+01
 -1       819 6.61448E+07 1.70086E+08 6.61448E+07-7.53412E+05-8.05876E+06-6.42290E+01
 -1       820 6.32138E+07 1.62549E+08 6.32138E+07-1.75242E+05-1.67861E+07 5.11988E+01
 -1       821 5.54624E+07 1.42617E+08 5.54624E+07-9.17894E+05-6.66623E+06 4.86504E+01
 -1       822 4.66125E+07 1.19861E+08 4.66125E+07-1.86524E+06-8.11848E+06-1.21895E+02
 -1       823 3.83074E+07 9.85048E+07 3.83075E+07-1.53164E+06-1.12680E+07 6.79446E+01
 -1       824 3.73026E+07 9.59210E+07 3.73027E+07 1.14076E+06 1.01578E+07 2.31624E+01
 -1       825 4.51312E+07 1.16052E+08 4.51313E+07 2.83968E+06-5.52448E+06-5.51941E+01
 -1       826 5.67618E+07 1.45959E+08 5.67619E+07 1.30399E+06-1.22547E+07 7.16806E+01
 -1       827 6.52742E+07 1.67848E+08 6.52743E+07-5.51010E+04-2.29414E+06-2.74834E+01
 -1       828 6.95686E+07 1.78890E+08 6.95686E+07 5.47201E+05-1.34353E+07-1.05286E+01
 -1       829 7.02267E+07 1.80583E+08 7.02267E+07 4.78811E+05-9.80463E+06 6.03738E+01
 -1       830 6.12036E+07 1.57380E+08 6.12036E+07-3.79321E+06-6.72683E+06-7.60240E+01
 -1       831 4.91502E+07 1.26386E+08 4.91503E+07-8.48623E+06 2.24617E+07 6.80859E+01
 -1       832 2.25424E+07 1.16567E+08 2.00458E+07 1.95581E+07 1.64651E+06 5.14116E+06
 -1       833 4.06606E+07 1.38720E+08 2.65313E+07 1.16688E+06-1.36357E+05-2.65995E+06
 -1       834 3.57136E+07 1.22344E+08 2.44075E+07-1.45289E+07-1.51012E+06 1.25286E+06
 -1       835 3.66659E+07 8.43926E+07 1.20604E+07-1.02633E+07 2.12004E+06 3.48934E+06
 -1       836 3.48508E+07 1.03919E+08 1.32657E+07 2.01147E+07 4.52502E+05-4.01320E+06
 -1       837 4.46458E+07 1.45106E+08 2.71544E+07 8.83421E+06-1.47982E+06-1.60905E+05
 -1       838 4.19714E+07 1.49748E+08 2.88264E+07-4.82478E+06 6.18429E+05 5.73525E+05
 -1       839 2.66458E+07 1.20088E+08 2.06907E+07-2.01998E+07 4.38109E+06-4.05660E+06
 -1       840-1.22583E+07 8.87463E+07-1.63929E+07 2.36153E+07-8.07076E+06 6.11251E+06
 -1       841-5.84299E+06 9.19442E+07-1.84917E+07 1.22710E+07-5.53905E+06-3.92681E+06
 -1       842 5.32013E+06 9.69030E+07-1.87681E+07 4.11419E+05-8.29236E+06 2.79865E+06
 -1       843-2.99730E+05 8.78672E+07-1.90250E+07-1.38406E+07-6.12732E+06 6.75437E+06
 -1       844 4.11268E+06 8.02332E+07-1.60804E+07-2.63544E+07-1.24330E+07-3.28587E+06
 -1       845 2.08290E+07 7.16267E+07-1.57971E+07-2.68075E+07-9.13776E+06 1.91249E+06
 -1       846 3.79303E+07 6.85349E+07-1.38619E+07-2.32308E+07-4.33969E+06 3.05973E+06
 -1       847 6.07564E+07 8.34338E+07-7.05284E+06 1.23920E+07-1.82242E+07-5.66461E+06
 -1       848 2.47636E+07 1.01380E+08-1.58598E+07 3.55892E+07-9.17375E+06-7.62258E+05
 -1       849 6.87459E+06 9.99888E+07-2.16444E+07 2.65244E+07-5.01117E+06-4.70714E+06
 -1       850 1.03877E+07 1.04954E+08-1.96566E+07 1.74085E+07-6.12053E+06 2.16018E+05
 -1       851 8.56005E+06 1.07112E+08-1.84433E+07 3.97950E+06-7.93794E+06 1.43666E+06
 -1       852 1.46476E+06 1.00323E+08-2.12098E+07-8.19052E+06-9.55954E+06-4.29599E+06
 -1       853-2.15892E+06 9.62847E+07-1.88947E+07-1.80897E+07-7.85218E+06 1.85577E+06
 -1       854-5.24308E+06 9.08830E+07-1.68104E+07-2.74829E+07-3.39683E+06-2.32228E+06
 -1       855-2.26453E+07 4.83792E+07-2.77378E+06 3.61580E+07 1.79258E+07-1.11797E+07
 -1       856-3.08423E+07 9.16432E+07-6.62580E+06 1.48533E+06 3.72737E+06 3.11844E+06
 -1       857 3.22156E+06 4.84559E+07-3.41302E+06-3.70845E+07 8.51142E+06 9.32578E+06
 -1       858 1.14820E+07 4.28340E+07-1.08727E+07-2.59439E+07 7.59118E+06-8.64383E+06
 -1       859 6.39684E+06 8.17199E+07-3.35408E+06 2.97098E+07 1.45926E+07-2.10350E+06
 -1       860-8.29070E+06 9.44031E+07-4.61838E+06 1.98190E+07 1.39418E+06-7.90202E+05
 -1       861-1.67240E+07 7.58528E+07-1.12929E+07-1.56796E+07 3.72838E+06-7.63621E+04
 -1       862-2.12751E+07 5.64163E+07-1.55358E+06-3.44341E+07 1.22056E+07 3.37901E+06
 -1       863-4.27141E+07-3.40311E+07 1.00412E+07 1.28101E+07-2.39732E+07-1.16142E+07
 -1       864-5.92095E+07-3.76138E+07-2.42016E+06 2.61963E+07-5.57808E+06 8.10782E+06
 -1       865-5.87239E+07-1.30117E+07-2.23505E+06 4.69206E+07-3.07755E+06-4.36334E+06
 -1       866-6.68502E+07 3.05818E+07-1.18447E+06 5.15724E+07-1.34202E+07 3.55831E+06
 -1       867-8.23944E+07 7.56434E+07-1.79981E+06 3.11700E+07-1.82464E+07 3.16125E+05
 -1       868-5.51904E+07 5.18058E+07 1.06347E+06-4.20445E+07-1.17993E+07 1.43793E+07
 -1       869 1.32780E+07 3.81640E+07 1.83355E+07-5.10221E+07-1.16334E+07 1.58528E+07
 -1       870 3.26520E+07 4.02176E+07 1.81243E+07-3.10986E+07-1.71360E+07 5.35788E+06
 -1       871 2.28662E+07 3.75969E+07 8.43946E+06-1.80210E+07-6.51748E+05 1.01349E+07
 -1       872-4.30715E+06 4.60048E+07 6.80179E+06 3.46975E+07-1.24636E+07-1.26891E+07
 -1       873-1.03636E+07 6.68396E+07 1.06228E+07 3.52037E+07-2.33454E+07-7.77389E+06
 -1       874-3.31872E+07 9.05556E+07 1.05557E+07 1.56968E+07-1.01324E+07-3.89832E+06
 -1       875-3.95591E+07 6.84437E+07 2.34016E+06-7.98410E+06-6.40470E+06-2.65917E+06
 -1       876-3.89647E+07 4.96053E+07-3.00820E+06-2.78975E+07-5.79168E+06 3.06032E+06
 -1       877-4.27261E+07 3.11358E+07 2.76254E+06-3.48752E+07-9.03690E+06-1.76700E+06
 -1       878-5.41176E+07 4.75232E+06 4.18093E+06-4.19760E+07-6.31417E+06 4.37670E+06
 -1       879-5.74685E+07-3.25594E+07-4.56495E+05-2.59618E+07-1.15298E+07-1.21369E+07
 -1       880-3.58889E+07-4.58934E+07 8.60037E+06-1.36003E+07-9.83168E+06 2.32852E+07
 -1       881-3.26937E+07-5.66048E+07-6.30798E+05 2.51894E+07 1.17085E+07-1.03151E+07
 -1       882-4.65211E+07-1.82681E+07 8.06790E+05 6.19829E+07-9.80973E+06-8.83495E+05
 -1       883-8.09830E+06 2.99970E+07 2.53255E+07 8.89731E+07-2.63091E+07 1.64126E+07
 -1       884-4.30299E+07 5.45123E+07-4.55072E+05-6.18616E+06 6.07191E+05-2.10466E+07
 -1       885-6.33487E+07 3.39776E+07 1.50846E+07-4.42382E+07-2.40430E+06-3.66381E+06
 -1       886-5.89405E+07-2.36589E+07-3.75916E+06-6.11879E+07 1.68839E+06 1.20496E+06
 -1       887-3.96849E+07-6.22864E+07-2.51812E+06-2.93742E+07 7.73545E+06 6.59385E+06
 -1       888 1.20113E+08 4.67106E+07 4.67106E+07 8.20097E+06-6.55678E+01 2.19496E+07
 -1       889 1.14615E+08 2.52769E+07 1.96480E+07 1.98663E+07 3.98028E+06 4.32340E+06
 -1       890 8.73456E+07-5.01210E+06-1.59903E+07 2.70712E+07 2.24256E+06-2.89614E+06
 -1       891 5.43133E+07-1.99229E+07-1.28463E+06 3.38807E+07-3.25731E+06 1.18391E+07
 -1       892 4.22652E+06-5.20935E+07 3.81298E+06 4.15245E+07-4.03150E+06-6.38500E+06
 -1       893-2.28873E+07-5.59807E+07-3.45287E+06 6.09526E+07-1.00670E+06 1.92359E+06
 -1       894-5.85927E+07-5.90107E+07-1.28843E+07 7.86299E+07 1.17073E+07 2.20176E+07
 -1       895-2.93106E+07-5.27547E+07 6.19262E+06 7.75554E+07-3.55069E+07-2.34950E+07
 -1       896 3.09810E+06-9.82714E+07 1.16487E+07 7.30929E+07-1.80607E+07-4.19483E+06
 -1       897-5.41055E+07 2.39655E+07-1.02719E+07-6.77403E+06-1.67052E+07-2.33306E+07
 -1       898-1.00118E+08 1.48168E+07 1.50169E+06-2.15319E+07-1.18230E+07 1.20652E+07
 -1       899-1.03451E+08-3.54812E+07 1.37037E+07-6.91495E+07-1.58147E+07 5.35958E+06
 -1       900-8.55852E+07-4.21754E+07 8.96386E+05-8.08875E+07-3.03827E+07 6.94288E+06
 -1       901-6.35573E+07-6.08692E+07-1.41053E+07-7.88045E+07 2.27117E+07-1.08743E+07
 -1       902-2.25693E+07-4.70397E+07 1.16066E+06-6.43838E+07-2.52947E+05 8.99174E+06
 -1       903-1.55514E+07-5.68278E+07 3.02073E+05-5.18017E+07-5.14784E+06 2.53286E+06
 -1       904 4.39167E+07-2.55551E+07-5.21725E+06-3.76427E+07-8.72908E+06-1.83814E+07
 -1       905 9.26704E+07-1.33726E+07-1.90819E+07-2.41992E+07 4.47128E+06 1.02955E+07
 -1       906 1.27197E+08 2.62727E+07 2.23290E+07-2.07926E+07 3.36749E+06-2.67753E+06
 -1       907 1.32675E+08 5.15960E+07 5.15961E+07-9.08919E+06-9.19580E+01-2.46971E+07
 -1       908 1.50822E+08 5.86532E+07 5.86533E+07 3.66965E+06 7.32957E+01-6.22632E+06
 -1       909 9.26666E+07-1.98623E+06-1.81876E+07 1.82856E+07-1.80724E+06-7.54052E+06
 -1       910 3.04220E+07-4.03224E+07 2.82503E+06 3.47650E+07 1.70662E+06-9.00803E+06
 -1       911-3.97715E+07-8.30341E+07 8.17658E+05 7.95538E+07-7.52346E+06-2.88063E+07
 -1       912-1.93513E+08-2.88677E+08-5.43269E+07-6.38407E+07-7.75927E+06 1.94907E+07
 -1       913-2.12709E+08-2.98799E+08-5.39522E+07 4.39396E+07-1.10194E+07-3.04523E+07
 -1       914-5.69718E+07-2.94974E+07 7.53157E+06-7.47272E+07-2.41350E+07 3.36751E+07
 -1       915 2.63247E+07-6.21870E+07-6.24515E+05-5.90443E+07 5.13823E+06 1.46973E+07
 -1       916 9.65721E+07-7.70724E+06-1.93582E+07-1.22130E+07-3.24714E+06 6.48162E+06
 -1       917 1.64867E+08 6.41149E+07 6.41149E+07-3.99622E+06 8.73934E+01 7.50521E+06
 -1       918 1.74284E+08 6.77771E+07 6.77772E+07-4.41464E+05-5.96140E+01-9.34808E+06
 -1       919 1.44490E+08 4.06325E+07 2.77781E+07 5.19945E+06-4.34067E+05 7.33160E+05
 -1       920 9.67677E+07 1.67827E+06-2.05477E+07 8.96304E+06 4.35995E+06-9.07489E+06
 -1       921 7.35418E+07-1.53746E+07-1.07802E+07 1.62580E+07-3.10562E+04 3.48522E+06
 -1       922 4.80014E+07-3.70207E+07-2.94684E+06 2.80282E+07-2.96751E+06-5.20641E+06
 -1       923 3.25853E+07-6.08268E+07 1.42626E+07 4.34352E+07 3.77248E+06-2.61790E+06
 -1       924-3.27291E+07-9.94086E+07 1.33633E+07 6.70973E+07-5.83553E+06-1.48244E+07
 -1       925-2.82006E+08-2.08407E+08-5.05970E+07-4.16747E+07 2.95960E+07-1.03892E+07
 -1       926-2.20791E+08-2.01810E+08-3.70495E+07-1.08017E+08-4.65976E+07-5.52111E+07
 -1       927-3.61651E+07-1.91967E+07 1.62746E+07-1.97426E+07-2.30726E+06-4.92172E+06
 -1       928-2.16876E+05 4.77961E+06-1.56891E+07 6.48672E+06 1.15677E+06-7.69005E+06
 -1       929 1.74061E+05 5.54170E+06-2.53264E+06 2.04335E+06-1.62867E+06-4.38958E+06
 -1       930-1.28459E+06-1.33845E+06 2.06033E+06-3.95593E+05-8.98567E+05-1.45456E+06
 -1       931-4.48813E+06-2.25958E+06 1.80875E+06-1.44990E+03-1.05617E+06 2.01783E+05
 -1       932-2.11271E+06-2.73733E+06 1.94549E+06-8.04343E+04-6.24854E+05 1.99457E+06
 -1       933 5.01176E+04 6.53741E+06-2.80723E+06-1.57136E+06-1.82552E+06 4.50860E+06
 -1       934 2.42370E+04 7.29242E+06-1.52775E+07-6.57873E+06 1.31071E+06 8.28814E+06
 -1       935-2.88031E+07-2.11812E+07 1.65369E+07 2.06571E+07-3.20935E+06 8.29026E+06
 -1       936-2.02516E+08-2.31613E+08-3.82452E+07 1.12058E+08-5.67396E+07 4.55363E+07
 -1       937-2.89724E+08-2.01433E+08-5.31804E+07 7.26361E+07 1.95074E+07 6.48166E+06
 -1       938-1.05216E+08 4.38999E+06 1.45206E+07-6.64488E+07-3.87976E+06 1.49326E+07
 -1       939 9.50803E+06-1.06141E+07 2.01990E+07-8.88763E+07 1.73334E+07 2.57547E+07
 -1       940 7.26308E+07-7.90310E+07-3.52645E+06-4.43797E+07-1.22450E+06 1.51678E+07
 -1       941 9.81422E+07-3.17309E+07-5.86973E+06-1.02745E+07 8.75070E+05-2.17337E+06
 -1       942 1.01252E+08-3.19850E+06-1.97403E+07 7.76512E+05 2.88491E+06 9.74702E+06
 -1       943 1.49228E+08 4.09155E+07 2.96426E+07-3.16861E+05-3.27279E+06-1.58621E+06
 -1       944 1.84897E+08 7.19045E+07 7.19045E+07 1.88417E+05-4.74604E+01 7.72823E+06
 -1       945 1.73382E+08 6.74265E+07 6.74265E+07-4.06292E+05 1.20646E+01-1.29577E+07
 -1       946 1.04080E+08 8.89251E+06-1.79081E+07-2.37635E+06-1.55233E+06-7.78232E+06
 -1       947 6.57051E+07-3.73519E+07 2.17443E+06 8.50353E+06 2.31306E+06-6.31190E+06
 -1       948 1.41818E+07-9.67597E+07 1.43016E+06 2.07806E+07-1.16264E+07-1.10990E+07
 -1       949-2.04347E+07-2.94511E+07 1.61730E+07-2.01119E+07-7.72062E+06-3.05186E+06
 -1       950 5.31074E+05-4.22928E+06-9.16672E+06 4.80185E+05 1.98304E+06 1.71542E+06
 -1       951-3.48282E+06-1.11568E+06 1.30336E+06-5.61754E+05-6.19165E+05-8.03730E+05
 -1       952-3.33247E+06-1.29156E+06 1.38435E+06 5.35540E+05-7.15252E+05 8.60739E+05
 -1       953-1.53762E+06-5.68221E+06-1.02221E+07-1.32965E+06 2.58390E+06-9.35133E+05
 -1       954-1.94075E+07-3.83736E+07 1.66716E+07 2.01342E+07-4.27843E+06 2.15578E+06
 -1       955 6.25858E+07-6.16780E+07 2.95133E+06 1.95358E+07 2.63376E+06 2.54087E+07
 -1       956 1.07647E+08-1.03232E+07-2.29868E+07 1.86068E+07 4.36669E+06 5.39258E+06
 -1       957 1.65827E+08 6.44883E+07 6.44883E+07 1.26921E+06-2.30109E+01 2.03672E+07
 -1       958 1.63809E+08 6.37034E+07 6.37035E+07 2.93347E+05 2.97586E+01-3.01949E+06
 -1       959 1.42288E+08 4.41326E+07 2.67139E+07-7.44730E+06 1.01695E+06-1.86356E+06
 -1       960 1.03252E+08 1.23087E+07-1.86110E+07-1.49405E+07-4.27600E+05-5.69682E+06
 -1       961 9.07419E+07-6.33781E+06-4.60458E+06-1.77182E+07 1.07905E+06 1.74994E+06
 -1       962 8.60760E+07-3.06053E+07 1.00243E+07-1.44083E+07 3.42234E+06-1.03288E+07
 -1       963 5.16037E+07-4.12434E+07-4.81906E+05 5.83200E+06 2.03288E+07 5.12330E+05
 -1       964 2.22769E+07-5.26406E+07-9.75983E+06 5.67417E+06 2.24688E+07-1.62093E+07
 -1       965 6.70838E+06-6.28772E+04-1.50578E+07 6.40918E+06-8.12279E+06 1.26462E+06
 -1       966-5.35278E+06-1.19133E+06-9.87340E+06 1.13905E+06 1.03684E+06 2.42156E+06
 -1       967-7.94231E+06-7.03201E+06 4.18673E+06-5.16668E+06-3.38306E+06-3.81213E+06
 -1       968 3.47258E+05-1.28095E+06 2.99156E+06-1.13878E+06-1.39180E+06-4.78781E+05
 -1       969-2.87771E+06-1.25813E+06-9.76670E+05-1.73645E+05-8.79896E+05 2.61626E+05
 -1       970-3.87629E+06-1.30315E+06-1.57954E+06 7.80283E+04-7.96162E+05 2.99804E+04
 -1       971-2.90254E+06-9.79162E+05-9.34594E+05 2.88925E+05-8.67383E+05-1.69992E+05
 -1       972-1.19936E+05-1.88609E+06 2.86000E+06 8.31004E+05-1.60176E+06 2.50557E+05
 -1       973-7.02268E+06-8.30611E+06 4.25821E+06 5.25416E+06-3.94694E+06 3.36715E+06
 -1       974-4.09239E+06 9.33718E+05-9.23526E+06-3.89085E+05 1.93323E+06-1.95164E+06
 -1       975 4.54920E+06-1.84516E+05-1.61915E+07-6.68882E+06-7.62761E+06-1.15109E+06
 -1       976 5.18035E+07-2.91863E+07 1.34614E+07 3.04349E+07 1.71881E+07 1.78190E+07
 -1       977 9.89152E+07-7.16963E+06 2.61326E+06 2.32888E+07 1.30539E+07-1.65896E+07
 -1       978 1.17532E+08 6.08912E+06-1.86657E+07 4.20247E+07-8.50205E+05 1.27016E+07
 -1       979 1.19035E+08 3.25943E+07 1.58164E+07 2.66956E+07 3.96258E+06 1.50256E+06
 -1       980 1.29717E+08 5.04454E+07 5.04455E+07 3.65107E+06 4.71517E+01-8.32202E+05
 -1       981 1.47254E+08 5.72657E+07 5.72657E+07-1.23075E+06-7.29391E+01-1.23634E+07
 -1       982 9.70733E+07 1.05056E+07-2.18971E+07-2.26672E+07 5.01072E+06-5.99417E+06
 -1       983 6.43371E+07-7.64078E+06 1.18485E+07-3.34380E+07 8.29205E+06-2.16502E+07
 -1       984 6.26381E+06 4.45145E+04-2.70501E+06 1.62203E+06-4.46875E+06-1.77351E+06
 -1       985-1.79164E+06-7.28092E+04 2.81208E+06-8.98640E+05-2.84467E+05-1.57061E+06
 -1       986-2.78202E+06-2.08698E+06-3.61129E+05-4.03562E+05-1.13837E+05-3.20447E+05
 -1       987-2.81988E+06-2.20635E+06-3.83902E+05 3.86235E+05-8.55319E+04 3.38339E+05
 -1       988-1.17751E+06 4.93231E+05 3.09281E+06 1.17155E+06-5.12428E+05 1.37126E+06
 -1       989 5.48578E+06 2.49953E+05-2.54468E+06-2.19039E+06-4.35369E+06 1.62765E+06
 -1       990 6.95471E+07 4.29791E+07-1.43250E+07 3.88660E+07 1.79580E+07 1.72582E+07
 -1       991 9.53216E+07 3.70695E+07 3.70696E+07 2.91583E+06-9.03292E+01-2.25481E+06
 -1       992 1.24050E+08 4.82415E+07 4.82416E+07-2.67594E+06 5.33108E+01-9.16000E+06
 -1       993 1.07708E+08 3.85366E+07 1.44134E+07-1.53397E+07 3.38055E+06 9.35570E+05
 -1       994 9.76154E+07 2.85261E+07-1.77506E+07-2.82675E+07 4.65109E+05-9.97780E+06
 -1       995 7.43325E+07 7.00889E+06-5.03229E+06-2.82250E+07 1.56584E+06 1.43110E+07
 -1       996 4.27569E+07-3.08210E+06 8.56342E+06-3.38836E+07 1.20125E+07-1.19123E+07
 -1       997-2.37485E+06-1.88443E+06 1.96420E+06 2.93787E+04-1.90783E+06-6.90918E+05
 -1       998-1.24718E+06-3.31943E+06 1.36672E+06-5.46772E+05-8.16629E+05-6.92538E+05
 -1       999-1.06263E+06-2.85008E+06-9.53006E+05-2.92232E+05 1.83741E+05-8.89748E+05
 -1      1000-2.17674E+06-2.76646E+06-3.77308E+05-4.01366E+05-3.26333E+05-1.14622E+05
 -1      1001-2.34390E+06-2.28922E+06 1.82311E+05 1.29970E+04-2.65823E+05-2.95265E+05
 -1      1002-2.50341E+06-2.32472E+06 1.51222E+05-2.15171E+04-3.17888E+05-2.67750E+04
 -1      1003-2.31050E+06-2.34563E+06 1.82058E+05-5.43132E+04-2.74732E+05 2.63659E+05
 -1      1004-2.11445E+06-2.80461E+06-3.78350E+05 3.86254E+05-2.95085E+05 1.01557E+05
 -1      1005-1.26134E+06-2.88479E+06-1.00557E+06 1.26618E+05 3.07561E+05 8.72079E+05
 -1      1006-1.09527E+06-3.51731E+06 1.35672E+06 5.45504E+05-7.92578E+05 6.27266E+05
 -1      1007-1.27602E+06-1.17139E+06 2.17006E+06 4.98092E+05-1.28165E+06 9.34390E+05
 -1      1008 3.58382E+07 4.66599E+07-1.52856E+07 9.61559E+06 7.10256E+05 5.90990E+06
 -1      1009 5.39438E+07 3.06472E+07 4.49301E+06 4.81455E+06 1.22212E+06-4.55183E+06
 -1      1010 7.81821E+07 3.04041E+07 3.04042E+07 4.81923E+04 7.18714E+00 2.35984E+07
 -1      1011 1.12058E+08 4.35780E+07 4.35781E+07-5.06786E+04-1.16842E+00 9.59862E+06
 -1      1012 9.41443E+07 6.29077E+07-8.89748E+06-6.79292E+05 2.92132E+05-2.03480E+07
 -1      1013-2.25661E+06-4.29257E+06 1.77396E+06-3.87322E+04-1.22797E+05-1.04743E+06
 -1      1014-1.23860E+06-3.72640E+06-1.49105E+06-4.40602E+04 2.30924E+01-8.18136E+05
 -1      1015-2.35348E+06-2.47535E+06 1.36450E+05-2.61603E+04 9.06806E+03-3.50426E+05
 -1      1016-2.32502E+06-2.48160E+06 1.59354E+05-2.83670E+04-6.08273E+03 3.13410E+05
 -1      1017-1.39022E+06-3.97061E+06-1.62967E+06-1.11182E+05 4.98421E+04 8.01951E+05
 -1      1018-2.17251E+06-4.60413E+06 1.79100E+06 2.45934E+04 3.09351E+05 1.07413E+06
 -1      1019 6.15079E+07 5.09780E+07-1.06815E+07-2.50839E+07-1.27402E+07 1.68931E+07
 -1      1020 8.13308E+07 3.16286E+07 3.16287E+07-1.71199E+06 7.24494E+01-3.93063E+06
 -1      1021 1.23096E+08 4.78708E+07 4.78709E+07 2.62699E+06-5.31936E+01-9.55716E+06
 -1      1022 1.06600E+08 3.85272E+07 1.42987E+07 1.48166E+07-3.25523E+06 9.69039E+05
 -1      1023 9.60671E+07 2.91600E+07-1.76102E+07 2.75599E+07-4.11979E+05-9.70390E+06
 -1      1024 7.28328E+07 7.53878E+06-5.08481E+06 2.79634E+07-1.30470E+06 1.40927E+07
 -1      1025 4.22610E+07-2.23042E+06 8.70463E+06 3.31704E+07-1.14924E+07-1.17812E+07
 -1      1026-1.94308E+06-1.75807E+06 1.84549E+06 7.46514E+04 1.65907E+06-7.59619E+05
 -1      1027-1.19900E+06-3.34155E+06 1.24927E+06 5.13956E+05 7.96267E+05-6.50123E+05
 -1      1028-1.15011E+06-2.83908E+06-8.97549E+05 2.11726E+05-1.80487E+05-9.13244E+05
 -1      1029-2.13882E+06-2.74158E+06-3.49585E+05 3.48740E+05 3.37166E+05-1.27774E+05
 -1      1030-2.34587E+06-2.31020E+06 1.60726E+05-5.84354E+04 2.83768E+05-3.06365E+05
 -1      1031-2.49519E+06-2.29969E+06 1.48687E+05-3.62043E+04 3.29648E+05-1.55838E+04
 -1      1032-2.35340E+06-2.31172E+06 1.76457E+05-1.12920E+04 2.85586E+05 2.69331E+05
 -1      1033-2.18644E+06-2.80953E+06-3.68608E+05-4.51069E+05 3.46397E+05 7.82148E+04
 -1      1034-1.04078E+06-2.90694E+06-9.12658E+05-3.12127E+05-1.71584E+05 8.70240E+05
 -1      1035-1.23496E+06-3.36970E+06 1.33033E+06-5.77511E+05 9.02786E+05 6.87103E+05
 -1      1036-2.37511E+06-1.96102E+06 1.91427E+06-1.14773E+05 2.03939E+06 7.06787E+05
 -1      1037 4.68182E+07-5.66295E+06 4.10503E+06-3.40183E+07-1.22032E+07 1.24210E+07
 -1      1038 8.50088E+07 6.03925E+06-1.20088E+06-2.97864E+07-2.71493E+06-1.41004E+07
 -1      1039 1.02294E+08 2.19179E+07-1.11908E+07-4.15542E+07 9.39582E+03 7.94608E+06
 -1      1040 9.76935E+07 3.13008E+07 1.31333E+07-2.34783E+07-4.29028E+06 6.19116E+05
 -1      1041 1.04311E+08 4.05654E+07 4.05655E+07-2.17777E+06-6.76658E+01 1.93879E+06
 -1      1042 1.45866E+08 5.67256E+07 5.67257E+07 1.22849E+06 7.29540E+01-1.21715E+07
 -1      1043 9.56108E+07 1.12819E+07-2.16550E+07 2.27140E+07-4.97562E+06-6.14902E+06
 -1      1044 6.30573E+07-6.32477E+06 1.18741E+07 3.27604E+07-8.34733E+06-2.11638E+07
 -1      1045 5.84479E+06-5.03534E+02-2.55811E+06-1.65067E+06 4.26390E+06-1.69541E+06
 -1      1046-1.64581E+06-3.48027E+04 2.75335E+06 9.09295E+05 3.32045E+05-1.52624E+06
 -1      1047-2.78570E+06-2.09609E+06-3.42635E+05 3.59224E+05 1.04814E+05-3.45087E+05
 -1      1048-2.81837E+06-2.13352E+06-3.81489E+05-4.56980E+05 1.05192E+05 2.99569E+05
 -1      1049-1.68156E+06 1.30914E+04 2.89659E+06-9.84448E+05 3.22074E+05 1.53849E+06
 -1      1050 6.14695E+06 6.31018E+04-2.69362E+06 1.65981E+06 4.66922E+06 1.74391E+06
 -1      1051 6.55617E+07-1.27513E+07 8.78580E+06-3.48736E+07-6.78882E+06 2.37658E+07
 -1      1052 9.89457E+07 3.68659E+06-1.99552E+07-2.91068E+07-3.74409E+06 3.99766E+06
 -1      1053 1.39501E+08 5.42503E+07 5.42503E+07-1.08761E+06 5.62460E+01 1.12442E+07
 -1      1054 1.62462E+08 6.31796E+07 6.31796E+07-2.79340E+05-3.10579E+01-3.31693E+06
 -1      1055 1.41172E+08 4.40313E+07 2.66091E+07 7.77750E+06-1.05228E+06-1.84043E+06
 -1      1056 1.01860E+08 1.28611E+07-1.83742E+07 1.55140E+07 4.49732E+05-5.75067E+06
 -1      1057 8.84072E+07-5.26014E+06-4.72596E+06 1.79420E+07-1.08032E+06 1.80514E+06
 -1      1058 8.28744E+07-2.84969E+07 9.70741E+06 1.46723E+07-3.34000E+06-9.74337E+06
 -1      1059 4.89908E+07-3.99913E+07-6.91135E+05-5.67182E+06-1.95045E+07-5.01633E+04
 -1      1060 2.24290E+07-5.03453E+07-8.72011E+06-7.39602E+06-2.18725E+07-1.51650E+07
 -1      1061 5.89440E+06-1.86794E+05-1.45853E+07-6.13130E+06 7.78671E+06 1.16586E+06
 -1      1062-4.88846E+06-7.98145E+05-9.30462E+06-9.05906E+05-1.11917E+06 2.17965E+06
 -1      1063-7.41705E+06-7.01961E+06 4.02051E+06 4.95258E+06 3.40904E+06-3.61545E+06
 -1      1064 1.51032E+05-1.37368E+06 2.85003E+06 1.00706E+06 1.42310E+06-4.19400E+05
 -1      1065-2.88166E+06-1.14096E+06-8.80403E+05 1.62378E+05 8.76904E+05 1.92030E+05
 -1      1066-3.95199E+06-1.39548E+06-1.59329E+06-4.51663E+04 8.08548E+05-2.17412E+04
 -1      1067-2.88548E+06-1.15416E+06-9.77370E+05-2.59035E+05 8.65965E+05-2.56098E+05
 -1      1068 2.93521E+05-1.33770E+06 2.98903E+06-1.15474E+06 1.43040E+06 4.36135E+05
 -1      1069-7.84540E+06-7.22665E+06 4.22596E+06-5.26447E+06 3.50146E+06 3.76733E+06
 -1      1070-5.21450E+06-9.71925E+05-9.84214E+06 9.83875E+05-1.12193E+06-2.36567E+06
 -1      1071 6.44961E+06-1.11634E+05-1.52815E+07 6.44083E+06 8.31439E+06-1.25459E+06
 -1      1072 2.42261E+07-5.30053E+07-9.27893E+06 9.16412E+06-2.33140E+07 1.60838E+07
 -1      1073 5.23060E+07-4.33654E+07-3.98990E+05 6.77822E+06-2.07114E+07 2.46766E+05
 -1      1074 8.84720E+07-3.39031E+07 1.06955E+07-1.55795E+07-4.11852E+06 9.13534E+06
 -1      1075 9.25557E+07-9.60295E+06-4.77219E+06-2.06391E+07-4.86520E+05-1.10449E+06
 -1      1076 1.01866E+08 8.13755E+06-2.06131E+07-1.90755E+07-4.53072E+05 6.61226E+06
 -1      1077 1.42696E+08 4.38651E+07 2.65301E+07-9.90785E+06 9.75121E+05 1.03875E+06
 -1      1078 1.65792E+08 6.44747E+07 6.44747E+07-3.91130E+05-1.73890E+01 1.37668E+06
 -1      1079 1.73016E+08 6.72841E+07 6.72842E+07 4.54550E+05-9.38249E+00-1.29589E+07
 -1      1080 1.02644E+08 9.26388E+06-1.80276E+07 3.59750E+06 1.54518E+06-8.07397E+06
 -1      1081 6.26909E+07-3.49481E+07 2.73637E+06-7.52869E+06-1.95205E+06-6.78296E+06
 -1      1082 1.04652E+07-9.42100E+07 1.44081E+06-2.23668E+07 1.19196E+07-1.05343E+07
 -1      1083-1.92195E+07-2.99236E+07 1.55450E+07 1.91603E+07 6.90335E+06-2.85423E+06
 -1      1084-3.67176E+04-4.37022E+06-8.98453E+06-6.13760E+05-1.99441E+06 1.40559E+06
 -1      1085-3.40816E+06-1.12832E+06 1.22945E+06 5.10154E+05 6.33429E+05-8.41832E+05
 -1      1086-3.43884E+06-1.11955E+06 1.36969E+06-5.88495E+05 6.54571E+05 8.43281E+05
 -1      1087 2.11456E+05-4.45566E+06-9.38632E+06 5.31242E+05-2.06105E+06-1.60826E+06
 -1      1088-2.03018E+07-3.06776E+07 1.63457E+07-2.01639E+07 7.57277E+06 3.01310E+06
 -1      1089 1.08899E+07-1.00081E+08 1.27128E+06 2.39923E+07 1.26791E+07 1.12443E+07
 -1      1090 6.56385E+07-3.90857E+07 3.01183E+06 7.67277E+06-2.65323E+06 6.73743E+06
 -1      1091 1.04962E+08 7.98063E+06-1.87336E+07-5.75618E+06 1.20549E+06 8.12790E+06
 -1      1092 1.78319E+08 6.93465E+07 6.93466E+07-7.74394E+05-6.45588E+00 1.34961E+07
 -1      1093 1.75407E+08 6.82137E+07 6.82138E+07 5.27275E+05 5.74884E+01-9.86583E+06
 -1      1094 1.45269E+08 4.12681E+07 2.81165E+07-4.17700E+06 4.51014E+05 8.30514E+05
 -1      1095 9.56606E+07 2.17217E+06-2.08345E+07-7.13634E+06-4.37137E+06-9.47336E+06
 -1      1096 7.05718E+07-1.50304E+07-1.08346E+07-1.42652E+07-3.39478E+04 3.33864E+06
 -1      1097 4.42415E+07-3.65813E+07-2.40003E+06-2.63335E+07 3.62104E+06-6.37341E+06
 -1      1098 2.62735E+07-5.91331E+07 1.38680E+07-4.28619E+07-5.01642E+06-1.53169E+06
 -1      1099-4.39916E+07-9.54634E+07 1.16348E+07-6.49393E+07 2.71837E+06-1.05056E+07
 -1      1100-2.75736E+08-2.06928E+08-5.07724E+07 3.35567E+07-2.40501E+07-1.79730E+07
 -1      1101-2.02740E+08-1.94016E+08-3.33159E+07 9.52094E+07 4.65982E+07-5.01637E+07
 -1      1102-3.29270E+07-1.86650E+07 1.55839E+07 1.90013E+07 2.51785E+06-5.66637E+06
 -1      1103-2.53618E+05 5.09071E+06-1.48762E+07-6.18457E+06-1.11196E+06-7.63234E+06
 -1      1104 6.13478E+04 5.47064E+06-2.45758E+06-1.82949E+06 1.61168E+06-4.26310E+06
 -1      1105-1.62640E+06-1.68689E+06 1.87557E+06 3.17655E+05 8.12772E+05-1.50701E+06
 -1      1106-4.56652E+06-2.06606E+06 1.72335E+06-5.62574E+04 1.06196E+06 1.40159E+05
 -1      1107-1.47109E+06-1.69364E+06 2.09044E+06-3.79224E+05 8.46304E+05 1.72052E+06
 -1      1108 1.53143E+05 5.62481E+06-2.55389E+06 1.96539E+06 1.64181E+06 4.61223E+06
 -1      1109-2.15783E+05 5.14121E+06-1.57305E+07 6.49164E+06-1.18472E+06 7.99802E+06
 -1      1110-3.52640E+07-1.94489E+07 1.64006E+07-1.99171E+07 2.50715E+06 5.65185E+06
 -1      1111-2.15636E+08-2.01250E+08-3.49088E+07-1.00427E+08 4.81485E+07 5.30888E+07
 -1      1112-2.93746E+08-2.15784E+08-5.37480E+07-3.49588E+07-2.53682E+07 1.90775E+07
 -1      1113-4.69008E+07-1.01380E+08 1.21919E+07 6.87946E+07 2.77637E+06 1.12902E+07
 -1      1114 2.76616E+07-6.31486E+07 1.47878E+07 4.48785E+07-4.85638E+06 1.64902E+06
 -1      1115 4.53429E+07-3.97590E+07-2.69862E+06 2.69973E+07 4.26386E+06 6.71713E+06
 -1      1116 7.21718E+07-1.74702E+07-1.14651E+07 1.40114E+07-6.61572E+04-3.59347E+06
 -1      1117 9.89212E+07 1.61661E+06-2.11504E+07 6.38345E+06-4.01385E+06 1.00295E+07
 -1      1118 1.50266E+08 4.23409E+07 2.92794E+07 3.82981E+06 6.06161E+05-6.39281E+05
 -1      1119 1.81464E+08 7.05695E+07 7.05696E+07-5.02901E+05 5.66859E+01 1.05830E+07
 -1      1120 1.54224E+08 5.99760E+07 5.99760E+07-3.50107E+06-7.04547E+01-7.08653E+06
 -1      1121 9.20279E+07-1.66842E+06-1.84289E+07-1.61643E+07 1.88095E+06-8.36671E+06
 -1      1122 2.47798E+07-4.12248E+07 1.72320E+06-3.30280E+07-2.57793E+06-8.89735E+06
 -1      1123-4.96668E+07-8.15866E+07 3.32346E+06-7.63799E+07 1.19670E+07-3.08017E+07
 -1      1124-2.06388E+08-2.72053E+08-4.98447E+07 3.99278E+07 1.58960E+07 2.09061E+07
 -1      1125-2.18259E+08-2.82121E+08-5.19944E+07-4.46117E+07 1.58085E+07-2.18767E+07
 -1      1126-5.30293E+07-8.55399E+07 3.51450E+06 8.01578E+07 1.20404E+07 3.26886E+07
 -1      1127 2.47419E+07-4.39706E+07 1.70482E+06 3.40400E+07-2.64129E+06 9.08684E+06
 -1      1128 9.51128E+07-1.97604E+06-1.89817E+07 1.60236E+07 1.95746E+06 8.80718E+06
 -1      1129 1.60576E+08 6.24463E+07 6.24464E+07 3.65990E+06-7.34722E+01 7.70795E+06
 -1      1130 1.25983E+08 4.89934E+07 4.89935E+07-8.02394E+06 6.42878E+01 2.00477E+07
 -1      1131 1.18578E+08 2.67995E+07 2.10901E+07-1.84751E+07-4.28237E+06 4.24217E+06
 -1      1132 8.68240E+07-5.07271E+06-1.63411E+07-2.45481E+07-2.72070E+06-4.21508E+06
 -1      1133 5.04606E+07-1.99579E+07-2.47468E+06-3.18787E+07 3.71044E+06 1.11999E+07
 -1      1134-1.47889E+06-5.08237E+07 2.55575E+06-4.07936E+07 3.18044E+06-7.24676E+06
 -1      1135-2.81529E+07-6.02006E+07-1.40541E+06-5.87168E+07 8.83225E+05 2.35576E+06
 -1      1136-6.93776E+07-7.29421E+07-1.03829E+07-7.60228E+07-9.80742E+06 1.22996E+07
 -1      1137-7.07044E+07-5.68731E+07 4.09771E+06-7.44561E+07 3.04822E+07-1.61893E+07
 -1      1138-7.74435E+07-5.98589E+07 1.17276E+07-6.41195E+07 1.09289E+07-3.91442E+06
 -1      1139-7.57242E+07 6.87148E+05 8.42444E+06-2.73593E+07 1.03909E+06-9.65111E+06
 -1      1140-4.44960E+07 2.27789E+06-3.12373E+06-6.56112E+06 1.28233E+07 1.38362E+07
 -1      1141-4.55284E+07 2.24182E+06-3.34539E+06 6.79048E+06 1.32599E+07-1.43734E+07
 -1      1142-7.74311E+07 5.35174E+05 8.90320E+06 2.81544E+07 9.73946E+05 1.00415E+07
 -1      1143-7.93329E+07-6.26121E+07 1.23486E+07 6.50384E+07 1.07924E+07 3.96940E+06
 -1      1144-7.38666E+07-5.91214E+07 4.26861E+06 7.64215E+07 3.15732E+07 1.74721E+07
 -1      1145-7.35410E+07-7.60424E+07-1.09661E+07 7.89731E+07-1.01592E+07-1.32645E+07
 -1      1146-3.01045E+07-6.30458E+07-1.40354E+06 6.10337E+07 1.08263E+06-2.54168E+06
 -1      1147-2.45545E+06-5.35342E+07 2.76277E+06 4.23361E+07 3.47566E+06 7.73844E+06
 -1      1148 5.08836E+07-2.16464E+07-3.00310E+06 3.28973E+07 4.00915E+06-1.16284E+07
 -1      1149 8.93948E+07-5.61291E+06-1.73600E+07 2.50161E+07-2.82345E+06 4.85474E+06
 -1      1150 1.23765E+08 2.81413E+07 2.21244E+07 1.88228E+07-4.30834E+06-4.35638E+06
 -1      1151 1.32078E+08 5.13637E+07 5.13637E+07 8.30906E+06 6.72330E+01-2.05597E+07
 -1      1152-3.56222E+07-5.82408E+07-1.41869E+06-2.91537E+07-1.08293E+07-1.15813E+07
 -1      1153-5.54215E+07-3.02911E+07-3.02820E+04-6.06332E+07-1.46595E+06-4.10117E+05
 -1      1154-4.82031E+07 1.12498E+07 1.03527E+07-5.03964E+07-5.72441E+05 6.80075E+06
 -1      1155-3.56567E+07 7.15987E+06-8.12562E+06-1.56148E+07 1.66691E+06 1.79205E+07
 -1      1156-3.67869E+07 7.02048E+06-8.54503E+06 1.59833E+07 1.87079E+06-1.82925E+07
 -1      1157-4.95858E+07 1.09171E+07 1.07111E+07 5.15582E+07-4.62074E+05-7.31462E+06
 -1      1158-5.81172E+07-3.18565E+07-1.06286E+05 6.28805E+07-1.42564E+06 1.89682E+05
 -1      1159-3.73287E+07-6.04562E+07-1.25077E+06 3.04881E+07-1.15848E+07 1.21952E+07
 -1      1160-4.30744E+07-4.12445E+07 8.91613E+06-1.71707E+07 1.34161E+07-1.14126E+07
 -1      1161-6.01465E+07-3.80239E+07-1.98911E+06-3.11359E+07 1.10266E+07 1.00600E+07
 -1      1162-4.76893E+07-6.07677E+06 3.41729E+06-4.41401E+07 6.70944E+06-3.18176E+06
 -1      1163-3.64176E+07 2.43045E+07 1.45779E+06-4.13774E+07 1.07060E+07 3.73889E+06
 -1      1164-2.81791E+07 4.91430E+07-2.90296E+06-3.97464E+07 4.27508E+06-2.24497E+06
 -1      1165-1.77412E+07 5.69735E+07 2.10350E+06-3.11720E+07 1.53231E+07-1.41886E+06
 -1      1166-1.86975E+07 5.68514E+07 1.69283E+06-2.77190E+07 1.78058E+07-7.04662E+05
 -1      1167-1.90622E+07 5.84449E+07 1.83157E+06 2.84346E+07 1.82702E+07 6.04964E+05
 -1      1168-1.81526E+07 5.85759E+07 2.21250E+06 3.19164E+07 1.58897E+07 1.51920E+06
 -1      1169-2.92567E+07 5.03072E+07-3.12234E+06 4.07268E+07 4.32774E+06 2.56410E+06
 -1      1170-3.74635E+07 2.48739E+07 1.59440E+06 4.24772E+07 1.12304E+07-3.99054E+06
 -1      1171-4.91499E+07-6.75073E+06 3.60329E+06 4.55753E+07 6.91028E+06 3.32554E+06
 -1      1172-6.28589E+07-3.99212E+07-2.24161E+06 3.25634E+07 1.13364E+07-1.04021E+07
 -1      1173-4.50788E+07-4.26179E+07 9.26309E+06 1.82532E+07 1.43454E+07 1.16294E+07
 -1      1174-2.13759E+07 4.66114E+07-4.04025E+06-3.17634E+07-1.31234E+07-1.42599E+06
 -1      1175-1.31888E+07 7.92659E+07-8.78628E+06-2.12821E+07 1.96458E+06 5.08128E+05
 -1      1176 3.56541E+06 1.39769E+08 5.69194E+06-1.33505E+07 4.21950E+06-1.97593E+06
 -1      1177 3.83302E+06 1.44196E+08 5.92466E+06 1.35750E+07 4.21372E+06 2.01896E+06
 -1      1178-1.36018E+07 8.16916E+07-9.13844E+06 2.16254E+07 2.01373E+06-5.15847E+05
 -1      1179-2.18687E+07 4.78605E+07-4.20750E+06 3.24142E+07-1.34758E+07 1.58095E+06
 -1      1180-6.41528E+06 9.00734E+07-1.72600E+07-2.48770E+07 6.75828E+06 1.24757E+06
 -1      1181-3.00036E+06 9.28198E+07-1.80942E+07-1.56839E+07 7.70109E+06-1.42685E+06
 -1      1182-4.10886E+06 9.38681E+07-2.06703E+07-5.57016E+06 1.09028E+07 2.29564E+06
 -1      1183-7.61599E+06 1.17230E+08-2.21561E+07 7.57592E+06 5.86852E+06-2.33053E+05
 -1      1184 8.79797E+05 1.34185E+08-2.20751E+07 3.29759E+07 1.15118E+07 4.62249E+06
 -1      1185 2.03093E+07 6.85873E+07-1.96490E+07 5.14816E+07 1.36026E+07 1.97525E+07
 -1      1186 4.26493E+07 3.36918E+07-7.81161E+06 3.55946E+07 3.12142E+06 1.92073E+06
 -1      1187 5.34447E+07 2.99335E+07-6.13559E+06-7.24691E+05 1.79681E+07-4.05627E+04
 -1      1188 4.29936E+07 3.42003E+07-8.16166E+06-3.71850E+07 3.41374E+06-2.27592E+06
 -1      1189 2.07421E+07 7.06676E+07-2.02189E+07-5.33709E+07 1.40232E+07-2.04012E+07
 -1      1190 9.56309E+05 1.38475E+08-2.28106E+07-3.42392E+07 1.19041E+07-4.76006E+06
 -1      1191-7.77179E+06 1.21013E+08-2.29134E+07-8.09007E+06 6.08060E+06 2.22751E+05
 -1      1192-4.08517E+06 9.70305E+07-2.13660E+07 5.44603E+06 1.13341E+07-2.37546E+06
 -1      1193-3.03497E+06 9.59812E+07-1.87834E+07 1.58395E+07 8.06741E+06 1.52241E+06
 -1      1194-6.69805E+06 9.31576E+07-1.80173E+07 2.52610E+07 7.21615E+06-1.40512E+06
 -1      1195 2.69835E+07 1.21164E+08 2.11391E+07-1.99769E+07-3.43117E+06 3.08589E+06
 -1      1196 4.10120E+07 1.48195E+08 3.00766E+07-3.47730E+06-3.80932E+06-3.27832E+06
 -1      1197 3.12155E+07 1.29212E+08 1.49731E+07 2.42299E+07-1.44601E+06 3.03305E+06
 -1      1198 2.66506E+07 4.63733E+07 5.85319E+06 1.65123E+07-3.33570E+06 5.53527E+06
 -1      1199 2.71671E+07 4.74571E+07 6.00686E+06-1.73455E+07-3.48046E+06-5.43914E+06
 -1      1200 3.22287E+07 1.33369E+08 1.54417E+07-2.51014E+07-1.46779E+06-3.07037E+06
 -1      1201 4.25316E+07 1.53394E+08 3.11640E+07 3.41822E+06-3.93153E+06 3.38061E+06
 -1      1202 2.81248E+07 1.25982E+08 2.20370E+07 2.04133E+07-3.52985E+06-3.26121E+06
 -1      1203 4.85798E+07 1.24919E+08 4.85799E+07-8.46210E+06-2.37405E+07-8.87624E+01
 -1      1204 6.12761E+07 1.57567E+08 6.12761E+07-3.93042E+06 6.07732E+06 9.86813E+01
 -1      1205 7.09702E+07 1.82494E+08 7.09702E+07 3.87943E+04 8.51465E+06-4.65138E+01
 -1      1206 6.50047E+07 1.67155E+08 6.50047E+07 1.24552E+06 1.76646E+07-3.12596E+01
 -1      1207 5.44669E+07 1.40058E+08 5.44669E+07 3.63826E+06-7.31001E+06 6.79516E-01
 -1      1208 3.72943E+07 9.58995E+07 3.72943E+07 3.24335E+06 1.04338E+06-7.46197E+01
 -1      1209 2.51598E+07 6.46968E+07 2.51600E+07-5.73483E+05 2.04039E+07 3.48993E+01
 -1      1210 2.17472E+07 5.59216E+07 2.17473E+07-1.88760E+04 1.25908E+06-3.37939E-01
 -1      1211 2.57973E+07 6.63360E+07 2.57974E+07 5.15531E+05 2.06963E+07-3.42483E+01
 -1      1212 3.84388E+07 9.88426E+07 3.84389E+07-3.37192E+06 1.03598E+06 7.71398E+01
 -1      1213 5.62267E+07 1.44583E+08 5.62267E+07-3.76261E+06-7.49646E+06-1.05374E+00
 -1      1214 6.71966E+07 1.72791E+08 6.71966E+07-1.29477E+06 1.82517E+07 3.25889E+01
 -1      1215 7.34519E+07 1.88876E+08 7.34519E+07-4.97425E+04 8.86035E+06 4.77349E+01
 -1      1216 6.35882E+07 1.63512E+08 6.35882E+07 4.03515E+06 6.40299E+06-1.01337E+02
 -1      1217 5.06307E+07 1.30193E+08 5.06307E+07 8.72304E+06-2.42487E+07 9.14999E+01
 -1      1218-8.04021E+07-7.21618E+07-5.68316E+07-3.64053E+07-6.73356E+07-7.59719E+07
 -1      1219-3.55413E+06 4.43311E+06-1.95566E+06 2.03553E+06-1.52237E+06-5.30130E+06
 -1      1220-7.09027E+06-2.45086E+06-3.67594E+06-2.03377E+05-2.86488E+06-3.83354E+06
 -1      1221-7.22171E+06-2.98191E+06-3.23075E+06-1.43091E+03-3.54319E+06 3.84560E+06
 -1      1222-2.02676E+06 6.54985E+06-1.24205E+05-2.22010E+06-1.82334E+06 6.32213E+06
 -1      1223-7.20760E+07-8.38364E+07-5.77384E+07 3.72786E+07-7.93200E+07 6.70120E+07
 -1      1224 6.07393E+06-2.27990E+06-3.93826E+05 2.11408E+06-6.12569E+06-1.75046E+06
 -1      1225-6.15488E+06-5.50429E+06 5.65497E+06-5.32978E+06 2.38533E+06 2.95167E+06
 -1      1226-5.32032E+06-2.46917E+06-3.18821E+05-7.82199E+05-9.91056E+05-9.76184E+05
 -1      1227-5.34753E+06-2.37553E+06-3.44832E+05 9.00342E+05-1.16630E+06 9.36287E+05
 -1      1228-5.49586E+06-6.39445E+06 5.74918E+06 5.38166E+06 3.18276E+06-2.35773E+06
 -1      1229 4.23054E+06-3.79728E+06-2.31958E+06-2.11166E+06-5.11552E+06 1.50018E+06
 -1      1230-2.81799E+06-7.06512E+06-3.28758E+06-2.75937E+04-3.75146E+06-3.36150E+06
 -1      1231-2.41780E+06-5.26374E+06-3.65661E+05-9.06636E+05-8.94260E+05-1.13384E+06
 -1      1232-4.82265E+06-4.73136E+06-1.40266E+05-1.87690E+05-4.04736E+05-4.10776E+05
 -1      1233-4.78234E+06-4.82997E+06-1.51760E+05 1.17312E+05-3.82368E+05 4.04265E+05
 -1      1234-2.47685E+06-5.34458E+06-3.20061E+05 7.18106E+05-9.99029E+05 1.00207E+06
 -1      1235-2.50149E+06-7.18361E+06-3.83890E+06 2.36658E+05-3.86349E+06 2.85586E+06
 -1      1236-2.54721E+06-6.95055E+06-3.22899E+06 5.20086E+04 3.57145E+06-3.10357E+06
 -1      1237-2.44799E+06-5.24055E+06-3.15577E+05 7.73211E+05 9.04256E+05-1.07951E+06
 -1      1238-4.80973E+06-4.73307E+06-1.40399E+05 9.53318E+04 4.04778E+05-4.17307E+05
 -1      1239-4.83706E+06-4.77134E+06-1.52658E+05-2.40493E+05 4.06077E+05 3.80308E+05
 -1      1240-2.39470E+06-5.35272E+06-3.07476E+05-9.80168E+05 9.92040E+05 1.12348E+06
 -1      1241-2.81992E+06-7.21958E+06-3.31141E+06-1.11179E+05 4.05350E+06 3.33684E+06
 -1      1242 5.38909E+06-2.66046E+06-7.71109E+05-1.96773E+06 5.76306E+06-1.65441E+06
 -1      1243-5.83635E+06-5.53667E+06 5.43954E+06 5.11399E+06-2.37477E+06 2.61148E+06
 -1      1244-5.32304E+06-2.39409E+06-2.70633E+05 7.28690E+05 1.03574E+06-9.93857E+05
 -1      1245-5.34546E+06-2.41684E+06-3.29616E+05-9.26342E+05 1.05765E+06 9.83119E+05
 -1      1246-6.09134E+06-5.65368E+06 5.70428E+06-5.48873E+06-2.47726E+06-2.87331E+06
 -1      1247 5.83987E+06-2.57094E+06-6.90266E+05 2.06072E+06 6.19634E+06 1.69618E+06
 -1      1248-7.50546E+07-7.13917E+07-5.50082E+07 3.48527E+07 6.69983E+07-7.08501E+07
 -1      1249-3.25870E+06 4.67039E+06-1.50465E+06-1.93773E+06 1.51431E+06-5.40079E+06
 -1      1250-7.06604E+06-2.47602E+06-3.36443E+06 1.60068E+05 2.92725E+06-3.73507E+06
 -1      1251-7.19393E+06-2.63308E+06-3.64998E+06-2.30839E+05 3.00644E+06 4.05299E+06
 -1      1252-3.40655E+06 4.74373E+06-1.71658E+06 2.00731E+06 1.53255E+06 5.62280E+06
 -1      1253-7.97094E+07-7.40706E+07-5.76433E+07-3.65975E+07 6.93572E+07 7.52496E+07
 -1      1254-2.51329E+07-2.07174E+07-2.71814E+07-1.30608E+07-3.81109E+07-4.34261E+07
 -1      1255-1.66264E+07-4.74130E+06 3.37048E+05-8.43561E+06-3.24610E+06-9.02250E+06
 -1      1256-1.24025E+07-2.91949E+05-6.50902E+05-2.48256E+06-2.15248E+06-5.10477E+06
 -1      1257-5.92991E+06 2.63610E+06 3.19373E+06-6.63210E+05 1.01191E+05-2.13757E+06
 -1      1258-9.91549E+06-7.80545E+05-2.01516E+06-2.00965E+03-1.35399E+06-1.98600E+06
 -1      1259-8.72934E+06-2.80825E+05-1.17881E+06 1.57568E+04-1.04676E+06 4.64488E+04
 -1      1260-9.63088E+06-7.11418E+05-1.63811E+06 6.28015E+04-1.77668E+06 2.05924E+06
 -1      1261-6.00573E+06 2.47951E+06 2.88546E+06 8.81200E+05 4.28391E+05 2.62609E+06
 -1      1262-1.03627E+07 6.87519E+05 4.88673E+05 2.26127E+06-2.42624E+06 5.99296E+06
 -1      1263-1.23212E+07-5.20646E+06-1.12992E+06 8.34082E+06-3.84894E+06 9.42486E+06
 -1      1264-2.02063E+07-2.65127E+07-2.75747E+07 1.33461E+07-4.53726E+07 3.77938E+07
 -1      1265-5.03314E+06-1.28425E+07-8.64605E+05-8.23499E+06-9.27757E+06-3.71271E+06
 -1      1266-9.90320E+06-4.18407E+06-3.59518E+06-4.47721E+06-2.28222E+06-3.30981E+06
 -1      1267-9.69222E+06-2.04974E+06 8.62227E+04-9.10263E+05-9.09782E+04 2.66662E+05
 -1      1268-9.47713E+06-2.08627E+06 8.01065E+04 1.04413E+06-5.49933E+04-1.45376E+05
 -1      1269-9.86829E+06-4.40374E+06-3.38157E+06 4.24295E+06-3.12758E+06 2.93148E+06
 -1      1270-4.78472E+06-1.77002E+07 5.88810E+05 8.62399E+06-9.05053E+06 3.18785E+06
 -1      1271 5.21388E+05-1.05531E+07 3.08712E+05-2.29372E+06-5.80095E+06-2.34366E+06
 -1      1272-4.32409E+06-9.74519E+06-3.37725E+06-4.27206E+06-2.93763E+06-2.92979E+06
 -1      1273-5.40797E+06-5.02491E+06 3.63466E+06-5.32002E+06 1.48033E+06 1.72762E+06
 -1      1274-7.08302E+06-4.55835E+06 6.81179E+05-3.06314E+06-3.81043E+05 6.16663E+05
 -1      1275-8.04831E+06-3.96202E+06-2.10831E+05-1.46282E+06-9.26404E+05-7.01655E+05
 -1      1276-8.32916E+06-4.00527E+06-5.23015E+05 6.46842E+04-1.19233E+06-2.62383E+04
 -1      1277-8.03302E+06-4.01935E+06-2.15083E+05 1.58887E+06-1.01837E+06 6.94139E+05
 -1      1278-6.92819E+06-4.84949E+06 7.69367E+05 3.06879E+06-3.47342E+05-5.15801E+05
 -1      1279-5.03325E+06-5.53599E+06 3.69541E+06 5.33129E+06 1.85054E+06-1.48352E+06
 -1      1280-4.22501E+06-1.00530E+07-3.69970E+06 4.53237E+06-3.43888E+06 2.21019E+06
 -1      1281-4.59335E+05-1.29421E+07-8.61111E+05 2.52307E+06-4.96765E+06 2.16146E+06
 -1      1282 2.46532E+06-5.90718E+06 2.87323E+06-8.49115E+05-2.53632E+06 3.66424E+05
 -1      1283-4.77549E+06-6.84969E+06 7.43261E+05-3.08061E+06 5.24397E+05-3.70379E+05
 -1      1284-7.30396E+06-5.56530E+06 1.88969E+04-7.77591E+05-5.51095E+04-2.13287E+05
 -1      1285-7.27300E+06-5.66479E+06 3.68858E+04 7.57971E+05-7.73646E+04 2.07735E+05
 -1      1286-4.58006E+06-7.17273E+06 6.76982E+05 3.03666E+06 6.62074E+05 3.85628E+05
 -1      1287 2.72306E+06-5.94678E+06 3.32874E+06 6.10105E+05-2.02989E+06-4.39395E+04
 -1      1288-7.16797E+05-9.51621E+06-1.71155E+06-7.05291E+04-2.00195E+06-1.66531E+06
 -1      1289-2.06535E+06-9.35148E+06 1.00413E+05-1.04132E+06 1.56259E+05-7.64020E+04
 -1      1290-4.01487E+06-7.91509E+06-2.26486E+05-1.59542E+06-6.64622E+05-1.00684E+06
 -1      1291-5.65527E+06-7.17470E+06 2.88877E+04-8.17908E+05-1.99731E+05-8.43523E+04
 -1      1292-7.20055E+06-7.07373E+06-1.99882E+05-3.58249E+05-2.68069E+05-2.74488E+05
 -1      1293-7.00589E+06-6.78749E+06-8.33366E+04-4.80598E+04-1.88910E+05-1.34796E+04
 -1      1294-7.14800E+06-7.20643E+06-2.05939E+05 2.58470E+05-2.54299E+05 2.67375E+05
 -1      1295-5.61024E+06-7.33499E+06 2.28705E+04 6.96243E+05-2.00678E+05 4.70307E+04
 -1      1296-3.98836E+06-8.10528E+06-2.13297E+05 1.38196E+06-7.08400E+05 9.36412E+05
 -1      1297-2.07422E+06-9.82219E+06 7.70810E+04 8.46749E+05 3.20310E+05 7.19515E+04
 -1      1298-8.16193E+05-1.00740E+07-2.11617E+06-3.28627E+04-1.97417E+06 1.33179E+06
 -1      1299-2.49244E+05-8.51287E+06-1.10284E+06-2.77276E+04-6.64519E+04-1.06505E+06
 -1      1300-3.99988E+06-8.15719E+06-5.05004E+05-9.42421E+04 3.66991E+03-1.20740E+06
 -1      1301-6.84334E+06-6.90830E+06-8.36365E+04-7.08871E+04 2.57623E+03-2.07042E+05
 -1      1302-6.82493E+06-6.98446E+06-8.37739E+04-9.06797E+04 1.07065E+02 1.90121E+05
 -1      1303-4.02937E+06-8.39342E+06-5.27374E+05-1.73228E+05-1.59582E+04 1.17794E+06
 -1      1304-2.94182E+05-8.84345E+06-1.22717E+06-5.04952E+04 1.30100E+05 1.02055E+06
 -1      1305-6.81910E+05-9.50239E+06-1.69765E+06 1.58065E+04 1.87235E+06-1.53753E+06
 -1      1306-2.05450E+06-9.36362E+06 8.48259E+04 9.01082E+05-1.68105E+05-9.94410E+04
 -1      1307-3.99114E+06-7.88519E+06-2.02250E+05 1.40609E+06 6.67428E+05-9.71405E+05
 -1      1308-5.63822E+06-7.16225E+06 2.17722E+04 6.71110E+05 2.11415E+05-7.94260E+04
 -1      1309-7.18170E+06-7.06391E+06-1.96905E+05 2.19786E+05 2.70905E+05-2.84265E+05
 -1      1310-7.01742E+06-6.74156E+06-8.19933E+04-1.07419E+05 2.03983E+05-1.33461E+04
 -1      1311-7.21455E+06-7.12544E+06-2.04711E+05-4.39395E+05 2.74020E+05 2.55145E+05
 -1      1312-5.66452E+06-7.27757E+06 3.45232E+04-9.16453E+05 2.20901E+05 6.65879E+04
 -1      1313-4.00911E+06-8.05414E+06-2.00437E+05-1.72405E+06 7.20682E+05 9.91300E+05
 -1      1314-2.09175E+06-9.58554E+06 6.38034E+04-1.12601E+06-1.53529E+05 5.75549E+04
 -1      1315-7.13770E+05-9.74580E+06-1.69688E+06-9.75486E+04 2.21190E+06 1.66780E+06
 -1      1316 2.43991E+06-5.89017E+06 2.86087E+06 7.59320E+05 2.32806E+06 2.61768E+05
 -1      1317-4.68512E+06-6.84065E+06 7.06962E+05 2.90607E+06-5.20066E+05-4.00907E+05
 -1      1318-7.29684E+06-5.53679E+06 2.62437E+04 6.56806E+05 6.74085E+04-2.33041E+05
 -1      1319-7.33218E+06-5.58139E+06 2.69357E+04-9.10690E+05 6.45622E+04 1.99574E+05
 -1      1320-4.77013E+06-6.98438E+06 7.46577E+05-3.25219E+06-5.30941E+05 3.67682E+05
 -1      1321 2.52877E+06-6.01073E+06 2.98677E+06-8.76036E+05 2.63199E+06-3.09460E+05
 -1      1322 3.06285E+05-1.07994E+07 5.35148E+04 2.29351E+06 5.46393E+06-2.21297E+06
 -1      1323-4.20300E+06-9.59662E+06-3.32466E+06 4.18179E+06 2.93920E+06-2.64170E+06
 -1      1324-5.26174E+06-5.06319E+06 3.50128E+06 5.11048E+06-1.43497E+06 1.53218E+06
 -1      1325-7.00695E+06-4.54946E+06 6.83499E+05 2.90694E+06 3.99567E+05 5.50741E+05
 -1      1326-8.03195E+06-3.91459E+06-1.84925E+05 1.36515E+06 9.37199E+05-7.13437E+05
 -1      1327-8.36866E+06-3.96406E+06-5.13715E+05-1.46840E+05 1.15535E+06 4.96736E+02
 -1      1328-8.08505E+06-3.95724E+06-2.17931E+05-1.66656E+06 9.62016E+05 6.99637E+05
 -1      1329-7.10034E+06-4.61450E+06 6.98248E+05-3.25764E+06 3.91649E+05-6.12464E+05
 -1      1330-5.38829E+06-5.13676E+06 3.66876E+06-5.54124E+06-1.51392E+06-1.69088E+06
 -1      1331-4.34075E+06-9.89571E+06-3.44805E+06-4.47950E+06 3.03465E+06 2.83593E+06
 -1      1332 3.75619E+05-1.10235E+07 1.23272E+05-2.42717E+06 5.86130E+06 2.29800E+06
 -1      1333-4.76032E+06-1.34025E+07-5.33073E+05 7.99499E+06 8.96827E+06-3.51792E+06
 -1      1334-9.69148E+06-4.12499E+06-3.41226E+06 4.27753E+06 2.35505E+06-3.12341E+06
 -1      1335-9.61076E+06-2.04221E+06 4.91091E+04 8.59289E+05 7.42302E+04 2.09363E+05
 -1      1336-9.69983E+06-2.05902E+06 7.78658E+04-1.06698E+06 6.17160E+04-2.44395E+05
 -1      1337-9.98328E+06-4.25007E+06-3.60486E+06-4.62132E+06 2.39974E+06 3.27067E+06
 -1      1338-5.03331E+06-1.36038E+07-6.94325E+05-8.38248E+06 9.45604E+06 3.69432E+06
 -1      1339-2.30475E+07-2.10836E+07-2.63491E+07 1.25362E+07 3.81054E+07-4.04752E+07
 -1      1340-1.51006E+07-4.63260E+06 7.19269E+02 8.08658E+06 3.30409E+06-8.86406E+06
 -1      1341-1.16690E+07-7.07790E+04-3.99304E+05 2.38633E+06 2.10356E+06-5.16339E+06
 -1      1342-5.95170E+06 2.52029E+06 3.02571E+06 6.84003E+05-1.29252E+05-2.18541E+06
 -1      1343-9.76968E+06-7.07162E+05-1.78209E+06-6.58051E+03 1.43168E+06-1.96532E+06
 -1      1344-8.80947E+06-2.84766E+05-1.20441E+06-4.83075E+04 9.89416E+05 1.08652E+05
 -1      1345-9.92896E+06-7.86007E+05-1.96576E+06-7.61996E+04 1.44079E+06 2.17541E+06
 -1      1346-5.96422E+06 2.63879E+06 3.18564E+06-7.55249E+05-1.30632E+05 2.36031E+06
 -1      1347-1.22491E+07-1.66720E+05-5.09566E+05-2.55394E+06 2.16871E+06 5.36804E+06
 -1      1348-1.61833E+07-4.83283E+06 1.30311E+05-8.51868E+06 3.37563E+06 9.27864E+06
 -1      1349-2.46895E+07-2.16613E+07-2.76042E+07-1.31522E+07 3.93811E+07 4.30126E+07
 -1      1350-1.43630E+07-1.06171E+07-8.54557E+06-1.17963E+07-1.31552E+07-1.52175E+07
 -1      1351-1.60513E+07-7.92209E+05 5.53251E+05-4.64845E+06-9.49022E+05-1.71345E+06
 -1      1352-1.15997E+07 2.61945E+05 6.38718E+05-5.33878E+05-3.76433E+05-2.27665E+05
 -1      1353-1.13727E+07 2.27620E+05 6.51980E+05 6.68592E+05-4.59979E+05 4.15742E+05
 -1      1354-1.40168E+07-1.84605E+05 9.48630E+05 4.46186E+06-1.11878E+06 2.44320E+06
 -1      1355-1.00341E+07-1.53840E+07-8.66208E+06 1.20101E+07-1.58989E+07 1.29570E+07
 -1      1356-2.80101E+05-1.41649E+07 8.66899E+05-4.46879E+06-2.31065E+06-1.07539E+06
 -1      1357-8.32182E+06-7.90516E+06 2.46204E+05-6.85329E+06-6.48287E+05-6.67710E+05
 -1      1358-1.08523E+07-5.34383E+06-2.35688E+05-1.81239E+06-5.16400E+05-2.13253E+05
 -1      1359-1.07859E+07-5.42320E+06-1.85085E+05 1.96487E+06-5.36790E+05 2.10874E+05
 -1      1360-7.95457E+06-8.49106E+06 2.41306E+05 6.86831E+06-6.65281E+05 6.51182E+05
 -1      1361-9.13955E+05-1.66474E+07 4.96727E+05 4.70914E+06-1.56631E+06 9.42789E+05
 -1      1362 2.20808E+05-1.12345E+07 6.09858E+05-6.60241E+05-3.75997E+05-4.39837E+05
 -1      1363-5.40238E+06-1.06222E+07-1.89620E+05-1.97982E+06-2.05663E+05-5.37829E+05
 -1      1364-9.31723E+06-9.15609E+06-2.38785E+04-5.06557E+05-1.68451E+05-1.67645E+05
 -1      1365-9.24725E+06-9.31630E+06-1.93167E+04 3.76460E+05-1.55098E+05 1.72364E+05
 -1      1366-5.38450E+06-1.09426E+07-2.45637E+05 1.70692E+06-2.10458E+05 5.17756E+05
 -1      1367 2.84106E+05-1.17225E+07 6.73221E+05 4.80527E+05-1.70874E+05 3.71900E+05
 -1      1368 2.28298E+05-1.12515E+07 6.01420E+05 5.53523E+05 2.97677E+05-4.22737E+05
 -1      1369-5.37622E+06-1.05985E+07-1.97081E+05 1.73594E+06 2.05932E+05-5.35864E+05
 -1      1370-9.29797E+06-9.14375E+06-2.57943E+04 3.24034E+05 1.68963E+05-1.76598E+05
 -1      1371-9.32984E+06-9.21487E+06-1.88046E+04-6.16036E+05 1.74296E+05 1.57303E+05
 -1      1372-5.41880E+06-1.08374E+07-2.01422E+05-2.14456E+06 2.22889E+05 5.31707E+05
 -1      1373 2.44941E+05-1.14834E+07 6.73739E+05-7.15153E+05 4.63389E+05 4.45530E+05
 -1      1374-3.86507E+05-1.43467E+07 7.62634E+05 4.39115E+06 2.11554E+06-1.01130E+06
 -1      1375-8.11088E+06-7.88681E+06 2.47030E+05 6.58469E+06 6.58239E+05-6.75376E+05
 -1      1376-1.08253E+07-5.29125E+06-2.16193E+05 1.68359E+06 5.17445E+05-2.20607E+05
 -1      1377-1.08940E+07-5.33876E+06-2.28226E+05-2.07874E+06 5.20252E+05 2.16157E+05
 -1      1378-8.32292E+06-8.05181E+06 2.51811E+05-7.14241E+06 6.73817E+05 6.76867E+05
 -1      1379-3.65250E+05-1.46729E+07 8.28641E+05-4.65171E+06 2.32156E+06 1.05842E+06
 -1      1380-1.28776E+07-1.12123E+07-8.29330E+06 1.13886E+07 1.32723E+07-1.41908E+07
 -1      1381-1.52297E+07-6.16978E+05 6.23207E+05 4.48166E+06 9.51291E+05-1.86646E+06
 -1      1382-1.15040E+07 2.59183E+05 6.58930E+05 5.10897E+05 4.00367E+05-2.85930E+05
 -1      1383-1.16007E+07 2.62362E+05 6.63837E+05-6.55997E+05 3.94970E+05 3.49879E+05
 -1      1384-1.59292E+07-7.14958E+05 6.07667E+05-4.77489E+06 9.71749E+05 1.89556E+06
 -1      1385-1.39353E+07-1.13660E+07-8.69107E+06-1.19392E+07 1.36713E+07 1.50826E+07
 -1      1386-1.16556E+07-8.44316E+06-5.95775E+06-1.18021E+07-5.97642E+06-7.35178E+06
 -1      1387-1.77181E+07-4.72153E+06 5.51214E+05-1.12222E+07 9.23630E+05-2.35766E+06
 -1      1388-2.11836E+07-2.11669E+06-4.08615E+05-7.09942E+06-2.22409E+06-1.51814E+06
 -1      1389-1.46041E+07 3.52116E+05-8.78236E+04-2.43185E+06-9.76703E+05-1.31971E+06
 -1      1390-1.43594E+07 3.07307E+05 8.69662E+05-1.06940E+06 2.79018E+04 5.20811E+05
 -1      1391-1.55146E+07-2.95988E+05-4.86048E+05 9.52576E+04-1.43542E+05 2.89313E+04
 -1      1392-1.40882E+07 2.85773E+05 9.07489E+05 1.27423E+06 9.39944E+03-3.43863E+05
 -1      1393-1.43236E+07 1.99211E+05-1.28025E+05 2.66750E+06-9.84808E+05 1.22253E+06
 -1      1394-1.87551E+07-1.47631E+06 7.49254E+04 7.01649E+06-2.52842E+06 1.74280E+06
 -1      1395-1.36007E+07-4.82396E+06 3.21082E+03 1.11720E+07 1.17069E+06 2.43643E+06
 -1      1396-7.88814E+06-1.24765E+07-6.03500E+06 1.19659E+07-7.76514E+06 5.80140E+06
 -1      1397-4.73911E+06-1.41141E+07 1.01033E+05-1.10684E+07-2.40062E+06 1.10799E+06
 -1      1398-1.58345E+07-5.68085E+06-1.05408E+06-8.63317E+06-7.58190E+05-4.12161E+04
 -1      1399-1.50259E+07-2.89193E+06 4.92458E+05-1.83223E+06 2.82432E+05 3.39609E+05
 -1      1400-1.48142E+07-3.01078E+06 4.28659E+05 2.05092E+06 3.03610E+05-2.55830E+05
 -1      1401-1.52262E+07-5.86072E+06-9.98029E+05 8.59408E+06-1.01452E+06-1.66340E+05
 -1      1402-4.79148E+06-1.87114E+07 6.49969E+05 1.13857E+07-2.37362E+06-9.02837E+05
 -1      1403-1.55747E+06-1.89075E+07-1.32124E+04-6.98360E+06-1.68465E+06-2.44130E+06
 -1      1404-5.77324E+06-1.51224E+07-1.00024E+06-8.56028E+06 1.37945E+05-9.57542E+05
 -1      1405-9.55585E+06-9.11298E+06 7.68950E+05-8.41587E+06-7.34894E+05-6.34999E+05
 -1      1406-1.18813E+07-7.50447E+06 4.95598E+05-4.58743E+06-5.41257E+05 7.99876E+04
 -1      1407-1.36814E+07-6.78507E+06-3.36792E+05-2.17415E+06-2.71306E+05-3.21609E+05
 -1      1408-1.34773E+07-6.41780E+06-1.43632E+04 9.61522E+04-2.55173E+05-1.30520E+04
 -1      1409-1.35769E+07-6.91634E+06-3.03031E+05 2.35847E+06-3.16260E+05 2.98935E+05
 -1      1410-1.15467E+07-7.89266E+06 4.88364E+05 4.70447E+06-4.95670E+05 2.79472E+04
 -1      1411-9.17230E+06-9.73245E+06 7.76156E+05 8.43378E+06-6.08745E+05 7.58995E+05
 -1      1412-5.76027E+06-1.61742E+07-1.07699E+06 8.69194E+06-8.46192E+04 7.29731E+05
 -1      1413-2.27615E+06-2.19336E+07-4.95820E+05 7.17104E+06-1.48861E+06 2.22272E+06
 -1      1414 2.32732E+05-1.41524E+07-1.19002E+05-2.62677E+06-1.23746E+06-9.72784E+05
 -1      1415-7.78662E+06-1.14340E+07 4.81950E+05-4.70897E+06-1.32674E+04-5.01742E+05
 -1      1416-1.22780E+07-9.46560E+06-2.26086E+05-1.27343E+06 1.60979E+05-1.73183E+05
 -1      1417-1.22024E+07-9.62523E+06-2.25550E+05 1.26718E+06 1.35255E+05 1.65180E+05
 -1      1418-7.55625E+06-1.20453E+07 5.06069E+05 4.51902E+06 1.02786E+05 5.57396E+05
 -1      1419 3.77504E+05-1.48162E+07-8.18109E+04 2.37455E+06-1.34859E+06 9.91119E+05
 -1      1420 2.69588E+05-1.39316E+07 8.47651E+05-1.24913E+06 3.64780E+05 1.09811E+04
 -1      1421-2.98102E+06-1.46177E+07 4.28993E+05-2.04320E+06 2.72989E+05 2.96248E+05
 -1      1422-6.87774E+06-1.33713E+07-3.00046E+05-2.38049E+06-2.94550E+05-3.03244E+05
 -1      1423-9.60551E+06-1.20375E+07-2.21836E+05-1.35994E+06-1.60638E+05 1.42158E+05
 -1      1424-1.15157E+07-1.13222E+07 3.15150E+04-6.45006E+05-1.32060E+05-1.15762E+05
 -1      1425-1.15280E+07-1.09987E+07 4.36049E+04-7.44310E+04-1.35657E+05 1.08787E+03
 -1      1426-1.14347E+07-1.15116E+07 3.79044E+04 4.84810E+05-1.06506E+05 1.39473E+05
 -1      1427-9.55024E+06-1.23429E+07-2.31582E+05 1.13454E+06-1.75373E+05-1.65741E+05
 -1      1428-6.83934E+06-1.38047E+07-3.50170E+05 2.04324E+06-3.32809E+05 2.73659E+05
 -1      1429-2.90340E+06-1.51836E+07 5.13235E+05 1.73056E+06 3.60702E+05-2.86989E+05
 -1      1430 3.38980E+05-1.44914E+07 9.13647E+05 9.99421E+05 5.79137E+05-3.54996E+04
 -1      1431-2.65291E+05-1.51523E+07-4.32192E+05-7.58424E+04-1.81066E+04-1.48696E+05
 -1      1432-6.42972E+06-1.32184E+07-1.71021E+04-1.51051E+05-1.93009E+01-2.64262E+05
 -1      1433-1.10858E+07-1.13638E+07 4.49267E+04-1.16526E+05-1.17253E+03-1.35204E+05
 -1      1434-1.10670E+07-1.14979E+07 4.17355E+04-1.52299E+05-8.77088E+02 1.43045E+05
 -1      1435-6.43871E+06-1.35640E+07-9.62905E+03-2.73055E+05-2.71291E+03 2.50258E+05
 -1      1436-3.20615E+05-1.57028E+07-5.29659E+05-1.69919E+05 4.93609E+04 1.43167E+05
 -1      1437 2.62175E+05-1.39674E+07 8.25745E+05 1.08848E+06-4.02034E+05 4.70703E+01
 -1      1438-2.95817E+06-1.46236E+07 4.30404E+05 1.79396E+06-2.63746E+05 2.83840E+05
 -1      1439-6.83115E+06-1.33413E+07-2.98356E+05 2.07982E+06 2.88169E+05-2.97804E+05
 -1      1440-9.56899E+06-1.20128E+07-2.15219E+05 1.11377E+06 1.61614E+05 1.48348E+05
 -1      1441-1.14961E+07-1.13044E+07 2.76773E+04 4.19173E+05 1.27648E+05-1.23781E+05
 -1      1442-1.15580E+07-1.09334E+07 4.01216E+04-1.77358E+05 1.45761E+05-1.56192E+03
 -1      1443-1.15310E+07-1.13914E+07 3.86992E+04-7.82610E+05 1.27590E+05 1.11877E+05
 -1      1444-9.62514E+06-1.22179E+07-2.24895E+05-1.52095E+06 1.72898E+05-1.44394E+05
 -1      1445-6.90412E+06-1.36480E+07-3.16721E+05-2.58252E+06 3.24469E+05 3.07764E+05
 -1      1446-2.99616E+06-1.49377E+07 4.51167E+05-2.20153E+06-2.86291E+05-3.01029E+05
 -1      1447 2.98949E+05-1.42160E+07 9.31369E+05-1.33972E+06-3.52938E+05-1.00181E+04
 -1      1448 2.69608E+05-1.41009E+07-1.03720E+05 2.45564E+06 1.19693E+06-9.55727E+05
 -1      1449-7.66601E+06-1.14357E+07 4.71672E+05 4.41321E+06-2.17483E+04-5.08868E+05
 -1      1450-1.22551E+07-9.40784E+06-2.19562E+05 1.08253E+06-1.47792E+05-1.75795E+05
 -1      1451-1.23245E+07-9.49456E+06-2.28865E+05-1.49507E+06-1.58929E+05 1.77836E+05
 -1      1452-7.79950E+06-1.16609E+07 4.92843E+05-4.97447E+06 5.33736E+03 5.16788E+05
 -1      1453 2.57190E+05-1.44479E+07-1.09024E+05-2.73026E+06 1.26869E+06 9.84313E+05
 -1      1454-1.63244E+06-1.90860E+07-1.17772E+05 6.80424E+06 1.60717E+06-2.30606E+06
 -1      1455-5.64738E+06-1.50171E+07-9.87864E+05 8.28242E+06-8.40236E+04-8.67962E+05
 -1      1456-9.34673E+06-9.09971E+06 7.50562E+05 8.08829E+06 6.99998E+05-6.60191E+05
 -1      1457-1.17343E+07-7.48165E+06 4.78550E+05 4.37521E+06 5.27278E+05 5.91467E+04
 -1      1458-1.36366E+07-6.72474E+06-3.19218E+05 2.01468E+06 2.86066E+05-3.16774E+05
 -1      1459-1.35291E+07-6.32957E+06-8.38747E+03-2.41141E+05 2.44522E+05 9.63538E+03
 -1      1460-1.37337E+07-6.78929E+06-3.37309E+05-2.50597E+06 2.81284E+05 3.41887E+05
 -1      1461-1.19037E+07-7.59324E+06 4.98483E+05-4.91976E+06 5.43985E+05-5.52436E+04
 -1      1462-9.56420E+06-9.27769E+06 7.81887E+05-8.77653E+06 7.40748E+05 6.68121E+05
 -1      1463-5.80352E+06-1.54213E+07-1.02215E+06-8.87743E+06-1.22333E+05 9.43088E+05
 -1      1464-1.65848E+06-1.95354E+07-8.16060E+04-7.21404E+06 1.72722E+06 2.43517E+06
 -1      1465-4.59509E+06-1.47093E+07 2.21440E+05 1.07920E+07 2.32074E+06 1.00509E+06
 -1      1466-1.53742E+07-5.58017E+06-1.00618E+06 8.32169E+06 7.81959E+05-1.72707E+03
 -1      1467-1.49355E+07-2.89412E+06 4.61071E+05 1.73177E+06-2.81059E+05 2.91442E+05
 -1      1468-1.50440E+07-2.90322E+06 4.89111E+05-2.11092E+06-2.92953E+05-3.48011E+05
 -1      1469-1.58727E+07-5.74526E+06-1.06058E+06-8.93095E+06 8.07826E+05-3.80546E+03
 -1      1470-4.80495E+06-1.49222E+07 1.75140E+05-1.13373E+07 2.45510E+06-1.09437E+06
 -1      1471-1.04811E+07-9.05348E+06-5.78697E+06 1.14721E+07 6.13169E+06-6.74214E+06
 -1      1472-1.63363E+07-4.59330E+06 4.16526E+05 1.08660E+07-9.25236E+05-2.30507E+06
 -1      1473-2.01452E+07-1.88003E+06-2.92391E+05 6.86741E+06 2.20829E+06-1.54842E+06
 -1      1474-1.43957E+07 3.21304E+05-8.39037E+04 2.38311E+06 9.52208E+05-1.22162E+06
 -1      1475-1.42457E+07 3.03348E+05 8.96407E+05 1.03274E+06-9.09667E+03 4.51424E+05
 -1      1476-1.56231E+07-3.17747E+05-5.27095E+05-1.04247E+05 1.42586E+05 2.32742E+04
 -1      1477-1.43414E+07 3.20347E+05 9.12446E+05-1.24666E+06-3.34736E+04-4.62493E+05
 -1      1478-1.46404E+07 3.47832E+05-8.72024E+04-2.61085E+06 9.81989E+05 1.34307E+06
 -1      1479-2.10533E+07-2.04159E+06-3.60476E+05-7.29644E+06 2.28823E+06 1.59822E+06
 -1      1480-1.73681E+07-4.78826E+06 4.86866E+05-1.14426E+07-9.65062E+05 2.42511E+06
 -1      1481-1.13315E+07-9.12826E+06-6.05853E+06-1.20171E+07 6.26590E+06 7.20972E+06
 -3
    1PSTEP                         3           1           1          
    1PGM                1.000000E+00                                  
    1PGK                2.417092E+10                                  
    1PHID                         -1                                  
    1PSUBC                         0                                  
    1PMODE                         1                                  
  100CL  101 24743.81753        1481                     2    1MODAL      1
 -4  TOSTRAIN    6    1
 -5  EXX         1    4    1    1
 -5  EYY         1    4    2    2
 -5  EZZ         1    4    3    3
 -5  EXY         1    4    1    2
 -5  EYZ         1    4    2    3
 -5  EZX         1    4    3    1
 -1         1 4.48434E+01 2.06554E+01 1.94170E+00 8.88628E+01-4.49990E+01-5.53546E+01
 -1         2 9.73553E+01-5.01140E-01-4.02018E+01 8.44965E+01 6.95439E+00-1.77518E+01
 -1         3 1.20450E+02-2.31125E+01-3.59733E+01 5.34545E+01-1.67461E+01-1.14307E+01
 -1         4 8.63419E+01-2.62698E+01-2.29573E+01 1.83104E+01-7.35400E+00-9.93661E+00
 -1         5 8.64055E+01-2.40261E+01-2.82603E+01 8.05198E+00 2.10084E-01 3.92140E+00
 -1         6 8.99741E+01-2.46129E+01-2.31818E+01-7.17233E-01-1.08079E+00 2.17836E-01
 -1         7 8.48368E+01-2.33903E+01-2.80715E+01-9.59420E+00 7.07722E-02-2.58909E+00
 -1         8 8.43735E+01-2.49745E+01-2.25106E+01-2.00847E+01-7.41503E+00 9.20496E+00
 -1         9 1.08016E+02-2.20831E+01-3.37630E+01-5.28300E+01-1.90375E+01 1.31223E+01
 -1        10 7.20641E+01 5.98032E+00-3.03654E+01-8.41188E+01 8.81464E+00 1.83449E+01
 -1        11 1.59113E+01 5.04590E+01 1.95825E+00-9.00962E+01-5.84670E+01 4.36811E+01
 -1        12 4.79674E+00 7.53851E+01-3.16467E+01 8.33387E+01-1.80753E+01 8.34254E+00
 -1        13 8.20515E+01 5.60018E+00-2.92366E+01 6.50027E+01-5.70872E+00-3.10333E-01
 -1        14 8.44358E+01-6.92617E+00-3.24086E+01 1.37956E+01 2.12655E+00 2.55706E+00
 -1        15 8.28895E+01-5.98338E+00-3.18803E+01-1.54423E+01 2.28600E+00-1.92625E+00
 -1        16 7.82689E+01 7.75263E+00-2.88606E+01-6.47084E+01-7.63870E+00-1.25244E+00
 -1        17-1.56296E+00 1.03245E+02-4.25339E+01-8.57279E+01-1.78720E+01-6.79783E+00
 -1        18-2.20020E+01 1.08634E+02-3.36293E+01 5.25824E+01-1.26844E+01-1.83816E+01
 -1        19 7.40533E+00 7.77988E+01-2.85325E+01 6.44539E+01 1.03865E+00-7.20972E+00
 -1        20 4.24678E+01 3.91332E+01-3.52719E+01 6.33666E+01-5.53332E+00-4.78117E+00
 -1        21 5.83461E+01 2.53910E+01-3.48448E+01 3.45406E+01-4.07535E+00 6.02260E-01
 -1        22 6.87488E+01 1.68234E+01-3.17284E+01 1.63701E+01-2.04278E+00-2.42152E+00
 -1        23 6.86843E+01 1.55302E+01-3.26840E+01-7.23970E-01-1.92131E+00-9.82740E-02
 -1        24 6.79735E+01 1.78233E+01-3.19711E+01-1.77579E+01-2.38125E+00 2.25080E+00
 -1        25 5.57265E+01 2.82137E+01-3.48905E+01-3.54219E+01-3.73210E+00 2.10426E-01
 -1        26 3.92032E+01 4.34208E+01-3.57029E+01-6.35014E+01-4.58349E+00 5.71478E+00
 -1        27 5.47028E+00 8.38808E+01-2.97921E+01-6.54452E+01-6.37133E-01 5.49445E+00
 -1        28-2.35534E+01 1.24455E+02-3.69582E+01-5.39937E+01-1.12084E+01 1.67358E+01
 -1        29-2.48749E+01 8.34368E+01-2.22265E+01 1.97780E+01-9.31736E+00-7.32449E+00
 -1        30 2.77649E+01 5.52278E+01-3.44926E+01 3.54558E+01-9.98960E-02-3.77782E+00
 -1        31 5.62609E+01 3.50850E+01-3.44831E+01 9.58820E+00 1.21208E+00-1.30396E+00
 -1        32 5.55539E+01 3.61494E+01-3.46246E+01-9.54111E+00 1.01839E+00 1.24371E+00
 -1        33 2.54428E+01 5.92425E+01-3.52617E+01-3.40256E+01 7.73917E-01 4.19686E+00
 -1        34-2.67586E+01 8.76414E+01-2.33002E+01-1.78790E+01-1.01541E+01 7.46255E+00
 -1        35-2.31358E+01 8.37905E+01-2.74882E+01 9.40518E+00 2.74658E+00 8.26812E-02
 -1        36-5.83419E+00 8.17829E+01-3.15096E+01 1.53841E+01 2.05544E+00 2.23057E+00
 -1        37 1.79397E+01 6.68328E+01-3.15865E+01 1.79237E+01-2.21779E+00-2.28325E+00
 -1        38 3.63111E+01 5.46226E+01-3.43424E+01 1.02396E+01-1.20951E+00 1.07036E+00
 -1        39 4.91433E+01 4.76858E+01-3.78008E+01 4.85652E+00-9.94337E-01-8.71621E-01
 -1        40 4.97681E+01 4.57825E+01-3.73592E+01 5.60422E-01-1.02142E+00 8.19103E-03
 -1        41 4.83650E+01 4.89442E+01-3.80169E+01-3.65034E+00-8.01928E-01 1.05015E+00
 -1        42 3.54670E+01 5.64940E+01-3.46970E+01-8.54242E+00-1.32045E+00-1.24793E+00
 -1        43 1.69176E+01 6.93623E+01-3.19421E+01-1.53844E+01-2.50585E+00 2.06049E+00
 -1        44-7.08411E+00 8.53785E+01-3.28094E+01-1.30301E+01 2.71588E+00-2.16086E+00
 -1        45-2.43574E+01 8.73067E+01-2.86843E+01-7.52505E+00 4.36056E+00-2.67291E-01
 -1        46-2.41081E+01 8.79826E+01-2.28514E+01 5.71049E-01-1.36332E-01-1.11959E+00
 -1        47 1.60221E+01 6.71373E+01-3.22611E+01 1.13733E+00-1.45324E-04-1.98974E+00
 -1        48 4.65675E+01 4.86611E+01-3.72401E+01 8.77375E-01-8.82842E-03-1.01801E+00
 -1        49 4.62313E+01 4.94752E+01-3.74112E+01 1.14672E+00-6.60396E-03 1.07705E+00
 -1        50 1.55181E+01 6.91676E+01-3.28890E+01 2.05595E+00-2.04266E-02 1.88429E+00
 -1        51-2.48499E+01 9.09692E+01-2.32759E+01 1.27939E+00 3.71659E-01 1.07797E+00
 -1        52-2.31872E+01 8.39529E+01-2.74306E+01-8.19559E+00-3.02708E+00 3.54412E-04
 -1        53-5.97598E+00 8.18577E+01-3.14900E+01-1.35075E+01-1.98585E+00 2.13715E+00
 -1        54 1.77179E+01 6.67358E+01-3.14703E+01-1.56598E+01 2.16974E+00-2.24229E+00
 -1        55 3.61479E+01 5.45484E+01-3.42805E+01-8.38602E+00 1.21686E+00 1.11697E+00
 -1        56 4.90506E+01 4.76073E+01-3.77166E+01-3.15613E+00 9.61116E-01-9.31998E-01
 -1        57 5.00465E+01 4.53433E+01-3.72806E+01 1.33541E+00 1.09750E+00-1.17603E-02
 -1        58 4.91311E+01 4.80796E+01-3.79822E+01 5.89259E+00 9.60678E-01 8.42367E-01
 -1        59 3.61245E+01 5.56462E+01-3.46538E+01 1.14519E+01 1.30182E+00-1.08720E+00
 -1        60 1.76118E+01 6.83893E+01-3.19875E+01 1.94449E+01 2.44306E+00 2.31728E+00
 -1        61-6.23561E+00 8.36768E+01-3.21920E+01 1.65762E+01-2.15560E+00-2.26657E+00
 -1        62-2.36390E+01 8.56497E+01-2.84008E+01 1.00873E+01-2.65742E+00-7.54301E-02
 -1        63-2.49817E+01 8.32195E+01-2.21708E+01-1.84895E+01 9.01217E+00-7.19606E+00
 -1        64 2.70358E+01 5.54193E+01-3.42362E+01-3.32289E+01-1.63752E-01-3.83148E+00
 -1        65 5.62317E+01 3.47938E+01-3.43885E+01-8.15082E+00-1.11279E+00-1.32364E+00
 -1        66 5.64818E+01 3.51743E+01-3.45910E+01 1.12570E+01-1.19664E+00 1.33900E+00
 -1        67 2.74849E+01 5.65592E+01-3.49515E+01 3.74549E+01 4.01872E-02 3.89111E+00
 -1        68-2.54890E+01 8.52317E+01-2.27316E+01 2.05573E+01 9.55248E+00 7.41130E+00
 -1        69-2.20272E+01 1.09388E+02-3.34317E+01-5.12319E+01 1.21011E+01-1.73633E+01
 -1        70 6.85884E+00 7.74071E+01-2.82246E+01-6.23618E+01-6.32648E-01-6.53525E+00
 -1        71 4.12292E+01 3.93693E+01-3.47974E+01-6.09001E+01 5.27058E+00-4.97085E+00
 -1        72 5.74906E+01 2.54709E+01-3.44648E+01-3.29427E+01 3.97010E+00 4.45340E-01
 -1        73 6.86134E+01 1.65713E+01-3.16586E+01-1.51694E+01 2.15391E+00-2.38512E+00
 -1        74 6.91441E+01 1.49357E+01-3.26591E+01 1.81565E+00 1.84110E+00 7.25487E-02
 -1        75 6.90488E+01 1.67611E+01-3.18185E+01 1.88685E+01 2.11790E+00 2.57421E+00
 -1        76 5.83363E+01 2.58811E+01-3.50449E+01 3.70429E+01 4.09588E+00-4.15952E-01
 -1        77 4.22669E+01 4.01097E+01-3.56330E+01 6.60821E+01 5.57740E+00 5.03056E+00
 -1        78 7.05497E+00 7.94714E+01-2.89459E+01 6.68418E+01-9.21096E-01 7.10090E+00
 -1        79-2.25546E+01 1.12048E+02-3.44275E+01 5.43175E+01 1.30049E+01 1.83354E+01
 -1        80 3.16759E+00 7.93216E+01-3.30981E+01-8.12571E+01 1.74738E+01 7.56774E+00
 -1        81 7.95884E+01 5.84506E+00-2.85944E+01-6.26574E+01 5.88769E+00-1.30038E-02
 -1        82 8.38487E+01-6.81606E+00-3.20787E+01-1.30392E+01-2.11621E+00 2.19439E+00
 -1        83 8.45179E+01-6.89499E+00-3.24372E+01 1.58940E+01-2.20577E+00-2.62032E+00
 -1        84 8.21593E+01 5.90554E+00-2.93674E+01 6.72448E+01 6.08246E+00-2.86528E-02
 -1        85 3.97512E+00 8.01521E+01-3.35220E+01 8.53630E+01 1.84854E+01-8.23997E+00
 -1        86 3.72104E+01 2.64613E+01 1.86643E+00-8.63781E+01 4.61680E+01-5.07643E+01
 -1        87 8.92162E+01 7.98655E-01-3.69224E+01-8.18150E+01-6.96648E+00-1.73558E+01
 -1        88 1.14923E+02-2.26030E+01-3.45570E+01-5.17076E+01 1.66271E+01-1.16587E+01
 -1        89 8.50717E+01-2.57388E+01-2.26878E+01-1.79434E+01 7.16956E+00-9.19805E+00
 -1        90 8.57745E+01-2.37715E+01-2.82369E+01-7.77593E+00-6.84926E-02 3.39896E+00
 -1        91 9.05090E+01-2.47312E+01-2.31549E+01 7.84917E-01 1.07359E+00 1.75241E-01
 -1        92 8.63917E+01-2.40027E+01-2.84609E+01 9.38665E+00-2.52036E-01-3.48230E+00
 -1        93 8.65490E+01-2.63032E+01-2.30277E+01 1.96582E+01 7.39380E+00 1.01125E+01
 -1        94 1.19887E+02-2.32604E+01-3.59182E+01 5.49379E+01 1.72290E+01 1.20336E+01
 -1        95 9.50805E+01 3.61916E-01-3.93567E+01 8.61562E+01-7.26635E+00 1.82597E+01
 -1        96 4.16425E+01 2.50532E+01 1.93992E+00 9.04819E+01 4.71786E+01 5.42850E+01
 -1        97 5.29264E+01 2.47217E+01 9.12433E+00 8.88189E+01-9.90510E+01-1.14579E+02
 -1        98 9.40256E+01-2.08661E+01-3.09966E+01 3.50001E+01-7.14558E+00-1.29012E+01
 -1        99 6.97172E+01-1.95943E+01-2.24312E+01 4.01979E+00-2.83432E+00-1.71418E+00
 -1       100 6.83467E+01-1.89965E+01-2.21917E+01-5.03411E+00-3.46337E+00 3.13029E+00
 -1       101 8.37101E+01-2.04381E+01-2.89707E+01-3.35951E+01-8.42379E+00 1.83958E+01
 -1       102 1.94190E+01 5.97003E+01 9.08830E+00-9.04288E+01-1.19709E+02 9.75589E+01
 -1       103-2.02549E+01 8.42894E+01-2.88912E+01 3.36474E+01-1.73978E+01-8.09706E+00
 -1       104 3.63372E+01 3.31999E+01-2.81751E+01 5.16012E+01-4.88122E+00-5.02746E+00
 -1       105 5.46470E+01 1.31718E+01-2.52895E+01 1.36462E+01-3.88819E+00-1.60567E+00
 -1       106 5.42095E+01 1.38313E+01-2.56087E+01-1.47943E+01-4.04172E+00 1.58776E+00
 -1       107 3.32037E+01 3.72432E+01-2.85064E+01-5.17143E+01-5.00918E+00 4.90301E+00
 -1       108-2.12250E+01 9.72389E+01-3.18466E+01-3.54570E+01-1.17934E+01 7.09865E+00
 -1       109-1.87982E+01 6.74532E+01-2.17275E+01 4.97123E+00-2.83104E+00-3.31172E+00
 -1       110 1.39710E+01 5.32730E+01-2.52780E+01 1.49069E+01-1.54852E+00-4.04953E+00
 -1       111 3.96873E+01 3.84740E+01-3.02862E+01 3.81408E+00-1.26833E+00-1.26227E+00
 -1       112 3.90193E+01 3.95392E+01-3.04616E+01-2.83452E+00-1.16779E+00 1.29780E+00
 -1       113 1.32459E+01 5.50950E+01-2.54467E+01-1.28521E+01-1.58463E+00 3.89840E+00
 -1       114-1.98700E+01 7.05326E+01-2.27998E+01-3.61809E+00-1.28658E+00 2.80019E+00
 -1       115-1.88843E+01 6.75521E+01-2.16937E+01-4.16770E+00 2.24133E+00-3.18296E+00
 -1       116 1.38439E+01 5.31646E+01-2.51520E+01-1.30706E+01 1.55055E+00-4.03474E+00
 -1       117 3.95912E+01 3.84300E+01-3.02229E+01-2.43979E+00 1.27219E+00-1.32968E+00
 -1       118 3.96730E+01 3.88073E+01-3.04336E+01 4.63839E+00 1.31234E+00 1.18440E+00
 -1       119 1.36938E+01 5.44924E+01-2.55900E+01 1.61472E+01 1.67822E+00 4.00344E+00
 -1       120-1.92449E+01 6.90624E+01-2.24735E+01 5.38468E+00 3.48905E+00 3.35458E+00
 -1       121-2.01002E+01 8.50117E+01-2.87525E+01-3.30628E+01 1.59288E+01-7.61448E+00
 -1       122 3.51279E+01 3.34408E+01-2.78023E+01-4.95788E+01 4.95615E+00-5.08518E+00
 -1       123 5.46070E+01 1.29391E+01-2.52732E+01-1.26764E+01 3.89606E+00-1.66104E+00
 -1       124 5.49130E+01 1.30856E+01-2.53937E+01 1.56517E+01 3.91719E+00 1.62754E+00
 -1       125 3.61113E+01 3.40700E+01-2.84514E+01 5.37782E+01 5.07345E+00 5.09641E+00
 -1       126-2.06537E+01 8.70742E+01-2.96430E+01 3.50247E+01 1.74800E+01 7.96929E+00
 -1       127 4.36236E+01 3.10848E+01 9.10677E+00-8.57498E+01 9.99330E+01-1.06848E+02
 -1       128 8.95965E+01-2.04284E+01-2.97663E+01-3.37443E+01 7.16266E+00-1.40533E+01
 -1       129 6.91827E+01-1.93871E+01-2.23969E+01-3.84676E+00 3.01452E+00-2.15288E+00
 -1       130 6.97651E+01-1.95570E+01-2.25799E+01 4.93927E+00 2.97390E+00 2.63438E+00
 -1       131 9.35246E+01-2.10299E+01-3.09885E+01 3.59521E+01 7.31670E+00 1.42725E+01
 -1       132 4.89370E+01 2.95922E+01 9.45116E+00 8.98952E+01 1.02937E+02 1.13563E+02
 -1       133 6.89485E+01 3.57024E+01 8.43723E+01 9.83401E+01-2.86953E+02-3.26973E+02
 -1       134 9.05484E+01 1.06048E+00-3.71765E+01 6.35152E+01-2.44412E+01-6.79341E+01
 -1       135 7.14030E+01-1.97824E+01-1.70797E+01 1.86922E+01-1.62069E+01-3.84359E+01
 -1       136 4.44839E+01-2.00131E+01-2.42117E+01 4.99358E+00 7.61911E-01-1.60946E+01
 -1       137 5.37217E+01-1.50590E+01-5.76310E+00 1.51314E-02-1.01947E+01-1.49534E+01
 -1       138 4.89450E+01-1.46674E+01-7.90611E+00-1.18639E-01-7.88151E+00 3.49732E-01
 -1       139 5.27824E+01-1.43759E+01-7.39843E+00-4.72858E-01-1.33773E+01 1.55049E+01
 -1       140 4.41642E+01-1.97246E+01-2.27812E+01-6.63492E+00 3.22553E+00 1.97729E+01
 -1       141 6.28940E+01-2.03073E+01-1.88101E+01-1.70260E+01-1.82681E+01 4.51235E+01
 -1       142 6.20411E+01 8.47149E+00-2.22224E+01-6.28014E+01-2.89802E+01 7.09636E+01
 -1       143 2.97755E+01 7.72587E+01 8.52552E+01-1.00488E+02-3.41629E+02 2.84565E+02
 -1       144 7.03024E+00 6.58303E+01-2.43564E+01 6.20046E+01-6.98546E+01-2.79545E+01
 -1       145 4.54413E+01 2.37953E+00-2.05445E+00 3.37107E+01-1.71838E+01-2.49210E+01
 -1       146 5.37790E+01-3.76433E+00-1.98469E+01 6.85374E+00-6.85012E-01 2.00780E+00
 -1       147 5.24436E+01-3.20527E+00-1.95168E+01-7.86168E+00-4.14068E-01-1.09460E+00
 -1       148 4.52259E+01 4.08102E+00-3.61527E+00-3.19469E+01-2.35488E+01 2.20723E+01
 -1       149-3.80852E-02 9.72079E+01-4.04976E+01-6.49336E+01-6.81451E+01 2.40027E+01
 -1       150-1.99401E+01 6.34443E+01-1.83388E+01 1.72704E+01-4.36778E+01-1.76464E+01
 -1       151 3.82241E+00 4.46401E+01-3.30677E+00 3.21661E+01-2.21187E+01-2.20596E+01
 -1       152 2.95218E+01 2.66375E+01-3.85639E+01 4.00566E+01 1.11460E+01 1.30080E+01
 -1       153 3.52789E+01 1.62696E+01-2.31810E+01 2.30636E+01-2.86903E+00 4.64311E+00
 -1       154 4.04701E+01 9.70272E+00-1.85416E+01 1.10142E+01-6.97528E+00-5.28305E+00
 -1       155 4.15367E+01 8.98039E+00-1.72390E+01-4.87034E-01-8.97751E+00-1.97559E-01
 -1       156 4.02787E+01 1.00581E+01-1.85858E+01-1.19633E+01-7.66775E+00 5.22646E+00
 -1       157 3.40339E+01 1.83825E+01-2.39242E+01-2.31062E+01-2.61528E+00-3.88367E+00
 -1       158 2.65758E+01 3.03612E+01-3.91459E+01-4.01415E+01 1.39335E+01-1.11700E+01
 -1       159 2.20153E+00 4.60826E+01-1.75372E+00-3.41261E+01-2.58927E+01 1.66414E+01
 -1       160-2.00328E+01 7.39553E+01-1.70076E+01-1.89972E+01-3.74035E+01 1.62746E+01
 -1       161-1.94990E+01 4.35410E+01-2.25703E+01 6.39334E+00-1.90970E+01 2.75895E+00
 -1       162 1.80335E+01 3.36510E+01-2.35195E+01 2.31952E+01 3.94840E+00-2.78874E+00
 -1       163 3.38292E+01 2.07381E+01-2.13076E+01 5.85480E+00-4.14942E-01-1.60592E+00
 -1       164 3.35128E+01 2.14040E+01-2.15263E+01-5.70707E+00-5.82510E-01 1.56413E+00
 -1       165 1.62427E+01 3.57639E+01-2.33398E+01-2.28643E+01 4.98503E+00 2.90355E+00
 -1       166-2.03301E+01 4.49487E+01-2.48905E+01-4.59373E+00-1.52839E+01-3.30838E-01
 -1       167-1.42763E+01 5.19781E+01-6.78640E+00 5.31043E-01-1.50735E+01-1.25388E+01
 -1       168-3.08792E+00 5.17723E+01-1.93949E+01 7.84051E+00 1.17654E+00-5.75262E-01
 -1       169 1.02072E+01 3.95736E+01-1.83171E+01 1.20126E+01-5.00421E+00-7.58089E+00
 -1       170 2.14967E+01 3.29371E+01-2.13017E+01 6.15837E+00-1.50386E+00-6.35123E-01
 -1       171 3.03761E+01 2.94212E+01-2.23348E+01 2.69741E+00-2.01841E+00-2.06673E+00
 -1       172 2.98945E+01 2.82500E+01-2.22283E+01 3.61862E-01-1.42238E+00-1.01493E-01
 -1       173 2.98384E+01 3.02784E+01-2.24312E+01-1.94612E+00-1.91472E+00 2.01318E+00
 -1       174 2.09579E+01 3.39443E+01-2.14561E+01-5.24230E+00-1.51099E+00 3.54113E-01
 -1       175 9.75979E+00 4.07577E+01-1.86643E+01-1.04053E+01-5.33384E+00 7.05063E+00
 -1       176-3.84948E+00 5.44882E+01-2.00475E+01-6.37552E+00 2.41174E+00 5.41752E-01
 -1       177-1.52767E+01 5.44288E+01-5.48869E+00 2.47436E-01-1.48643E+01 1.00276E+01
 -1       178-1.43715E+01 4.78488E+01-7.94442E+00 2.08772E-01-5.00344E-01-8.01923E+00
 -1       179 9.26155E+00 4.05637E+01-1.70528E+01 7.09588E-01 2.76323E-02-9.09100E+00
 -1       180 2.87388E+01 2.92279E+01-2.21578E+01 5.33738E-01 1.93975E-02-1.55891E+00
 -1       181 2.85049E+01 2.97060E+01-2.22521E+01 6.82765E-01 8.06137E-04 1.43150E+00
 -1       182 9.00912E+00 4.18678E+01-1.73589E+01 1.30430E+00-1.20156E-01 8.86920E+00
 -1       183-1.48564E+01 4.95145E+01-7.83157E+00 3.80199E-01 9.79580E-01 7.68412E+00
 -1       184-1.44359E+01 5.19771E+01-6.78799E+00-1.19014E-01 1.40977E+01-1.15767E+01
 -1       185-3.19742E+00 5.18359E+01-1.93053E+01-6.78462E+00-1.26574E+00-7.48733E-01
 -1       186 1.01568E+01 3.94767E+01-1.83713E+01-1.05871E+01 5.02534E+00-7.31411E+00
 -1       187 2.14052E+01 3.28803E+01-2.12112E+01-5.05306E+00 1.59183E+00-5.98031E-01
 -1       188 3.02863E+01 2.93994E+01-2.23051E+01-1.65486E+00 2.03975E+00-2.14034E+00
 -1       189 3.00402E+01 2.79631E+01-2.21795E+01 8.08803E-01 1.53587E+00-1.00488E-01
 -1       190 3.03654E+01 2.96944E+01-2.24146E+01 3.30839E+00 2.06321E+00 1.92109E+00
 -1       191 2.13910E+01 3.35363E+01-2.15195E+01 6.90035E+00 1.66325E+00 5.01368E-01
 -1       192 9.98722E+00 4.04439E+01-1.86898E+01 1.29811E+01 5.42631E+00 7.46391E+00
 -1       193-3.37845E+00 5.30454E+01-1.96085E+01 8.47818E+00-1.15598E+00 4.33354E-01
 -1       194-1.46481E+01 5.33578E+01-7.24587E+00 7.34484E-01 1.66543E+01 1.25576E+01
 -1       195-1.93419E+01 4.33788E+01-2.25114E+01-5.71723E+00 1.75289E+01 1.97096E+00
 -1       196 1.74570E+01 3.36869E+01-2.31422E+01-2.18810E+01-3.91579E+00-3.01859E+00
 -1       197 3.38464E+01 2.05942E+01-2.12921E+01-4.94536E+00 5.07547E-01-1.75466E+00
 -1       198 3.39820E+01 2.07995E+01-2.14279E+01 6.85696E+00 4.86115E-01 1.50267E+00
 -1       199 1.77856E+01 3.44575E+01-2.37520E+01 2.44870E+01-3.99767E+00 2.76843E+00
 -1       200-1.98557E+01 4.44417E+01-2.33042E+01 6.59604E+00 1.98173E+01-2.33005E+00
 -1       201-1.95007E+01 6.41183E+01-1.75975E+01-1.72688E+01 4.11402E+01-1.66623E+01
 -1       202 3.44139E+00 4.40522E+01-3.17193E+00-3.14864E+01 2.21305E+01-1.98905E+01
 -1       203 2.83788E+01 2.68839E+01-3.76015E+01-3.84789E+01-1.08045E+01 1.15364E+01
 -1       204 3.48499E+01 1.63464E+01-2.30547E+01-2.18875E+01 3.00850E+00 4.14675E+00
 -1       205 4.04946E+01 9.49331E+00-1.85889E+01-1.02788E+01 7.05656E+00-5.37176E+00
 -1       206 4.18523E+01 8.68820E+00-1.72909E+01 1.10562E+00 8.69912E+00 3.74013E-03
 -1       207 4.06824E+01 9.60237E+00-1.85524E+01 1.25482E+01 7.24342E+00 5.26785E+00
 -1       208 3.53164E+01 1.65995E+01-2.34024E+01 2.45281E+01 2.94889E+00-4.61149E+00
 -1       209 2.92779E+01 2.73841E+01-3.89163E+01 4.17223E+01-1.13989E+01-1.27313E+01
 -1       210 3.55587E+00 4.53814E+01-3.16565E+00 3.37280E+01 2.28491E+01 2.13529E+01
 -1       211-2.01629E+01 6.56660E+01-1.82629E+01 1.82752E+01 4.41322E+01 1.73026E+01
 -1       212 5.04910E+00 7.01199E+01-2.67795E+01-6.01976E+01 6.75258E+01-2.64879E+01
 -1       213 4.45944E+01 2.68200E+00-2.68443E+00-3.22073E+01 1.77321E+01-2.35174E+01
 -1       214 5.32512E+01-3.73561E+00-1.94820E+01-6.46994E+00 5.58910E-01 1.57638E+00
 -1       215 5.37948E+01-3.73605E+00-1.98256E+01 8.03369E+00 4.64685E-01-1.84015E+00
 -1       216 4.57876E+01 2.61995E+00-2.23809E+00 3.47958E+01 1.80686E+01 2.46262E+01
 -1       217 6.05781E+00 7.05888E+01-2.66122E+01 6.31152E+01 7.11984E+01 2.78161E+01
 -1       218 5.74488E+01 4.26624E+01 8.23080E+01-9.43899E+01 2.86911E+02-3.04754E+02
 -1       219 8.11980E+01 2.38022E+00-3.25059E+01-6.08872E+01 2.48778E+01-6.67411E+01
 -1       220 6.78670E+01-1.94609E+01-1.69873E+01-1.79676E+01 1.58386E+01-3.88773E+01
 -1       221 4.41446E+01-1.96445E+01-2.34500E+01-5.15014E+00-9.73188E-01-1.64549E+01
 -1       222 5.33688E+01-1.48667E+01-6.77309E+00 4.95474E-02 1.07797E+01-1.47977E+01
 -1       223 4.93676E+01-1.48184E+01-7.89395E+00 3.63727E-01 7.44972E+00 8.18087E-01
 -1       224 5.38733E+01-1.49677E+01-6.08488E+00 5.73738E-01 1.08483E+01 1.63795E+01
 -1       225 4.46768E+01-2.00988E+01-2.42162E+01 5.68658E+00-9.83578E-01 1.77718E+01
 -1       226 7.09398E+01-2.00336E+01-1.74522E+01 1.92297E+01 1.63291E+01 4.04182E+01
 -1       227 8.74506E+01 1.98815E+00-3.53814E+01 6.41407E+01 2.54165E+01 6.98627E+01
 -1       228 6.40891E+01 4.12888E+01 8.60353E+01 9.90282E+01 2.96516E+02 3.23860E+02
 -1       229 2.60494E+02 1.98449E+02 8.30215E+01 2.74110E+02-5.06997E+02-5.72024E+02
 -1       230 2.49872E+01-3.51521E+01 1.29516E+01-1.53263E+01-1.14625E+01-3.99156E+01
 -1       231 3.16162E+01-3.31576E+00 5.90840E+00 1.53131E+00-2.15708E+01-2.88643E+01
 -1       232 3.22481E+01 3.24798E-01 2.19847E+00 1.07739E-02-2.66781E+01 2.89551E+01
 -1       233 2.25056E+01-4.20713E+01 8.18041E+00 1.67160E+01-1.37287E+01 4.76020E+01
 -1       234 1.90795E+02 2.79343E+02 8.28405E+01-2.80686E+02-5.97233E+02 5.04561E+02
 -1       235-4.01328E+01 2.27666E+01 8.56561E+00-1.59177E+01-4.61228E+01-1.31799E+01
 -1       236 3.64533E+01 3.15548E+01-5.24679E+01 4.01301E+01 1.79602E+01 2.22243E+01
 -1       237 2.67040E+01 5.23651E+00-1.09543E+01 5.88950E+00-7.46207E+00-7.35009E+00
 -1       238 2.69754E+01 4.59808E+00-1.06919E+01-6.77905E+00-8.78158E+00 7.04969E+00
 -1       239 3.12658E+01 3.80316E+01-5.34028E+01-4.05207E+01 2.39643E+01-1.77523E+01
 -1       240-3.49604E+01 2.54844E+01 1.43582E+01 1.58996E+01-3.85168E+01 1.12955E+01
 -1       241-4.75101E-01 3.15033E+01 3.06065E+00 2.07765E-01-2.82463E+01-2.53101E+01
 -1       242 4.95038E+00 2.63786E+01-1.05010E+01 6.82643E+00-6.73325E+00-8.53717E+00
 -1       243 2.03447E+01 1.96573E+01-1.49109E+01 1.41319E+00-3.04742E+00-3.09290E+00
 -1       244 1.99262E+01 2.02848E+01-1.49393E+01-8.83289E-01-2.87901E+00 3.04388E+00
 -1       245 5.23971E+00 2.68320E+01-1.09996E+01-5.40692E+00-7.52210E+00 7.54501E+00
 -1       246-3.44007E+00 3.18136E+01 6.62983E+00-1.78189E+00-2.90898E+01 2.15029E+01
 -1       247-1.78268E+00 3.13718E+01 3.35066E+00-3.91594E-01 2.68909E+01-2.33681E+01
 -1       248 5.24870E+00 2.62750E+01-1.08071E+01-5.82182E+00 6.80851E+00-8.12805E+00
 -1       249 2.02656E+01 1.96884E+01-1.48917E+01-7.17792E-01 3.04774E+00-3.14208E+00
 -1       250 2.03432E+01 1.98484E+01-1.49276E+01 1.81077E+00 3.05752E+00 2.86350E+00
 -1       251 4.76380E+00 2.70359E+01-1.09518E+01 7.38009E+00 7.46948E+00 8.45912E+00
 -1       252-7.57398E-01 3.23695E+01 2.94321E+00 8.37110E-01 3.05204E+01 2.51245E+01
 -1       253-3.73525E+01 2.32559E+01 9.03015E+00 1.48158E+01 4.33924E+01-1.24567E+01
 -1       254 3.41715E+01 3.19151E+01-5.07294E+01-3.85053E+01-1.78806E+01 1.96629E+01
 -1       255 2.69231E+01 4.86979E+00-1.11186E+01-5.48660E+00 7.79854E+00-7.48316E+00
 -1       256 2.69203E+01 4.86955E+00-1.08461E+01 6.97481E+00 7.96350E+00 7.40231E+00
 -1       257 3.59147E+01 3.26195E+01-5.28993E+01 4.13269E+01-1.86523E+01-2.16343E+01
 -1       258-3.97236E+01 2.36049E+01 9.44451E+00-1.55160E+01 4.66548E+01 1.27712E+01
 -1       259 2.33310E+02 2.05730E+02 8.23720E+01-2.62420E+02 5.04458E+02-5.33460E+02
 -1       260 2.43830E+01-3.53184E+01 1.11760E+01 1.45899E+01 1.14018E+01-4.06648E+01
 -1       261 3.19454E+01-2.61480E+00 4.07444E+00-1.20522E+00 2.20404E+01-2.81229E+01
 -1       262 3.19686E+01-2.37188E+00 5.28485E+00 1.73808E+00 2.26367E+01 3.05166E+01
 -1       263 2.50244E+01-3.63424E+01 1.22999E+01-1.51139E+01 1.15392E+01 4.23364E+01
 -1       264 2.51938E+02 2.09481E+02 8.57938E+01 2.75558E+02 5.22219E+02 5.66585E+02
 -1       265-1.75292E-04-5.64820E+02-5.59374E-04-6.55382E+01 1.63598E+02-4.83533E-04
 -1       266-2.97415E-04-7.02147E+02-4.63587E-04-2.54416E+01-5.52341E+01 4.05151E-04
 -1       267-4.27529E-04-7.82619E+02-3.82372E-04 5.67275E+00-6.06777E+01-4.83607E-04
 -1       268-3.00304E-04-7.47940E+02-4.73858E-04 1.31947E+00-1.26389E+02 3.85497E-04
 -1       269 2.67259E-05-6.56227E+02-5.22069E-04 6.91121E+00-5.01928E+01 3.66309E-04
 -1       270 8.73902E-05-5.51515E+02-4.53626E-04 1.40442E+01-6.11274E+01-9.17795E-04
 -1       271 2.06703E-04-4.53251E+02-5.02526E-04 1.15324E+01-8.48414E+01 5.11583E-04
 -1       272 5.56830E-04-4.41362E+02-5.16105E-04-8.58925E+00 7.64822E+01 1.74399E-04
 -1       273 2.37897E-04-5.33990E+02-5.04963E-04-2.13812E+01-4.15961E+01-4.15579E-04
 -1       274-1.98771E-04-6.71601E+02-5.61159E-04-9.81825E+00-9.22706E+01 5.39713E-04
 -1       275-2.71437E-04-7.72319E+02-5.42093E-04 4.14878E-01-1.72735E+01-2.06934E-04
 -1       276-2.57371E-04-8.23129E+02-5.53162E-04-4.12010E+00-1.01160E+02-7.92739E-05
 -1       277-2.47555E-04-8.30916E+02-4.89407E-04-3.60517E+00-7.38231E+01 4.54579E-04
 -1       278-2.63305E-04-7.24155E+02-4.92424E-04 2.85606E+01-5.06491E+01-5.72416E-04
 -1       279-2.20209E-04-5.81541E+02-5.81610E-04 6.38963E+01 1.69123E+02 5.12646E-04
 -1       280 9.24068E+01-6.15542E+02 1.11204E+02-1.47261E+02 1.23973E+01 3.87099E+01
 -1       281 3.29984E+01-7.05330E+02 1.39384E+02-8.78593E+00-1.02669E+00-2.00279E+01
 -1       282 3.16280E+01-6.20647E+02 1.16756E+02 1.09394E+02-1.13703E+01 9.43328E+00
 -1       283-5.68182E+01-4.16172E+02 1.28447E+02 7.72769E+01 1.59626E+01 2.62726E+01
 -1       284-1.19936E+01-5.32040E+02 1.50529E+02-1.51452E+02 3.40708E+00-3.02170E+01
 -1       285 2.11010E+01-7.35306E+02 1.52801E+02-6.65164E+01-1.11422E+01-1.21152E+00
 -1       286 4.72325E+01-7.64264E+02 1.46207E+02 3.63277E+01 4.65640E+00 4.31830E+00
 -1       287 7.51312E+01-6.28435E+02 1.19969E+02 1.52093E+02 3.29870E+01-3.05438E+01
 -1       288 1.91278E+02-5.69227E+02 2.22409E+02-1.77809E+02-6.07680E+01 4.60236E+01
 -1       289 1.55351E+02-5.80929E+02 2.50589E+02-9.23933E+01-4.17058E+01-2.95666E+01
 -1       290 9.73978E+01-5.92167E+02 2.78768E+02-3.09774E+00-6.24366E+01 2.10722E+01
 -1       291 1.15150E+02-5.48695E+02 2.56141E+02 1.04212E+02-4.61351E+01 5.08565E+01
 -1       292 8.14713E+01-4.91672E+02 2.33513E+02 1.98433E+02-9.36129E+01-2.47407E+01
 -1       293-3.05690E+01-4.13045E+02 2.45204E+02 2.01845E+02-6.88019E+01 1.43999E+01
 -1       294-1.33070E+02-3.63504E+02 2.56895E+02 1.74914E+02-3.26753E+01 2.30380E+01
 -1       295-2.31587E+02-4.02334E+02 2.78977E+02-9.33047E+01-1.37218E+02-4.26512E+01
 -1       296-4.81208E+00-5.81687E+02 3.01059E+02-2.67965E+02-6.90729E+01-5.73935E+00
 -1       297 8.85991E+01-6.12496E+02 3.03330E+02-1.99713E+02-3.77312E+01-3.54420E+01
 -1       298 7.93861E+01-6.32644E+02 3.05602E+02-1.31076E+02-4.60840E+01 1.62649E+00
 -1       299 9.56886E+01-6.46346E+02 2.99008E+02-2.99633E+01-5.97680E+01 1.08172E+01
 -1       300 1.21688E+02-6.22656E+02 2.92414E+02 6.16698E+01-7.19777E+01-3.23463E+01
 -1       301 1.40165E+02-6.01057E+02 2.66176E+02 1.36205E+02-5.91223E+01 1.39729E+01
 -1       302 1.52844E+02-5.70929E+02 2.39939E+02 2.06930E+02-2.55761E+01-1.74854E+01
 -1       303 2.08323E+02-3.26450E+02 5.87016E+01-2.72249E+02 1.34971E+02-8.41765E+01
 -1       304 3.21454E+02-6.00790E+02 1.39118E+02-1.11837E+01 2.80649E+01 2.34800E+01
 -1       305 5.52380E+01-2.85350E+02 1.05192E+02 2.79225E+02 6.40860E+01 7.02176E+01
 -1       306-1.48991E+01-2.50961E+02 1.53419E+02 1.95342E+02 5.71571E+01-6.50830E+01
 -1       307 9.14446E+01-4.75694E+02 1.64863E+02-2.23697E+02 1.09874E+02-1.58381E+01
 -1       308 1.96649E+02-5.76574E+02 1.68999E+02-1.49226E+02 1.04973E+01-5.94976E+00
 -1       309 2.04710E+02-4.92338E+02 1.63817E+02 1.18058E+02 2.80725E+01-5.74962E-01
 -1       310 2.15510E+02-3.69461E+02 6.70183E+01 2.59269E+02 9.19012E+01 2.54420E+01
 -1       311 2.11746E+02 1.46369E+02-1.85470E+02-9.64528E+01-1.80504E+02-8.74479E+01
 -1       312 2.82353E+02 1.19750E+02-1.45237E+02-1.97243E+02-4.19996E+01 6.10472E+01
 -1       313 3.20322E+02-2.38633E+01-1.05005E+02-3.53284E+02-2.31722E+01-3.28534E+01
 -1       314 4.41656E+02-2.91950E+02-5.27688E+01-3.88310E+02-1.01046E+02 2.67920E+01
 -1       315 6.06298E+02-5.83634E+02-5.32220E-01-2.34691E+02-1.37384E+02 2.38023E+00
 -1       316 4.11728E+02-3.93890E+02-1.18303E+01 3.16571E+02-8.88415E+01 1.08268E+02
 -1       317 1.49521E+01-1.72425E+02-2.31281E+01 3.84167E+02-8.75928E+01 1.19362E+02
 -1       318-9.59781E+01-1.52943E+02 1.34072E+01 2.34154E+02-1.29024E+02 4.03417E+01
 -1       319-5.86824E+01-1.69596E+02 4.99425E+01 1.35687E+02-4.90728E+00 7.63097E+01
 -1       320 1.12312E+02-2.66508E+02 2.86680E+01-2.61252E+02-9.38438E+01-9.55416E+01
 -1       321 1.88548E+02-3.92748E+02 3.05322E+01-2.65063E+02-1.75777E+02-5.85328E+01
 -1       322 3.61755E+02-5.69956E+02 3.23970E+01-1.18188E+02-7.62913E+01-2.93521E+01
 -1       323 3.49286E+02-4.63912E+02 3.38090E+01 6.01156E+01-4.82237E+01-2.00220E+01
 -1       324 3.05952E+02-3.60927E+02 3.52209E+01 2.10052E+02-4.36080E+01 2.30424E+01
 -1       325 3.07163E+02-2.48974E+02-3.53401E+01 2.62590E+02-6.80425E+01-1.33045E+01
 -1       326 3.33053E+02-1.10204E+02-1.05901E+02 3.16055E+02-4.75420E+01 3.29540E+01
 -1       327 2.83671E+02 9.61197E+01-1.45596E+02 1.95477E+02-8.68127E+01-9.13835E+01
 -1       328 1.49687E+02 2.25016E+02-1.85291E+02 1.02402E+02-7.40268E+01 1.75324E+02
 -1       329 9.80451E+01 2.78082E+02-1.43369E+02-1.89661E+02 8.81579E+01-7.76667E+01
 -1       330 2.44894E+02 3.21655E+01-1.11457E+02-4.66695E+02-7.38615E+01-6.65220E+00
 -1       331 1.38756E+02-1.48079E+02-1.12905E+02-6.69915E+02-1.98092E+02 1.23577E+02
 -1       332 3.42152E+02-3.92283E+02 2.15891E+01 4.65782E+01 4.57179E+00-1.58469E+02
 -1       333 4.53448E+02-2.79362E+02-1.37109E+02 3.33088E+02-1.81030E+01-2.75863E+01
 -1       334 3.01550E+02 3.58999E+01-1.13933E+02 4.60709E+02 1.27126E+01 9.07264E+00
 -1       335 1.26704E+02 2.96879E+02-1.53140E+02 2.21170E+02 5.82434E+01 4.96478E+01
 -1       336-5.52675E+02-2.08803E-04-5.64897E-04-6.17485E+01-4.93687E-04 1.65267E+02
 -1       337-6.00214E+02 7.24521E+01 1.14834E+02-1.49581E+02 2.99692E+01 3.25526E+01
 -1       338-5.48390E+02 1.47009E+02 2.29669E+02-2.03830E+02 1.68852E+01-2.18062E+01
 -1       339-3.54420E+02 2.04535E+02 6.41996E+01-2.55102E+02-2.45257E+01 8.91417E+01
 -1       340-1.04383E+02 3.19674E+02-1.01269E+02-3.12655E+02-3.03548E+01-4.80753E+01
 -1       341 3.67408E+01 2.85914E+02-1.09589E+02-4.58937E+02-7.57983E+00 1.44835E+01
 -1       342 2.26248E+02 2.29395E+02-1.17909E+02-5.92037E+02 8.81492E+01 1.65780E+02
 -1       343 9.57247E+01 2.72245E+02-1.71593E+02-5.83946E+02-2.67346E+02-1.76904E+02
 -1       344-1.60897E+02 6.02356E+02-2.25278E+02-5.50346E+02-1.35987E+02-3.15846E+01
 -1       345 3.40822E+02-2.47007E+02 1.07803E+01 5.10045E+01-1.25780E+02-1.75666E+02
 -1       346 6.15806E+02-2.49584E+02-1.49329E+02 1.62123E+02-8.90201E+01 9.08436E+01
 -1       347 5.72664E+02 6.08945E+01-3.09439E+02 5.20655E+02-1.19076E+02 4.03545E+01
 -1       348 4.35453E+02 1.08603E+02-2.15702E+02 6.09035E+02-2.28764E+02 5.22758E+01
 -1       349 2.50379E+02 2.30139E+02-1.21965E+02 5.93352E+02 1.71005E+02-8.18768E+01
 -1       350 5.71953E+01 2.41443E+02-1.21478E+02 4.84772E+02-1.90454E+00 6.77025E+01
 -1       351-1.62221E+00 3.09164E+02-1.20990E+02 3.90037E+02-3.87602E+01 1.90709E+01
 -1       352-3.09017E+02 2.14065E+02 6.09323E+01 2.83428E+02-6.57248E+01-1.38401E+02
 -1       353-5.98575E+02 1.99867E+02 2.42855E+02 1.82206E+02 3.36661E+01 7.75190E+01
 -1       354-6.68169E+02 9.17330E+01 1.21427E+02 1.56556E+02 2.53552E+01-2.01602E+01
 -1       355-6.10479E+02-2.51573E-04-5.40523E-04 6.84363E+01-6.92390E-04-1.85954E+02
 -1       356-6.93980E+02-2.51818E-04-4.74231E-04-2.76303E+01 5.51873E-04-4.68805E+01
 -1       357-5.78325E+02 1.34355E+02 2.56342E+02-1.37680E+02-1.36075E+01-5.67757E+01
 -1       358-2.40713E+02 2.91950E+02-3.29243E+01-2.61760E+02 1.28498E+01-6.78251E+01
 -1       359 9.85349E+01 4.24277E+02-2.07078E+02-5.98994E+02-5.66473E+01-2.16895E+02
 -1       360 5.73365E+02 1.28989E+03-4.74625E+02 4.80683E+02-5.84227E+01 1.46753E+02
 -1       361 6.70226E+02 1.31843E+03-5.25117E+02-3.30839E+02-8.29699E+01-2.29288E+02
 -1       362 2.98949E+02 9.20830E+01-1.86723E+02 5.62652E+02-1.81723E+02 2.53554E+02
 -1       363-2.58305E+02 4.08135E+02-5.53936E+01 4.44569E+02 3.86879E+01 1.10662E+02
 -1       364-6.12649E+02 1.72512E+02 2.60237E+02 9.19567E+01-2.44491E+01 4.88028E+01
 -1       365-7.58602E+02-3.44557E-04-4.81437E-04 3.00892E+01 6.58021E-04 5.65098E+01
 -1       366-8.01933E+02-2.35298E-04-4.75613E-04 3.32397E+00-4.48858E-04-7.03855E+01
 -1       367-7.37266E+02 4.47214E+01 1.41507E+02-3.91488E+01-3.26827E+00 5.52027E+00
 -1       368-6.00301E+02 1.15667E+02 2.83015E+02-6.74864E+01 3.28279E+01-6.83286E+01
 -1       369-4.75677E+02 1.93811E+02 1.59217E+02-1.22413E+02-2.33835E-01 2.62417E+01
 -1       370-3.48190E+02 2.91976E+02 3.54202E+01-2.11036E+02-2.23436E+01-3.92012E+01
 -1       371-2.68372E+02 4.34966E+02-1.30413E+02-3.27042E+02 2.84046E+01-1.97113E+01
 -1       372 5.08027E+01 5.52860E+02-2.96247E+02-5.05203E+02-4.39381E+01-1.11619E+02
 -1       373 1.23226E+03 6.78109E+02-5.10109E+02 3.13786E+02 2.22840E+02-7.82244E+01
 -1       374 9.05353E+02 7.62438E+02-4.78109E+02 8.13305E+02-3.50853E+02-4.15707E+02
 -1       375 2.07923E+02 8.01608E+01-1.86917E+02 1.48650E+02-1.73723E+01-3.70577E+01
 -1       376-1.66928E+01-5.43134E+01 9.98038E+01-4.88412E+01 8.70978E+00-5.79016E+01
 -1       377 3.93221E+00-3.64829E+01 2.43121E+01-1.53852E+01-1.22629E+01-3.30510E+01
 -1       378 8.74541E+00 9.15093E+00-1.64399E+01 2.97858E+00-6.76568E+00-1.09520E+01
 -1       379 2.56582E+01 8.87855E+00-2.17536E+01 1.09169E-02-7.95231E+00 1.51931E+00
 -1       380 1.11235E+01 1.58265E+01-1.94323E+01 6.05623E-01-4.70478E+00 1.50179E+01
 -1       381 5.84901E+00-4.29965E+01 2.73632E+01 1.18314E+01-1.37451E+01 3.39471E+01
 -1       382-1.32945E+01-6.80197E+01 1.01919E+02 4.95340E+01 9.86889E+00 6.24048E+01
 -1       383 1.61781E+02 1.04392E+02-1.79603E+02-1.55536E+02-2.41645E+01 6.24207E+01
 -1       384 7.46798E+02 9.65881E+02-4.90064E+02-8.43727E+02-4.27216E+02 3.42862E+02
 -1       385 1.28490E+03 6.20114E+02-4.96138E+02-5.46907E+02 1.46879E+02 4.88031E+01
 -1       386 6.50062E+02-1.75203E+02-2.51481E+02 5.00321E+02-2.92123E+01 1.12433E+02
 -1       387-4.01428E+01 1.11365E+02-1.20639E+02 6.69186E+02 1.30510E+02 1.93918E+02
 -1       388-5.63217E+02 5.78707E+02 1.02023E+01 3.34153E+02-9.21976E+00 1.14204E+02
 -1       389-6.39237E+02 3.38631E+02 1.43911E+02 7.73608E+01 6.58876E+00-1.63642E+01
 -1       390-6.33384E+02 1.53070E+02 2.77620E+02-5.84668E+00 2.17217E+01 7.33894E+01
 -1       391-7.61600E+02 5.39317E+01 1.38810E+02 2.38578E+00-2.46422E+01-1.19432E+01
 -1       392-8.50768E+02-5.27847E-04-5.14939E-04-1.41867E+00-3.57349E-04 5.81891E+01
 -1       393-7.97784E+02-2.43789E-04-5.39113E-04 3.05914E+00 9.08393E-05-9.75639E+01
 -1       394-6.27082E+02 8.96206E+01 2.91413E+02 1.78925E+01-1.16881E+01-5.85963E+01
 -1       395-4.44440E+02 3.31518E+02 3.39086E+01-6.40266E+01 1.74160E+01-4.75249E+01
 -1       396-2.40436E+02 5.94889E+02-1.44423E+02-1.56465E+02-8.75396E+01-8.35687E+01
 -1       397 9.83344E+01 1.66223E+02-1.77300E+02 1.51431E+02-5.81317E+01-2.29787E+01
 -1       398-2.51880E+01 1.06547E+01 4.78307E+01-3.61551E+00 1.49311E+01 1.29161E+01
 -1       399 2.07963E+01 2.97313E+00-1.52408E+01 4.22967E+00-4.66195E+00-6.05162E+00
 -1       400 1.97556E+01 4.38878E+00-1.57593E+01-4.03230E+00-5.38542E+00 6.48086E+00
 -1       401-1.71504E+01 1.40559E+01 4.82383E+01 1.00115E+01 1.94552E+01-7.04100E+00
 -1       402 7.84172E+01 2.21221E+02-1.93237E+02-1.51599E+02-3.22141E+01 1.62318E+01
 -1       403-4.64878E+02 4.70755E+02-1.58655E+01-1.47093E+02 1.98307E+01 1.91313E+02
 -1       404-6.88081E+02 2.00165E+02 2.95515E+02-1.40098E+02 3.28786E+01 4.06029E+01
 -1       405-7.63019E+02-4.84962E-04-5.46700E-04-9.55641E+00-1.73258E-04 1.53353E+02
 -1       406-7.53733E+02-2.15936E-04-5.48835E-04-2.20873E+00 2.24064E-04-2.27350E+01
 -1       407-7.20302E+02 1.87532E+01 1.49906E+02 5.60738E+01 7.65707E+00-1.40315E+01
 -1       408-6.17747E+02 6.70051E+01 2.99812E+02 1.12493E+02-3.21958E+00-4.28937E+01
 -1       409-5.51798E+02 1.79154E+02 1.66104E+02 1.33408E+02 8.12460E+00 1.31760E+01
 -1       410-5.40227E+02 3.38314E+02 3.23968E+01 1.08486E+02 2.57682E+01-7.77697E+01
 -1       411-3.72275E+02 3.26809E+02 1.98988E+01-4.39115E+01 1.53064E+02 3.85755E+00
 -1       412-2.33818E+02 3.30267E+02 7.39982E+00-4.27232E+01 1.69177E+02-1.22047E+02
 -1       413-6.43656E+01-1.33820E+01 9.95206E+01-4.82574E+01-6.11598E+01 9.52182E+00
 -1       414 1.32627E+01-1.80706E+01 4.73003E+01-8.57635E+00 7.80678E+00 1.82329E+01
 -1       415 4.20331E+01 3.51791E+01-4.92914E+01 3.89020E+01-2.54724E+01-2.87031E+01
 -1       416 7.74772E-01 1.30342E+01-1.91352E+01 8.57437E+00-1.04795E+01-3.60494E+00
 -1       417 1.32469E+01 1.05235E+00-1.06684E+00 1.30744E+00-6.62510E+00 1.96989E+00
 -1       418 1.80538E+01-1.32051E+00 7.60581E-01-5.87507E-01-5.99463E+00 2.25735E-01
 -1       419 1.39217E+01-5.60210E-01-8.95780E-01-2.17544E+00-6.53089E+00-1.27994E+00
 -1       420 2.30960E+00 1.56077E+01-2.01276E+01-6.25697E+00-1.20603E+01 1.88655E+00
 -1       421 3.46428E+01 4.43062E+01-5.02957E+01-3.95608E+01-2.97182E+01 2.53526E+01
 -1       422 1.03998E+01-2.74439E+01 4.91226E+01 2.92958E+00 1.45561E+01-1.46947E+01
 -1       423-5.37322E+01-1.80901E+01 1.02433E+02 5.03629E+01-5.74314E+01-8.66706E+00
 -1       424-3.30626E+02 2.79179E+02-4.19330E+01-2.29157E+02 1.29416E+02 1.34167E+02
 -1       425-5.89359E+02 2.09398E+02 1.35738E+02-1.75351E+02 9.82882E+01-1.24910E+02
 -1       426-7.12078E+02 1.27020E+02 3.13409E+02-3.16421E+02-6.40155E+00 9.56358E+01
 -1       427-6.20469E+02 3.03766E+01 1.56705E+02-2.01002E+02 2.98359E+01 1.13134E+01
 -1       428-5.96867E+02 1.24677E-04-4.17862E-04-2.74904E+01 3.55024E-04-6.26599E+00
 -1       429-6.77562E+02-1.28148E-04-5.66089E-04 9.26683E+00-5.49188E-04-9.30891E+01
 -1       430-5.89782E+02 6.20219E+01 3.05995E+02 1.70670E+02 3.77278E+01-4.51326E+01
 -1       431-3.71523E+02 1.70428E+02 2.36850E+01 2.51769E+02 6.24342E+01-1.63013E+02
 -1       432-4.12279E+01 5.59971E+00 2.63020E+01-1.22129E+01-3.36471E+01-1.33535E+01
 -1       433 1.50508E+01 2.10902E+00-1.96125E+01 6.76623E+00-2.14187E+00-1.18258E+01
 -1       434 1.23326E+01 7.09942E+00-5.89524E+00 3.03859E+00-8.57127E-01-2.41278E+00
 -1       435 1.23212E+01 7.70174E+00-6.02026E+00-2.90812E+00-6.44005E-01 2.54749E+00
 -1       436 1.28330E+01 2.53252E-01-1.93201E+01-8.82111E+00-3.85828E+00 1.03247E+01
 -1       437-3.60488E+01 3.37385E+00 2.44158E+01 1.64923E+01-3.27808E+01 1.22553E+01
 -1       438-3.61905E+02-1.61864E+02 2.69602E+02-2.92638E+02 1.35213E+02 1.29944E+02
 -1       439-4.38604E+02 3.82802E-04-4.98762E-04-2.19545E+01-6.80125E-04-1.69774E+01
 -1       440-5.70790E+02 2.04990E-04-5.58239E-04 2.01482E+01 4.01399E-04-6.89694E+01
 -1       441-5.46364E+02-2.55451E+01 1.56089E+02 1.15499E+02 2.54535E+01 7.04429E+00
 -1       442-5.56461E+02-3.62587E+01 3.12178E+02 2.12838E+02 3.50200E+00-7.51269E+01
 -1       443-4.33995E+02 7.29128E+01 1.63576E+02 2.12518E+02 1.17899E+01 1.07753E+02
 -1       444-2.42483E+02 1.02658E+02 1.49736E+01 2.55124E+02 9.04473E+01-8.96926E+01
 -1       445 1.41011E+01 1.04085E+01-1.85694E+01-2.21204E-01-1.43648E+01-5.20220E+00
 -1       446 4.12015E+00 1.97229E+01-1.55610E+01 4.11687E+00-6.14874E+00-5.21440E+00
 -1       447-1.31587E-02 1.34453E+01-8.38546E-01 2.20033E+00 1.38346E+00-6.69928E+00
 -1       448 7.62639E+00 1.20666E+01-5.92228E+00 3.02205E+00-2.45710E+00-8.63036E-01
 -1       449 1.03174E+01 9.90577E+00-8.70344E+00-9.78599E-02-2.00149E+00-2.22317E+00
 -1       450 1.11460E+01 9.80065E+00-8.84175E+00 1.62011E-01-2.39351E+00-2.01600E-01
 -1       451 1.00276E+01 1.02922E+01-8.73985E+00 4.08946E-01-2.06857E+00 1.98520E+00
 -1       452 7.19540E+00 1.23919E+01-5.87638E+00-2.90827E+00-2.22181E+00 7.64665E-01
 -1       453 1.01201E+00 1.32356E+01-9.13825E-01-9.53363E-01 2.31575E+00 6.56625E+00
 -1       454 2.88415E+00 2.11207E+01-1.55779E+01-4.10733E+00-5.96764E+00 4.72294E+00
 -1       455 9.15089E+00 8.36305E+00-1.67961E+01-3.75034E+00-9.65010E+00 7.03541E+00
 -1       456-1.59138E+02-2.40619E+02 2.25794E+02-7.23997E+01 5.34781E+00 4.44981E+01
 -1       457-2.59439E+02-8.40285E+01 1.12897E+02-3.62508E+01 9.20186E+00-3.42726E+01
 -1       458-3.59740E+02 2.86654E-04-5.91247E-04-3.62860E-01 5.41149E-05 1.77682E+02
 -1       459-5.15613E+02 5.40852E-04-5.75370E-04 3.81580E-01-8.79754E-06 7.22719E+01
 -1       460-4.64832E+02-2.29639E+02 3.11012E+02 5.11467E+00 2.19958E+00-1.53209E+02
 -1       461 9.12586E+00 2.44555E+01-2.12219E+01 2.91630E-01-9.24586E-01-7.88652E+00
 -1       462-1.30755E+00 1.74241E+01 5.93199E-01 3.31747E-01 1.73872E-04-6.16008E+00
 -1       463 9.99169E+00 1.09093E+01-8.75602E+00 1.96972E-01 6.82772E-02-2.63850E+00
 -1       464 9.85171E+00 1.10307E+01-8.85416E+00 2.13587E-01-4.57993E-02 2.35979E+00
 -1       465-1.04623E+00 1.83826E+01 7.56724E-01 8.37132E-01 3.75282E-01 6.03822E+00
 -1       466 8.14607E+00 2.64548E+01-2.16968E+01-1.85173E-01 2.32923E+00 8.08756E+00
 -1       467-2.95441E+02-2.16157E+02 2.48104E+02 1.88867E+02-9.59262E+01 1.27195E+02
 -1       468-3.74228E+02 5.41357E-04-4.58990E-04 1.28903E+01 5.45501E-04-2.95953E+01
 -1       469-5.66404E+02 2.06330E-04-5.59462E-04-1.97797E+01-4.00516E-04-7.19598E+01
 -1       470-5.40050E+02-2.75039E+01 1.54923E+02-1.11560E+02-2.45099E+01 7.29629E+00
 -1       471-5.46078E+02-4.23061E+01 3.09846E+02-2.07510E+02-3.10196E+00-7.30647E+01
 -1       472-4.24387E+02 6.72392E+01 1.62287E+02-2.10548E+02-9.82363E+00 1.06110E+02
 -1       473-2.37930E+02 9.70634E+01 1.47289E+01-2.49753E+02-8.65314E+01-8.87052E+01
 -1       474 1.15739E+01 1.01809E+01-1.69519E+01-5.62081E-01 1.24918E+01-5.71949E+00
 -1       475 3.60684E+00 1.97390E+01-1.48272E+01-3.86979E+00 5.99542E+00-4.89505E+00
 -1       476 6.10873E-01 1.33279E+01-1.29073E+00-1.59417E+00-1.35896E+00-6.87619E+00
 -1       477 7.48996E+00 1.20284E+01-5.98192E+00-2.62581E+00 2.53866E+00-9.62060E-01
 -1       478 1.02589E+01 9.99035E+00-8.61427E+00 4.39984E-01 2.13661E+00-2.30675E+00
 -1       479 1.11348E+01 9.66276E+00-8.77209E+00 2.72597E-01 2.48206E+00-1.17337E-01
 -1       480 1.03267E+01 1.00128E+01-8.72172E+00 8.50220E-02 2.15030E+00 2.02790E+00
 -1       481 7.62682E+00 1.23183E+01-6.06037E+00 3.39628E+00 2.60816E+00 5.88912E-01
 -1       482-1.68894E-01 1.38822E+01-1.13354E+00 2.35014E+00-1.29193E+00 6.55240E+00
 -1       483 3.90553E+00 1.99789E+01-1.54096E+01 4.34831E+00 6.79745E+00 5.17348E+00
 -1       484 1.38943E+01 1.07763E+01-1.84023E+01 8.64176E-01 1.53554E+01 5.32169E+00
 -1       485-2.77967E+02 1.17185E+02 4.36379E+01 2.56137E+02-9.18833E+01 9.35227E+01
 -1       486-4.92083E+02 1.02512E+02 1.57025E+02 2.24274E+02-2.04418E+01-1.06168E+02
 -1       487-5.84063E+02 2.11240E+01 2.70413E+02 3.12879E+02 7.07450E-02 5.98293E+01
 -1       488-5.01482E+02-1.58390E+00 1.35206E+02 1.76778E+02-3.23033E+01 4.66158E+00
 -1       489-4.79968E+02 2.25235E-04-4.83733E-04 1.63973E+01-5.09483E-04 1.45979E+01
 -1       490-6.71173E+02-1.11622E-04-5.61363E-04-9.24983E+00 5.49301E-04-9.16444E+01
 -1       491-5.79502E+02 5.54457E+01 3.03441E+02-1.71023E+02-3.74635E+01-4.62985E+01
 -1       492-3.61786E+02 1.60621E+02 2.35945E+01-2.46667E+02-6.28505E+01-1.59351E+02
 -1       493-3.85953E+01 5.41632E+00 2.46736E+01 1.24286E+01 3.21047E+01-1.27654E+01
 -1       494 1.41589E+01 2.02890E+00-1.89643E+01-6.84646E+00 2.50010E+00-1.14917E+01
 -1       495 1.23697E+01 7.17739E+00-6.02509E+00-2.70474E+00 7.89191E-01-2.59830E+00
 -1       496 1.24363E+01 7.27974E+00-5.91199E+00 3.44079E+00 7.92037E-01 2.25558E+00
 -1       497 1.46840E+01 1.92421E+00-1.97868E+01 7.41231E+00 2.42503E+00 1.15839E+01
 -1       498-4.04911E+01 5.31664E+00 2.60732E+01-1.24974E+01 3.51565E+01 1.31306E+01
 -1       499-3.92188E+02 1.97463E+02 3.53005E+01 2.62577E+02-5.11158E+01 1.78942E+02
 -1       500-6.08829E+02 1.08416E+02 2.86425E+02 2.19157E+02-2.81908E+01 3.01001E+01
 -1       501-6.41884E+02-2.63709E-04-5.29884E-04 8.18905E+00 4.23499E-04 8.46619E+01
 -1       502-7.47536E+02-2.00138E-04-5.48814E-04 2.10327E+00-2.33848E-04-2.49746E+01
 -1       503-7.14077E+02 1.73383E+01 1.48518E+02-5.85600E+01-7.92308E+00-1.38573E+01
 -1       504-6.08255E+02 6.18520E+01 2.97036E+02-1.16811E+02 3.38622E+00-4.32992E+01
 -1       505-5.36490E+02 1.68770E+02 1.64748E+02-1.35092E+02-8.13414E+00 1.35917E+01
 -1       506-5.18444E+02 3.20117E+02 3.24606E+01-1.10474E+02-2.51483E+01-7.33618E+01
 -1       507-3.55188E+02 3.14796E+02 1.88882E+01 4.27055E+01-1.46858E+02-3.77700E-01
 -1       508-2.29220E+02 3.18728E+02 5.31501E+00 5.56877E+01-1.64687E+02-1.14184E+02
 -1       509-5.90034E+01-1.32156E+01 9.51964E+01 4.61651E+01 5.86293E+01 8.77827E+00
 -1       510 1.21158E+01-1.86819E+01 4.53669E+01 6.82094E+00-8.42666E+00 1.64114E+01
 -1       511 3.86900E+01 3.56975E+01-4.74281E+01-3.72900E+01 2.56681E+01-2.72222E+01
 -1       512 1.54322E+00 1.30234E+01-1.87787E+01-7.58254E+00 1.07151E+01-3.15784E+00
 -1       513 1.36216E+01 5.15208E-01-1.44666E+00-1.22261E+00 6.60257E+00 1.44588E+00
 -1       514 1.83243E+01-9.24702E-01 5.64692E-01 3.40075E-01 6.08789E+00-1.63698E-01
 -1       515 1.34626E+01 4.26854E-01-9.04287E-01 1.95038E+00 6.52021E+00-1.92826E+00
 -1       516 9.93248E-01 1.32754E+01-1.93024E+01 8.69451E+00 1.07701E+01 3.28384E+00
 -1       517 4.12071E+01 3.65483E+01-4.96831E+01 3.96384E+01 2.63639E+01 2.83658E+01
 -1       518 1.28621E+01-1.90820E+01 4.77056E+01-7.40800E+00-8.44744E+00-1.78121E+01
 -1       519-6.32923E+01-1.38900E+01 1.00330E+02-4.84956E+01 6.26024E+01-9.44635E+00
 -1       520-2.45092E+02 3.36415E+02 7.18085E+00-6.90004E+01-1.75541E+02 1.21102E+02
 -1       521-3.79765E+02 3.40584E+02 1.70726E+01-5.10360E+01-1.55945E+02 1.85800E+00
 -1       522-5.58648E+02 3.62765E+02 2.69635E+01 1.17305E+02-3.10100E+01 6.87837E+01
 -1       523-5.68122E+02 2.01073E+02 1.64700E+02 1.55400E+02-3.66321E+00-8.31618E+00
 -1       524-6.19761E+02 8.59606E+01 3.02436E+02 1.43627E+02-3.41136E+00 4.97865E+01
 -1       525-7.23445E+02 2.06961E+01 1.51218E+02 7.46003E+01 7.34209E+00 7.82115E+00
 -1       526-7.62859E+02-3.10939E-04-5.01168E-04 2.94498E+00-1.30929E-04 1.03656E+01
 -1       527-7.96100E+02-2.32171E-04-5.37171E-04-3.42249E+00-7.06446E-05-9.75730E+01
 -1       528-6.18223E+02 8.48749E+01 2.90364E+02-2.70871E+01 1.16343E+01-6.07922E+01
 -1       529-4.21825E+02 3.13340E+02 2.95977E+01 5.66866E+01-1.46978E+01-5.10717E+01
 -1       530-2.14356E+02 5.73786E+02-1.46408E+02 1.68409E+02 8.97479E+01-7.93167E+01
 -1       531 8.93733E+01 1.69969E+02-1.72383E+02-1.44266E+02 5.19782E+01-2.14906E+01
 -1       532-2.17801E+01 1.08486E+01 4.55917E+01 4.62126E+00-1.50168E+01 1.05832E+01
 -1       533 2.02146E+01 3.04872E+00-1.47039E+01-3.84116E+00 4.76934E+00-6.33850E+00
 -1       534 2.06404E+01 3.17757E+00-1.55649E+01 4.43102E+00 4.92854E+00 6.34941E+00
 -1       535-2.40424E+01 1.10982E+01 4.82232E+01-3.99994E+00-1.55185E+01-1.21092E+01
 -1       536 9.58166E+01 1.73941E+02-1.80117E+02 1.51822E+02 5.70185E+01 2.26868E+01
 -1       537-2.26804E+02 6.08744E+02-1.54382E+02-1.80648E+02 9.54658E+01 8.46632E+01
 -1       538-4.45524E+02 3.42987E+02 2.60174E+01-5.77714E+01-1.99773E+01 5.07289E+01
 -1       539-6.35134E+02 9.50784E+01 2.96221E+02 4.33406E+01 9.07666E+00 6.11983E+01
 -1       540-8.20502E+02-2.50846E-04-5.48007E-04 5.83073E+00-4.86090E-05 1.01618E+02
 -1       541-8.07099E+02-2.29639E-04-4.72894E-04-3.97007E+00 4.32854E-04-7.42839E+01
 -1       542-7.40241E+02 4.28220E+01 1.41846E+02 3.14503E+01 3.39587E+00 6.25328E+00
 -1       543-5.93447E+02 1.10466E+02 2.83692E+02 5.37324E+01-3.29139E+01-7.13289E+01
 -1       544-4.57730E+02 1.86805E+02 1.55213E+02 1.07408E+02-2.55607E-01 2.51380E+01
 -1       545-3.24449E+02 2.84099E+02 2.67347E+01 1.98276E+02 2.72643E+01-4.79880E+01
 -1       546-2.29104E+02 4.13957E+02-1.35698E+02 3.22725E+02-3.77707E+01-1.15327E+01
 -1       547 1.20704E+02 5.08256E+02-2.98131E+02 4.88955E+02 2.04678E+01-7.91011E+01
 -1       548 1.19753E+03 6.79444E+02-4.96315E+02-2.52662E+02-1.81083E+02-1.35326E+02
 -1       549 8.18161E+02 7.52472E+02-4.57505E+02-7.16871E+02 3.50857E+02-3.77703E+02
 -1       550 1.88613E+02 8.12289E+01-1.76645E+02-1.43069E+02 1.89579E+01-4.26644E+01
 -1       551-1.46254E+01-5.48651E+01 9.54741E+01 4.65662E+01-8.37239E+00-5.74671E+01
 -1       552 4.60182E+00-3.61269E+01 2.35678E+01 1.37750E+01 1.21350E+01-3.20986E+01
 -1       553 9.87785E+00 1.03333E+01-1.64900E+01-2.39176E+00 6.11969E+00-1.13469E+01
 -1       554 2.62974E+01 7.47045E+00-2.10616E+01 4.23585E-01 7.99596E+00 1.05532E+00
 -1       555 9.30706E+00 1.09827E+01-1.75092E+01 2.85533E+00 6.37217E+00 1.29545E+01
 -1       556 4.15715E+00-3.70413E+01 2.45395E+01-1.47982E+01 1.23619E+01 3.47274E+01
 -1       557-1.61719E+01-5.65070E+01 1.00645E+02-4.88783E+01-8.92028E+00 6.02204E+01
 -1       558 2.02414E+02 8.33363E+01-1.86589E+02 1.49964E+02 1.88774E+01 4.25551E+01
 -1       559 8.79479E+02 7.71162E+02-4.81290E+02 7.56156E+02 3.62530E+02 3.99728E+02
 -1       560 1.28398E+03 6.96976E+02-5.23062E+02 2.63219E+02-1.91008E+02 1.43643E+02
 -1       561 1.28989E+02 5.39185E+02-3.15944E+02-5.17983E+02 2.09045E+01 8.50089E+01
 -1       562-2.42368E+02 4.41379E+02-1.45436E+02-3.37909E+02-3.65657E+01 1.24161E+01
 -1       563-3.36653E+02 3.04114E+02 2.50712E+01-2.03274E+02 3.21043E+01 5.05760E+01
 -1       564-4.72198E+02 2.02753E+02 1.57538E+02-1.05498E+02-4.98125E-01-2.70567E+01
 -1       565-6.14063E+02 1.18584E+02 2.90006E+02-4.80636E+01-3.02219E+01 7.55163E+01
 -1       566-7.65953E+02 4.66569E+01 1.45003E+02-2.88362E+01 4.56404E+00-4.81341E+00
 -1       567-8.34973E+02-2.45213E-04-4.87346E-04 3.78655E+00 4.26812E-04 7.96835E+01
 -1       568-7.09631E+02-2.44171E-04-4.75878E-04 2.63610E+01-5.30483E-04-5.33574E+01
 -1       569-5.74442E+02 1.31036E+02 2.57233E+02 1.21708E+02 1.41625E+01-6.29964E+01
 -1       570-2.10825E+02 2.86151E+02-3.72222E+01 2.48682E+02-1.94103E+01-6.69918E+01
 -1       571 1.63253E+02 4.03591E+02-2.35732E+02 5.75096E+02 9.01044E+01-2.31918E+02
 -1       572 6.83863E+02 1.17828E+03-4.94815E+02-3.00633E+02 1.19688E+02 1.57411E+02
 -1       573 7.33571E+02 1.21441E+03-5.18306E+02 3.35900E+02 1.19029E+02-1.64719E+02
 -1       574 1.76836E+02 4.21622E+02-2.48905E+02-6.03541E+02 9.06570E+01 2.46126E+02
 -1       575-2.15155E+02 3.02210E+02-4.16992E+01-2.56301E+02-1.98873E+01 6.84185E+01
 -1       576-5.94006E+02 1.37016E+02 2.65059E+02-1.20648E+02 1.47385E+01 6.63129E+01
 -1       577-7.38859E+02-2.56825E-04-4.90357E-04-2.75569E+01-5.53202E-04 5.80363E+01
 -1       578-5.79686E+02-1.93548E-04-5.65819E-04 6.04155E+01 4.84049E-04 1.50947E+02
 -1       579-6.18643E+02 7.23982E+01 1.15386E+02 1.39106E+02-3.22437E+01 3.19410E+01
 -1       580-5.45999E+02 1.45929E+02 2.30773E+02 1.84833E+02-2.04853E+01-3.17371E+01
 -1       581-3.33775E+02 1.96435E+02 6.47966E+01 2.40028E+02 2.79375E+01 8.43289E+01
 -1       582-7.08007E+01 3.00736E+02-1.01179E+02 3.07152E+02 2.39468E+01-5.45639E+01
 -1       583 6.41366E+01 3.05437E+02-1.37256E+02 4.42103E+02 6.65016E+00 1.77375E+01
 -1       584 2.70862E+02 2.97701E+02-1.73333E+02 5.72407E+02-7.38441E+01 9.26086E+01
 -1       585 3.28984E+02 2.24843E+02-2.34232E+02 5.60610E+02 2.29513E+02-1.21896E+02
 -1       586 3.76275E+02 2.43873E+02-2.95131E+02 4.82782E+02 8.22885E+01-2.94733E+01
 -1       587 4.60444E+02-1.14889E+02-1.73146E+02 2.06000E+02 7.82372E+00-7.26672E+01
 -1       588 2.60348E+02-9.18319E+01-5.11609E+01 4.94014E+01 9.65517E+01 1.04178E+02
 -1       589 2.65996E+02-9.36851E+01-5.16167E+01-5.11283E+01 9.98390E+01-1.08223E+02
 -1       590 4.71023E+02-1.16018E+02-1.79024E+02-2.11986E+02 7.33324E+00 7.56067E+01
 -1       591 3.83877E+02 2.57980E+02-3.06431E+02-4.89701E+02 8.12602E+01 2.98872E+01
 -1       592 3.44163E+02 2.33141E+02-2.44148E+02-5.75409E+02 2.37727E+02 1.31555E+02
 -1       593 2.89286E+02 3.08120E+02-1.81866E+02-5.94621E+02-7.64929E+01-9.98736E+01
 -1       594 7.09334E+01 3.18962E+02-1.45168E+02-4.59548E+02 8.15157E+00-1.91373E+01
 -1       595-6.91797E+01 3.15413E+02-1.08470E+02-3.18766E+02 2.61697E+01 5.82659E+01
 -1       596-3.39914E+02 2.06194E+02 6.58206E+01-2.47697E+02 3.01866E+01-8.75551E+01
 -1       597-5.63690E+02 1.51663E+02 2.40112E+02-1.88357E+02-2.12589E+01 3.65533E+01
 -1       598-6.45241E+02 7.47517E+01 1.20056E+02-1.41724E+02-3.24392E+01-3.28010E+01
 -1       599-6.07730E+02-2.07039E-04-5.75156E-04-6.25623E+01 5.06225E-04-1.54802E+02
 -1       600 1.11279E+02 2.81585E+02-1.46253E+02 2.19510E+02-8.15379E+01-8.72002E+01
 -1       601 2.76068E+02 8.68504E+01-1.40995E+02 4.56533E+02-1.10377E+01-3.08794E+00
 -1       602 3.19128E+02-1.28517E+02-1.21763E+02 3.79455E+02-4.31014E+00 5.12056E+01
 -1       603 2.08155E+02-1.14229E+02 8.61775E-01 1.17570E+02 1.25508E+01 1.34931E+02
 -1       604 2.13883E+02-1.15961E+02 1.23773E+00-1.20345E+02 1.40860E+01-1.37731E+02
 -1       605 3.27304E+02-1.28247E+02-1.26696E+02-3.88203E+02-3.47914E+00-5.50748E+01
 -1       606 2.89222E+02 9.14936E+01-1.47567E+02-4.73454E+02-1.07342E+01 1.42820E+00
 -1       607 1.17946E+02 2.92082E+02-1.53700E+02-2.29558E+02-8.72264E+01 9.18229E+01
 -1       608 2.00132E+02 1.86354E+02-1.91326E+02 1.29286E+02 1.01016E+02-8.59305E+01
 -1       609 2.87899E+02 1.21329E+02-1.49992E+02 2.34435E+02 8.30235E+01 7.57459E+01
 -1       610 2.76145E+02-3.71729E+01-1.08658E+02 3.32349E+02 5.05182E+01-2.39568E+01
 -1       611 2.56653E+02-2.00549E+02-2.85262E+01 3.11548E+02 8.06099E+01 2.81516E+01
 -1       612 2.41919E+02-3.40270E+02 5.16050E+01 2.99267E+02 3.21888E+01-1.69033E+01
 -1       613 2.01664E+02-3.60895E+02 5.22444E+01 2.34707E+02 1.15374E+02-1.06832E+01
 -1       614 2.06411E+02-3.62427E+02 5.28839E+01 2.08708E+02 1.34067E+02-5.30569E+00
 -1       615 2.11410E+02-3.72173E+02 5.40916E+01-2.14096E+02 1.37564E+02 4.55502E+00
 -1       616 2.06902E+02-3.70818E+02 5.35649E+01-2.40311E+02 1.19640E+02 1.14386E+01
 -1       617 2.49814E+02-3.49255E+02 5.30382E+01-3.06649E+02 3.25854E+01 1.93061E+01
 -1       618 2.63968E+02-2.05396E+02-3.01146E+01-3.19828E+02 8.45584E+01-3.00464E+01
 -1       619 2.83933E+02-3.53078E+01-1.13267E+02-3.43155E+02 5.20304E+01 2.50394E+01
 -1       620 3.00314E+02 1.27606E+02-1.56099E+02-2.45183E+02 8.53567E+01-7.83216E+01
 -1       621 2.10232E+02 1.91703E+02-1.98930E+02-1.37436E+02 1.08012E+02 8.75622E+01
 -1       622 1.95858E+02-3.16046E+02 6.53305E+01 2.39160E+02-9.88113E+01-1.07368E+01
 -1       623 1.93665E+02-5.02464E+02 1.60517E+02 1.60242E+02 1.47921E+01 3.82591E+00
 -1       624 2.18609E+02-8.06922E+02 2.02598E+02 1.00522E+02 3.17704E+01-1.48776E+01
 -1       625 2.24710E+02-8.32139E+02 2.08961E+02-1.02212E+02 3.17269E+01 1.52016E+01
 -1       626 1.99510E+02-5.17993E+02 1.65903E+02-1.62827E+02 1.51622E+01-3.88403E+00
 -1       627 2.00538E+02-3.24481E+02 6.75600E+01-2.44060E+02-1.01465E+02 1.19036E+01
 -1       628 1.57665E+02-5.68838E+02 2.39319E+02 1.87309E+02 5.08859E+01 9.39350E+00
 -1       629 1.40727E+02-5.80743E+02 2.54374E+02 1.18091E+02 5.79847E+01-1.07433E+01
 -1       630 1.44731E+02-5.92978E+02 2.69429E+02 4.19400E+01 8.20918E+01 1.72848E+01
 -1       631 2.01392E+02-7.38625E+02 3.10871E+02-5.70422E+01 4.41865E+01-1.75475E+00
 -1       632 1.79476E+02-8.24231E+02 3.52312E+02-2.48289E+02 8.66768E+01 3.48046E+01
 -1       633-3.88625E+01-4.02367E+02 2.62001E+02-3.87626E+02 1.02420E+02 1.48725E+02
 -1       634-2.08252E+02-1.40807E+02 1.71689E+02-2.68007E+02 2.35024E+01 1.44620E+01
 -1       635-2.75184E+02-9.81587E+01 1.73421E+02 5.45650E+00 1.35289E+02-3.05414E-01
 -1       636-2.10016E+02-1.43808E+02 1.75153E+02 2.79981E+02 2.57035E+01-1.71364E+01
 -1       637-3.89205E+01-4.14830E+02 2.69492E+02 4.01851E+02 1.05586E+02-1.53609E+02
 -1       638 1.84880E+02-8.50552E+02 3.63831E+02 2.57801E+02 8.96306E+01-3.58405E+01
 -1       639 2.07293E+02-7.62383E+02 3.21300E+02 6.09134E+01 4.57834E+01 1.67719E+00
 -1       640 1.48654E+02-6.12687E+02 2.78769E+02-4.10054E+01 8.53391E+01-1.78858E+01
 -1       641 1.45002E+02-6.00532E+02 2.63579E+02-1.19262E+02 6.07428E+01 1.14628E+01
 -1       642 1.63161E+02-5.88694E+02 2.48388E+02-1.90200E+02 5.43334E+01-1.05797E+01
 -1       643 7.56542E+01-6.33466E+02 1.19659E+02 1.50414E+02-2.58347E+01 2.32349E+01
 -1       644 5.23775E+01-7.54650E+02 1.34714E+02 2.61821E+01-2.86820E+01-2.46838E+01
 -1       645 5.38601E+01-6.83994E+02 1.76156E+02-1.82437E+02-1.08876E+01 2.28371E+01
 -1       646-7.07483E+01-2.19248E+02 8.58442E+01-1.24328E+02-2.51159E+01 4.16774E+01
 -1       647-7.17482E+01-2.24520E+02 8.75760E+01 1.30601E+02-2.62058E+01-4.09535E+01
 -1       648 5.55194E+01-7.06007E+02 1.81915E+02 1.88999E+02-1.10516E+01-2.31180E+01
 -1       649 5.37926E+01-7.80939E+02 1.39384E+02-2.57372E+01-2.96021E+01 2.54540E+01
 -1       650 7.83568E+01-6.58453E+02 1.24194E+02-1.53700E+02-2.65777E+01-2.45550E+01
 -1       651-2.12615E-04-5.74792E+02-5.21764E-04 6.37147E+01-1.78752E+02-6.68329E-04
 -1       652-2.70191E-04-7.25014E+02-4.70590E-04 2.95938E+01 4.57586E+01 7.43012E-04
 -1       653-4.67886E-04-8.39713E+02-5.67697E-04-2.92099E-01 6.41103E+01-3.50222E-04
 -1       654-4.86586E-04-7.69130E+02-5.75109E-04-9.37807E+00 1.33004E+02-2.35366E-04
 -1       655 1.90198E-05-6.44448E+02-3.05977E-04-2.73939E+01-5.50400E+01 5.11636E-06
 -1       656 5.28703E-05-4.41263E+02-4.84699E-04-2.44205E+01 7.85607E+00-5.61842E-04
 -1       657 2.19774E-04-2.97690E+02-5.59200E-04 4.31799E+00 1.53630E+02 2.62771E-04
 -1       658 7.34948E-04-2.57313E+02-3.20827E-04 1.42125E-01 9.48011E+00-2.54448E-06
 -1       659 2.13564E-04-3.05232E+02-5.67087E-04-3.88165E+00 1.55831E+02-2.57869E-04
 -1       660 5.22480E-05-4.54805E+02-4.98558E-04 2.53885E+01 7.80035E+00 5.80817E-04
 -1       661 1.73413E-05-6.65270E+02-3.13857E-04 2.83302E+01-5.64439E+01-7.93409E-06
 -1       662-5.00750E-04-7.95064E+02-5.94403E-04 9.74889E+00 1.37425E+02 2.45375E-04
 -1       663-4.82950E-04-8.69076E+02-5.87479E-04 3.74532E-01 6.67132E+01 3.59416E-04
 -1       664-2.78241E-04-7.52370E+02-4.87619E-04-3.03823E+01 4.82107E+01-7.63008E-04
 -1       665-2.16517E-04-5.99058E+02-5.39253E-04-6.56794E+01-1.82578E+02 6.88940E-04
 -1       666 9.76996E-14 5.60796E-10 5.68079E-12 9.06033E-11 1.68392E+02 5.13725E-04
 -1       667-1.68754E-14 1.86436E-10-3.04112E-12-7.54619E-12-5.46687E+01 2.49814E-04
 -1       668-9.76996E-15 1.03029E-11 4.26326E-12 7.26263E-12-4.51597E+01 5.80840E-06
 -1       669-1.11022E-14-7.19602E-11 2.86704E-12 4.62004E-11-7.93031E+01-1.59308E-04
 -1       670-1.02141E-14-1.52767E-11 4.36806E-12 5.70983E-11-3.51055E+01-4.59769E-05
 -1       671-2.62013E-14 5.39693E-11 3.22764E-12 2.57323E-11-1.06859E+01 8.15840E-05
 -1       672 2.22045E-15 9.37384E-11 5.20295E-12-1.60143E-11-6.75196E+01-2.59888E-04
 -1       673 2.11386E-13 1.26903E-10-3.38218E-12-3.82503E-11 1.74296E+02-6.02922E-04
 -1       674-1.80763E-10 6.14079E-10-1.13387E-10-3.50495E-11-6.19012E+01 4.72389E+01
 -1       675-7.60849E-11 2.26106E-10-4.59730E-11 9.31877E-12-6.24440E+01 2.11929E+01
 -1       676-7.82874E-12-6.68443E-12 3.35586E-11 1.03514E-10-9.38642E+01-2.49755E+01
 -1       677-7.20662E-11-9.93362E-11 1.00058E-10 9.58493E-11-3.04711E+01 2.36914E+01
 -1       678-1.35222E-11 8.25177E-12 6.62975E-11 1.85410E-11-6.67045E+01-5.35702E+00
 -1       679-4.66545E-11 1.21261E-10-1.80478E-11 2.32391E-11-4.57366E+01 1.53301E+00
 -1       680-5.53650E-11 1.21516E-10 1.06967E-10-5.58966E-11-7.15995E+01-3.30545E+01
 -1       681-3.18234E-11 1.09038E-10-1.56464E-10 4.00568E-12-2.67193E+01-1.86174E+01
 -1       682-1.08480E-10-5.36904E-12-1.17177E-10 9.68399E-11-1.78690E+02-8.57139E+01
 -1       683-4.16925E-10 3.42852E-10 9.51353E-11 1.12112E-10-2.57138E+01-3.07736E+01
 -1       684-2.89224E-10 4.21488E-10 1.73391E-10-2.22897E-11-1.43017E+02 3.72071E+00
 -1       685-1.84607E-10-1.10436E-11 1.74669E-10 8.85452E-11-9.31284E+01 1.19909E+02
 -1       686 7.43441E-11-1.87370E-11-2.46878E-11-9.24416E-12-9.37122E+00 7.78863E+01
 -1       687 6.02185E-12-5.26512E-11 7.60059E-11-6.15472E-11-9.97198E+01-9.54631E+01
 -1       688 1.33592E-10 1.82541E-10-1.29836E-10 1.41871E-10-8.03764E+01-2.92863E+01
 -1       689-1.70103E-10 1.87723E-10 2.02605E-10 3.85612E-11-5.00987E+01 2.15506E+01
 -1       690-8.31119E-11 4.10516E-12 9.35726E-11-1.24158E-10-5.02601E+01 3.03553E+01
 -1       691 1.83986E-11 2.49045E-12-2.11996E-10 2.22400E-12-7.26413E+01 1.73614E+02
 -1       692 6.05361E-10 4.26326E-14-8.86047E-12 1.31782E-10 5.86186E-04 1.70219E+02
 -1       693 6.14357E-10-1.65511E-10-4.47562E-11-3.55929E-11 1.80360E+01-2.28994E+01
 -1       694 3.32532E-10-3.43574E-10-9.69645E-11 1.22043E-10-2.77854E+01-5.06945E+01
 -1       695 2.54104E-10 3.23162E-10-1.74488E-10 3.24262E-10 8.60840E+01 1.64441E+02
 -1       696-4.57184E-10 8.53001E-10 1.62146E-10-3.32051E-10-1.43792E+02-3.39030E+01
 -1       697-9.89644E-11-3.28033E-10 9.17222E-10-1.01476E-10-1.26250E+02-1.82574E+02
 -1       698 1.13343E-10 1.06305E-09-1.06185E-09 7.11099E-11-1.27135E+02 4.07487E+01
 -1       699 1.96683E-10-2.41641E-10-1.40384E-10-2.52580E-11 1.69434E+02-7.98419E+01
 -1       700 5.79921E-12 1.28869E-11-1.10744E-10 1.23610E-10-3.64126E+01 2.17029E+01
 -1       701-1.74865E-10 6.67624E-11-4.72955E-14 1.97832E-11 3.44159E+01 7.88246E+01
 -1       702-2.51433E-10 3.31957E-13 1.98942E-10 6.38001E-11 6.87507E-04-1.91190E+02
 -1       703 2.32383E-10 3.64153E-14-1.56497E-12 1.01612E-11 2.55748E-04-6.42846E+01
 -1       704 2.69774E-10-8.88654E-11-4.33731E-11 5.47984E-11 3.35844E+01-6.79482E+01
 -1       705 3.99163E-10-2.21983E-10-8.16017E-11 2.10265E-11-2.09018E+01-4.54483E+01
 -1       706 9.82730E-10-3.02504E-10-2.62801E-10-3.08230E-10-4.43202E+01-1.19465E+02
 -1       707 1.68966E-09 9.45246E-10 3.76561E-10 1.74175E-09-2.27161E+02-2.88368E+02
 -1       708 2.01027E-10-3.47699E-10 2.49503E-09-1.09466E-10 1.43389E+00-9.24491E+01
 -1       709-2.54270E-10-2.25098E-10 2.01660E-09-7.57350E-12 1.57087E+01 1.14138E+01
 -1       710-2.72983E-10-3.45067E-10 1.50966E-09 4.87382E-11 2.48480E+01-3.79656E+00
 -1       711-1.04072E-12-1.24343E-11-9.53951E-10 4.27096E-11 4.23115E+00 9.00414E+01
 -1       712-1.56912E-09 1.73326E-09-2.64199E-10-8.85958E-11-2.91380E+02 2.15776E+02
 -1       713-1.14171E-09 1.93021E-10 6.90484E-10 3.49033E-10-3.20084E+01 1.20536E+02
 -1       714-3.62898E-10 6.85579E-11-1.92808E-10-8.79631E-11-7.70771E+00 1.19933E+02
 -1       715-1.76108E-10 7.76390E-11 4.07631E-11 5.15868E-11 2.24830E+01 7.32813E+01
 -1       716-5.57030E-11-5.21805E-14 1.09900E-10 1.58171E-11 3.82390E-05 5.22045E+01
 -1       717 1.76428E-11 1.77636E-15 1.60405E-12 2.98561E-12-1.92916E-05-1.62722E+01
 -1       718 5.34568E-11-8.84981E-12-1.95371E-10 5.23570E-11-2.90487E+00-4.25463E+01
 -1       719-6.35723E-11-1.30409E-10 1.39457E-10 5.67052E-11 2.56012E+01-8.17958E+01
 -1       720-1.10873E-10 1.38698E-11-1.23842E-10 9.55023E-11 1.75728E+02-1.22589E+02
 -1       721-3.63254E-10 2.54921E-10-4.23491E-10 2.48955E-11-8.93046E+01 3.78957E+00
 -1       722 1.95329E-10 5.68122E-11-7.28393E-10 1.41497E-10-6.18670E+01-7.21400E+01
 -1       723 2.36993E-11 4.10108E-10-1.09653E-09-2.91676E-12-6.37306E+00 9.35946E+00
 -1       724-7.46034E-11 2.96427E-10-9.75620E-10-4.56835E-11-4.94321E+00-7.63645E+00
 -1       725 2.40514E-10 3.01794E-10-5.55144E-10-1.05218E-10-7.56769E+01 6.13262E+01
 -1       726-4.00078E-10-3.92780E-12 1.33708E-09 1.31674E-10-9.41064E+01-7.24129E-01
 -1       727 8.41567E-11-5.15392E-11-3.52518E-10 4.28564E-11 1.28295E+02 1.41832E+02
 -1       728 8.46730E-13 2.09248E-11-2.60390E-11 1.45072E-11-6.51605E+00 9.36867E+01
 -1       729 7.27773E-12-2.50688E-13 7.60225E-11-5.43221E-12 3.94437E-05-1.30222E+01
 -1       730-8.98694E-11-1.03917E-13 4.95604E-13 2.65139E-11-2.20970E-06-6.22393E+01
 -1       731-1.17152E-10-9.10330E-11 3.80845E-11 1.31867E-10 3.66336E+00-7.27772E+01
 -1       732 4.42242E-11-5.13651E-11 2.08562E-10-3.29692E-11 9.00735E+01-9.61035E+01
 -1       733-1.73176E-10-7.96538E-11 1.32564E-09 2.23494E-11 4.15976E+00 2.24833E+01
 -1       734 5.40489E-10 2.26038E-10-3.00294E-09 1.09335E-10 7.59755E+00-5.49149E+00
 -1       735-4.83307E-10-6.33560E-10 3.73279E-09 2.61199E-11-5.35181E-01-8.84025E-01
 -1       736 2.53008E-10-2.40442E-10 5.73126E-10-1.22787E-11-8.15049E-01 4.97825E-01
 -1       737-2.89851E-10-3.62531E-10 4.24930E-09-6.23963E-11 1.01777E+01 6.22738E+00
 -1       738 4.51038E-10-9.38413E-11 4.20907E-10-8.94598E-11 1.42156E+01-1.53805E+01
 -1       739-1.99574E-11 4.51575E-11-5.74423E-11 1.16051E-11 4.88434E+00 3.96304E+01
 -1       740 2.69189E-11 5.20278E-14 7.63836E-11-5.35061E-12 1.37790E-04 1.72814E+02
 -1       741-3.71934E-11 5.06262E-14 4.12470E-12 4.77103E-11 7.72872E-06-6.52800E+01
 -1       742-1.63733E-11-4.54271E-11 9.10353E-12-2.53782E-11-3.30321E+00-7.07334E+01
 -1       743-5.59126E-11 6.00053E-11 1.10349E-10-7.14451E-12-8.61509E+01-9.50711E+01
 -1       744-4.45373E-10-2.20590E-10 2.72986E-09 1.46659E-11-6.29351E+00 1.90934E+01
 -1       745 3.62058E-10 8.12399E-12-2.56063E-09 4.64384E-11-7.69286E+00-6.13953E+00
 -1       746-7.43082E-11 3.43536E-10-2.15832E-10 4.40905E-11 8.06485E-01-1.02047E+00
 -1       747 3.01793E-11-4.70278E-11-1.23965E-09 3.95858E-11 7.87060E-01 7.77776E-01
 -1       748-2.24776E-10-1.19498E-10 5.97185E-10-3.86958E-11-8.08306E+00 5.24265E+00
 -1       749 2.77001E-10 1.74947E-10-1.45589E-09-1.93682E-10-4.75923E+00-2.19133E+01
 -1       750 2.37321E-11 3.33422E-12 5.40865E-11 3.62910E-11-9.22447E+01 9.84151E+01
 -1       751 1.06477E-10 4.11918E-11-3.72965E-11-8.32926E-11 8.51499E-01 5.75736E+01
 -1       752 6.04423E-11 2.53769E-13 9.99381E-11-9.95826E-12-1.40040E-05 8.76823E+00
 -1       753 5.62430E-11 6.39488E-14-2.61124E-12 9.66471E-12 2.41290E-05-1.85717E+01
 -1       754 1.12831E-10-3.68277E-11-9.00675E-11-4.57612E-12 3.10397E+00-4.29511E+01
 -1       755 5.35501E-11 5.57468E-11 2.98675E-10 6.51728E-11-2.51047E+01-7.73625E+01
 -1       756-3.00414E-10 5.44773E-11 6.80778E-10-1.03874E-10-1.71233E+02-1.14772E+02
 -1       757 3.01773E-10 1.72573E-10-7.65198E-10 7.57312E-11 8.72084E+01 3.05619E+00
 -1       758 2.83605E-10-7.96135E-11-3.47526E-10 9.23986E-12 6.23316E+01-6.70062E+01
 -1       759-6.05546E-10-3.47721E-10 3.59000E-09-1.21666E-11 5.92243E+00 8.52493E+00
 -1       760 4.21915E-10 1.86292E-10-8.74737E-10 1.63547E-11 5.70059E+00-9.30413E+00
 -1       761-1.28815E-10 9.51198E-11-6.09143E-10-1.79897E-10 6.42179E+01 7.09543E+01
 -1       762 1.39114E-10-8.50298E-11 1.21393E-10 1.40225E-10 9.21208E+01-3.27059E+00
 -1       763 1.61943E-10-1.57467E-10-3.77220E-10-1.37611E-10-1.82511E+02 1.21532E+02
 -1       764 1.06759E-11 8.72132E-11-7.45802E-11-7.98056E-11-3.11587E+01 7.28883E+01
 -1       765-1.18963E-11 1.76470E-11-2.98826E-10-2.54276E-11-3.20038E+00 4.94976E+01
 -1       766-5.48042E-11-2.62845E-14 1.16153E-10 3.30809E-11 1.29758E-04 3.84612E+00
 -1       767 9.65059E-11-6.12843E-14-7.73781E-12-2.18474E-11-2.44257E-04-6.81685E+01
 -1       768 1.30445E-10-5.11733E-11-6.87106E-11-4.44709E-11-3.36286E+01-7.10423E+01
 -1       769 2.31824E-10-1.29562E-10-5.27116E-11 3.19389E-12 2.58229E+01-5.42627E+01
 -1       770 8.27227E-10 1.31661E-10-2.40332E-10-1.02318E-12 2.00819E+01-8.66239E+01
 -1       771 1.21101E-09-1.55945E-09 8.77917E-10-2.22771E-11 2.28613E+02-2.53095E+02
 -1       772 4.43130E-10-5.53092E-11-3.12484E-09 7.79918E-11-1.65472E+00-8.91245E+01
 -1       773 1.03761E-10 4.90004E-10-2.04236E-09 3.40726E-11-1.69616E+01 9.85609E+00
 -1       774-5.84310E-13-1.96522E-10 2.93023E-10-6.36637E-11-1.76761E+01-9.27020E+00
 -1       775 2.19265E-11 1.90803E-10-1.15117E-10 1.06719E-10-1.55836E+00 9.40100E+01
 -1       776-1.56048E-09-1.48242E-09 1.88933E-09-1.76436E-09 2.35333E+02 2.66959E+02
 -1       777-7.38973E-10 2.77332E-10 3.28739E-10 2.98636E-10 2.05105E+01 9.28925E+01
 -1       778-3.50633E-10 1.87331E-10-4.78206E-12-1.80321E-11 3.06435E+01 5.71110E+01
 -1       779-2.87125E-10 6.00009E-11-1.36795E-10 7.06957E-12-3.08942E+01 7.52477E+01
 -1       780-2.27953E-10-9.47575E-14 1.22218E-10 2.78083E-11-2.52193E-04 7.34320E+01
 -1       781 2.17653E-10 1.79412E-13-2.20268E-12-5.67244E-11-5.78473E-04 1.55922E+02
 -1       782 1.51022E-10-5.78009E-11 6.36877E-11-1.76925E-12-2.16269E+01-3.28294E+01
 -1       783 3.50860E-11-6.47834E-11 3.13287E-10-1.06733E-10 2.14606E+01-5.79885E+01
 -1       784-2.49005E-10 2.49505E-10 5.48515E-10 3.88596E-11-7.17990E+01 9.05151E+01
 -1       785 5.64017E-11-7.14500E-10 3.24308E-10 3.79708E-11 9.01467E+01-2.94723E+01
 -1       786-1.47331E-10 1.56875E-10 5.63796E-10 1.10738E-10 9.87978E+01 1.09441E+02
 -1       787-4.02203E-11 2.30749E-12 1.06250E-09-1.21599E-10 1.02121E+02-1.13720E+02
 -1       788 3.13413E-10-6.70474E-10-3.41240E-10 4.39559E-10 8.94769E+01 2.98482E+01
 -1       789-4.26089E-10-1.60422E-10 1.90403E-10-3.86580E-10-7.43054E+01-9.77368E+01
 -1       790-3.94448E-10 2.85392E-10 1.87142E-10-6.94467E-11 2.36004E+01 6.18280E+01
 -1       791-6.26361E-10 1.46848E-10-2.76608E-11 1.71654E-11-2.23353E+01 3.77244E+01
 -1       792-4.99483E-10 3.18856E-13 5.95000E-11-1.05469E-10-5.91990E-04-1.59979E+02
 -1       793 4.11369E-11 8.35954E-12-1.83983E-10-4.52935E-11 9.90731E+01-8.41490E+01
 -1       794 7.10418E-11-1.60180E-11 3.84175E-10 1.15548E-10 5.39506E+01-2.10593E+01
 -1       795 5.10876E-11-1.89667E-10 3.10393E-10-3.76619E-11 3.82780E+01-1.51611E+01
 -1       796-3.18323E-11-5.61151E-11-2.04658E-10-1.11106E-10 1.38421E+02-5.27673E+00
 -1       797-4.65032E-11-1.70198E-10 6.02935E-10-1.18541E-11 1.42046E+02 4.53088E+00
 -1       798 2.55979E-10-4.88382E-10 1.66652E-10-4.30158E-11 3.88972E+01 1.75012E+01
 -1       799 4.52544E-10-1.75072E-10-2.17962E-10-1.54853E-10 5.56176E+01 2.20335E+01
 -1       800 1.38428E-10-5.90674E-11-5.02283E-11-7.46994E-11 1.06063E+02 8.57162E+01
 -1       801 1.39044E-11-1.07576E-11 3.50941E-11 1.92267E-11 5.20588E+01 1.00434E+01
 -1       802 2.99499E-11-5.36282E-11 8.17918E-11 1.60799E-11 8.15375E+01 1.85033E+01
 -1       803 1.72085E-14-7.10401E-11 6.44652E-11-3.67123E-11 8.37668E+01 3.46980E+01
 -1       804 7.96600E-12-3.35021E-12 6.40110E-12 1.24500E-11 1.98015E+01 1.25523E+01
 -1       805 6.44233E-11-2.13092E-11-1.70225E-11-4.28546E-13 2.19279E+01-1.50651E+01
 -1       806 1.32656E-10-2.91133E-11 5.30713E-11-8.45806E-11 8.66292E+01-3.57072E+01
 -1       807 1.41814E-10-3.75756E-10 7.29331E-11-1.63958E-10 8.47695E+01-1.91307E+01
 -1       808 1.58673E-10-6.57632E-10 1.49980E-10 2.83458E-11 5.55561E+01-1.12355E+01
 -1       809-2.27152E-13-6.98748E-11 1.22252E-10 1.89131E-11-1.83911E+02 8.08279E-04
 -1       810 7.49956E-14-5.99130E-11-9.51661E-12 1.20393E-11 5.83020E+01-7.97533E-06
 -1       811 8.68194E-14-3.68310E-11-3.78008E-11-1.59612E-11-6.26352E+01-8.31370E-05
 -1       812-2.32592E-14-3.32889E-12-4.44789E-12-1.89232E-11 1.49929E+02 5.71100E-04
 -1       813-1.76165E-13 3.77263E-11 4.33220E-11-5.24927E-11 1.52055E+02-5.68747E-04
 -1       814 6.18394E-14-5.68434E-13-9.32388E-12-2.45021E-12-6.42874E+01 9.12167E-05
 -1       815 3.83027E-14-2.78394E-10-9.50129E-12-2.58757E-11 6.07035E+01 8.67429E-06
 -1       816 9.85878E-14-7.74861E-10-7.19345E-11-1.87754E-10-1.87934E+02-8.33647E-04
 -1       817 1.75292E-04 5.64820E+02 5.59374E-04 6.55382E+01 1.63598E+02-4.83533E-04
 -1       818 2.97415E-04 7.02147E+02 4.63587E-04 2.54416E+01-5.52341E+01 4.05151E-04
 -1       819 4.27529E-04 7.82619E+02 3.82372E-04-5.67275E+00-6.06777E+01-4.83607E-04
 -1       820 3.00304E-04 7.47940E+02 4.73858E-04-1.31947E+00-1.26389E+02 3.85497E-04
 -1       821-2.67259E-05 6.56227E+02 5.22069E-04-6.91121E+00-5.01928E+01 3.66309E-04
 -1       822-8.73902E-05 5.51515E+02 4.53626E-04-1.40442E+01-6.11274E+01-9.17795E-04
 -1       823-2.06703E-04 4.53251E+02 5.02526E-04-1.15324E+01-8.48414E+01 5.11583E-04
 -1       824-5.56830E-04 4.41362E+02 5.16105E-04 8.58925E+00 7.64822E+01 1.74399E-04
 -1       825-2.37897E-04 5.33990E+02 5.04963E-04 2.13812E+01-4.15961E+01-4.15579E-04
 -1       826 1.98771E-04 6.71601E+02 5.61159E-04 9.81825E+00-9.22706E+01 5.39713E-04
 -1       827 2.71437E-04 7.72319E+02 5.42093E-04-4.14878E-01-1.72735E+01-2.06934E-04
 -1       828 2.57371E-04 8.23129E+02 5.53162E-04 4.12010E+00-1.01160E+02-7.92739E-05
 -1       829 2.47555E-04 8.30916E+02 4.89407E-04 3.60517E+00-7.38231E+01 4.54579E-04
 -1       830 2.63305E-04 7.24155E+02 4.92424E-04-2.85606E+01-5.06491E+01-5.72416E-04
 -1       831 2.20209E-04 5.81541E+02 5.81610E-04-6.38963E+01 1.69123E+02 5.12646E-04
 -1       832-9.24068E+01 6.15542E+02-1.11204E+02 1.47261E+02 1.23973E+01 3.87099E+01
 -1       833-3.29984E+01 7.05330E+02-1.39384E+02 8.78593E+00-1.02669E+00-2.00279E+01
 -1       834-3.16280E+01 6.20647E+02-1.16756E+02-1.09394E+02-1.13703E+01 9.43328E+00
 -1       835 5.68182E+01 4.16172E+02-1.28447E+02-7.72769E+01 1.59626E+01 2.62726E+01
 -1       836 1.19936E+01 5.32040E+02-1.50529E+02 1.51452E+02 3.40708E+00-3.02170E+01
 -1       837-2.11010E+01 7.35306E+02-1.52801E+02 6.65164E+01-1.11422E+01-1.21152E+00
 -1       838-4.72325E+01 7.64264E+02-1.46207E+02-3.63277E+01 4.65640E+00 4.31830E+00
 -1       839-7.51312E+01 6.28435E+02-1.19969E+02-1.52093E+02 3.29870E+01-3.05438E+01
 -1       840-1.91278E+02 5.69227E+02-2.22409E+02 1.77809E+02-6.07680E+01 4.60236E+01
 -1       841-1.55351E+02 5.80929E+02-2.50589E+02 9.23933E+01-4.17058E+01-2.95666E+01
 -1       842-9.73978E+01 5.92167E+02-2.78768E+02 3.09774E+00-6.24366E+01 2.10722E+01
 -1       843-1.15150E+02 5.48695E+02-2.56141E+02-1.04212E+02-4.61351E+01 5.08565E+01
 -1       844-8.14713E+01 4.91672E+02-2.33513E+02-1.98433E+02-9.36129E+01-2.47407E+01
 -1       845 3.05690E+01 4.13045E+02-2.45204E+02-2.01845E+02-6.88019E+01 1.43999E+01
 -1       846 1.33070E+02 3.63504E+02-2.56895E+02-1.74914E+02-3.26753E+01 2.30380E+01
 -1       847 2.31587E+02 4.02334E+02-2.78977E+02 9.33047E+01-1.37218E+02-4.26512E+01
 -1       848 4.81208E+00 5.81687E+02-3.01059E+02 2.67965E+02-6.90729E+01-5.73935E+00
 -1       849-8.85991E+01 6.12496E+02-3.03330E+02 1.99713E+02-3.77312E+01-3.54420E+01
 -1       850-7.93861E+01 6.32644E+02-3.05602E+02 1.31076E+02-4.60840E+01 1.62649E+00
 -1       851-9.56886E+01 6.46346E+02-2.99008E+02 2.99633E+01-5.97680E+01 1.08172E+01
 -1       852-1.21688E+02 6.22656E+02-2.92414E+02-6.16698E+01-7.19777E+01-3.23463E+01
 -1       853-1.40165E+02 6.01057E+02-2.66176E+02-1.36205E+02-5.91223E+01 1.39729E+01
 -1       854-1.52844E+02 5.70929E+02-2.39939E+02-2.06930E+02-2.55761E+01-1.74854E+01
 -1       855-2.08323E+02 3.26450E+02-5.87016E+01 2.72249E+02 1.34971E+02-8.41765E+01
 -1       856-3.21454E+02 6.00790E+02-1.39118E+02 1.11837E+01 2.80649E+01 2.34800E+01
 -1       857-5.52380E+01 2.85350E+02-1.05192E+02-2.79225E+02 6.40860E+01 7.02176E+01
 -1       858 1.48991E+01 2.50961E+02-1.53419E+02-1.95342E+02 5.71571E+01-6.50830E+01
 -1       859-9.14446E+01 4.75694E+02-1.64863E+02 2.23697E+02 1.09874E+02-1.58381E+01
 -1       860-1.96649E+02 5.76574E+02-1.68999E+02 1.49226E+02 1.04973E+01-5.94976E+00
 -1       861-2.04710E+02 4.92338E+02-1.63817E+02-1.18058E+02 2.80725E+01-5.74962E-01
 -1       862-2.15510E+02 3.69461E+02-6.70183E+01-2.59269E+02 9.19012E+01 2.54420E+01
 -1       863-2.11746E+02-1.46369E+02 1.85470E+02 9.64528E+01-1.80504E+02-8.74479E+01
 -1       864-2.82353E+02-1.19750E+02 1.45237E+02 1.97243E+02-4.19996E+01 6.10472E+01
 -1       865-3.20322E+02 2.38633E+01 1.05005E+02 3.53284E+02-2.31722E+01-3.28534E+01
 -1       866-4.41656E+02 2.91950E+02 5.27688E+01 3.88310E+02-1.01046E+02 2.67920E+01
 -1       867-6.06298E+02 5.83634E+02 5.32220E-01 2.34691E+02-1.37384E+02 2.38023E+00
 -1       868-4.11728E+02 3.93890E+02 1.18303E+01-3.16571E+02-8.88415E+01 1.08268E+02
 -1       869-1.49521E+01 1.72425E+02 2.31281E+01-3.84167E+02-8.75928E+01 1.19362E+02
 -1       870 9.59781E+01 1.52943E+02-1.34072E+01-2.34154E+02-1.29024E+02 4.03417E+01
 -1       871 5.86824E+01 1.69596E+02-4.99425E+01-1.35687E+02-4.90728E+00 7.63097E+01
 -1       872-1.12312E+02 2.66508E+02-2.86680E+01 2.61252E+02-9.38438E+01-9.55416E+01
 -1       873-1.88548E+02 3.92748E+02-3.05322E+01 2.65063E+02-1.75777E+02-5.85328E+01
 -1       874-3.61755E+02 5.69956E+02-3.23970E+01 1.18188E+02-7.62913E+01-2.93521E+01
 -1       875-3.49286E+02 4.63912E+02-3.38090E+01-6.01156E+01-4.82237E+01-2.00220E+01
 -1       876-3.05952E+02 3.60927E+02-3.52209E+01-2.10052E+02-4.36080E+01 2.30424E+01
 -1       877-3.07163E+02 2.48974E+02 3.53401E+01-2.62590E+02-6.80425E+01-1.33045E+01
 -1       878-3.33053E+02 1.10204E+02 1.05901E+02-3.16055E+02-4.75420E+01 3.29540E+01
 -1       879-2.83671E+02-9.61197E+01 1.45596E+02-1.95477E+02-8.68127E+01-9.13835E+01
 -1       880-1.49687E+02-2.25016E+02 1.85291E+02-1.02402E+02-7.40268E+01 1.75324E+02
 -1       881-9.80451E+01-2.78082E+02 1.43369E+02 1.89661E+02 8.81579E+01-7.76667E+01
 -1       882-2.44894E+02-3.21655E+01 1.11457E+02 4.66695E+02-7.38615E+01-6.65220E+00
 -1       883-1.38756E+02 1.48079E+02 1.12905E+02 6.69915E+02-1.98092E+02 1.23577E+02
 -1       884-3.42152E+02 3.92283E+02-2.15891E+01-4.65782E+01 4.57179E+00-1.58469E+02
 -1       885-4.53448E+02 2.79362E+02 1.37109E+02-3.33088E+02-1.81030E+01-2.75863E+01
 -1       886-3.01550E+02-3.58999E+01 1.13933E+02-4.60709E+02 1.27126E+01 9.07264E+00
 -1       887-1.26704E+02-2.96879E+02 1.53140E+02-2.21170E+02 5.82434E+01 4.96478E+01
 -1       888 5.52675E+02 2.08803E-04 5.64897E-04 6.17485E+01-4.93687E-04 1.65267E+02
 -1       889 6.00214E+02-7.24521E+01-1.14834E+02 1.49581E+02 2.99692E+01 3.25526E+01
 -1       890 5.48390E+02-1.47009E+02-2.29669E+02 2.03830E+02 1.68852E+01-2.18062E+01
 -1       891 3.54420E+02-2.04535E+02-6.41996E+01 2.55102E+02-2.45257E+01 8.91417E+01
 -1       892 1.04383E+02-3.19674E+02 1.01269E+02 3.12655E+02-3.03548E+01-4.80753E+01
 -1       893-3.67408E+01-2.85914E+02 1.09589E+02 4.58937E+02-7.57983E+00 1.44835E+01
 -1       894-2.26248E+02-2.29395E+02 1.17909E+02 5.92037E+02 8.81492E+01 1.65780E+02
 -1       895-9.57247E+01-2.72245E+02 1.71593E+02 5.83946E+02-2.67346E+02-1.76904E+02
 -1       896 1.60897E+02-6.02356E+02 2.25278E+02 5.50346E+02-1.35987E+02-3.15846E+01
 -1       897-3.40822E+02 2.47007E+02-1.07803E+01-5.10045E+01-1.25780E+02-1.75666E+02
 -1       898-6.15806E+02 2.49584E+02 1.49329E+02-1.62123E+02-8.90201E+01 9.08436E+01
 -1       899-5.72664E+02-6.08945E+01 3.09439E+02-5.20655E+02-1.19076E+02 4.03545E+01
 -1       900-4.35453E+02-1.08603E+02 2.15702E+02-6.09035E+02-2.28764E+02 5.22758E+01
 -1       901-2.50379E+02-2.30139E+02 1.21965E+02-5.93352E+02 1.71005E+02-8.18768E+01
 -1       902-5.71953E+01-2.41443E+02 1.21478E+02-4.84772E+02-1.90454E+00 6.77025E+01
 -1       903 1.62221E+00-3.09164E+02 1.20990E+02-3.90037E+02-3.87602E+01 1.90709E+01
 -1       904 3.09017E+02-2.14065E+02-6.09323E+01-2.83428E+02-6.57248E+01-1.38401E+02
 -1       905 5.98575E+02-1.99867E+02-2.42855E+02-1.82206E+02 3.36661E+01 7.75190E+01
 -1       906 6.68169E+02-9.17330E+01-1.21427E+02-1.56556E+02 2.53552E+01-2.01602E+01
 -1       907 6.10479E+02 2.51573E-04 5.40523E-04-6.84363E+01-6.92390E-04-1.85954E+02
 -1       908 6.93980E+02 2.51818E-04 4.74231E-04 2.76303E+01 5.51873E-04-4.68805E+01
 -1       909 5.78325E+02-1.34355E+02-2.56342E+02 1.37680E+02-1.36075E+01-5.67757E+01
 -1       910 2.40713E+02-2.91950E+02 3.29243E+01 2.61760E+02 1.28498E+01-6.78251E+01
 -1       911-9.85349E+01-4.24277E+02 2.07078E+02 5.98994E+02-5.66473E+01-2.16895E+02
 -1       912-5.73365E+02-1.28989E+03 4.74625E+02-4.80683E+02-5.84227E+01 1.46753E+02
 -1       913-6.70226E+02-1.31843E+03 5.25117E+02 3.30839E+02-8.29699E+01-2.29288E+02
 -1       914-2.98949E+02-9.20830E+01 1.86723E+02-5.62652E+02-1.81723E+02 2.53554E+02
 -1       915 2.58305E+02-4.08135E+02 5.53936E+01-4.44569E+02 3.86879E+01 1.10662E+02
 -1       916 6.12649E+02-1.72512E+02-2.60237E+02-9.19567E+01-2.44491E+01 4.88028E+01
 -1       917 7.58602E+02 3.44557E-04 4.81437E-04-3.00892E+01 6.58021E-04 5.65098E+01
 -1       918 8.01933E+02 2.35298E-04 4.75613E-04-3.32397E+00-4.48858E-04-7.03855E+01
 -1       919 7.37266E+02-4.47214E+01-1.41507E+02 3.91488E+01-3.26827E+00 5.52027E+00
 -1       920 6.00301E+02-1.15667E+02-2.83015E+02 6.74864E+01 3.28279E+01-6.83286E+01
 -1       921 4.75677E+02-1.93811E+02-1.59217E+02 1.22413E+02-2.33835E-01 2.62417E+01
 -1       922 3.48190E+02-2.91976E+02-3.54202E+01 2.11036E+02-2.23436E+01-3.92012E+01
 -1       923 2.68372E+02-4.34966E+02 1.30413E+02 3.27042E+02 2.84046E+01-1.97113E+01
 -1       924-5.08027E+01-5.52860E+02 2.96247E+02 5.05203E+02-4.39381E+01-1.11619E+02
 -1       925-1.23226E+03-6.78109E+02 5.10109E+02-3.13786E+02 2.22840E+02-7.82244E+01
 -1       926-9.05353E+02-7.62438E+02 4.78109E+02-8.13305E+02-3.50853E+02-4.15707E+02
 -1       927-2.07923E+02-8.01608E+01 1.86917E+02-1.48650E+02-1.73723E+01-3.70577E+01
 -1       928 1.66928E+01 5.43134E+01-9.98038E+01 4.88412E+01 8.70978E+00-5.79016E+01
 -1       929-3.93221E+00 3.64829E+01-2.43121E+01 1.53852E+01-1.22629E+01-3.30510E+01
 -1       930-8.74541E+00-9.15093E+00 1.64399E+01-2.97858E+00-6.76568E+00-1.09520E+01
 -1       931-2.56582E+01-8.87855E+00 2.17536E+01-1.09169E-02-7.95231E+00 1.51931E+00
 -1       932-1.11235E+01-1.58265E+01 1.94323E+01-6.05623E-01-4.70478E+00 1.50179E+01
 -1       933-5.84901E+00 4.29965E+01-2.73632E+01-1.18314E+01-1.37451E+01 3.39471E+01
 -1       934 1.32945E+01 6.80197E+01-1.01919E+02-4.95340E+01 9.86889E+00 6.24048E+01
 -1       935-1.61781E+02-1.04392E+02 1.79603E+02 1.55536E+02-2.41645E+01 6.24207E+01
 -1       936-7.46798E+02-9.65881E+02 4.90064E+02 8.43727E+02-4.27216E+02 3.42862E+02
 -1       937-1.28490E+03-6.20114E+02 4.96138E+02 5.46907E+02 1.46879E+02 4.88031E+01
 -1       938-6.50062E+02 1.75203E+02 2.51481E+02-5.00321E+02-2.92123E+01 1.12433E+02
 -1       939 4.01428E+01-1.11365E+02 1.20639E+02-6.69186E+02 1.30510E+02 1.93918E+02
 -1       940 5.63217E+02-5.78707E+02-1.02023E+01-3.34153E+02-9.21976E+00 1.14204E+02
 -1       941 6.39237E+02-3.38631E+02-1.43911E+02-7.73608E+01 6.58876E+00-1.63642E+01
 -1       942 6.33384E+02-1.53070E+02-2.77620E+02 5.84668E+00 2.17217E+01 7.33894E+01
 -1       943 7.61600E+02-5.39317E+01-1.38810E+02-2.38578E+00-2.46422E+01-1.19432E+01
 -1       944 8.50768E+02 5.27847E-04 5.14940E-04 1.41867E+00-3.57349E-04 5.81891E+01
 -1       945 7.97784E+02 2.43789E-04 5.39113E-04-3.05914E+00 9.08393E-05-9.75639E+01
 -1       946 6.27082E+02-8.96206E+01-2.91413E+02-1.78925E+01-1.16881E+01-5.85963E+01
 -1       947 4.44440E+02-3.31518E+02-3.39086E+01 6.40266E+01 1.74160E+01-4.75249E+01
 -1       948 2.40436E+02-5.94889E+02 1.44423E+02 1.56465E+02-8.75396E+01-8.35687E+01
 -1       949-9.83344E+01-1.66223E+02 1.77300E+02-1.51431E+02-5.81317E+01-2.29787E+01
 -1       950 2.51880E+01-1.06547E+01-4.78307E+01 3.61551E+00 1.49311E+01 1.29161E+01
 -1       951-2.07963E+01-2.97313E+00 1.52408E+01-4.22967E+00-4.66195E+00-6.05162E+00
 -1       952-1.97556E+01-4.38878E+00 1.57593E+01 4.03230E+00-5.38542E+00 6.48086E+00
 -1       953 1.71504E+01-1.40559E+01-4.82383E+01-1.00115E+01 1.94552E+01-7.04100E+00
 -1       954-7.84172E+01-2.21221E+02 1.93237E+02 1.51599E+02-3.22141E+01 1.62318E+01
 -1       955 4.64878E+02-4.70755E+02 1.58655E+01 1.47093E+02 1.98307E+01 1.91313E+02
 -1       956 6.88081E+02-2.00165E+02-2.95515E+02 1.40098E+02 3.28786E+01 4.06029E+01
 -1       957 7.63019E+02 4.84962E-04 5.46700E-04 9.55641E+00-1.73258E-04 1.53353E+02
 -1       958 7.53733E+02 2.15936E-04 5.48835E-04 2.20873E+00 2.24064E-04-2.27350E+01
 -1       959 7.20302E+02-1.87532E+01-1.49906E+02-5.60738E+01 7.65707E+00-1.40315E+01
 -1       960 6.17747E+02-6.70051E+01-2.99812E+02-1.12493E+02-3.21958E+00-4.28937E+01
 -1       961 5.51798E+02-1.79154E+02-1.66104E+02-1.33408E+02 8.12460E+00 1.31760E+01
 -1       962 5.40227E+02-3.38314E+02-3.23968E+01-1.08486E+02 2.57682E+01-7.77697E+01
 -1       963 3.72275E+02-3.26809E+02-1.98988E+01 4.39115E+01 1.53064E+02 3.85755E+00
 -1       964 2.33818E+02-3.30267E+02-7.39982E+00 4.27232E+01 1.69177E+02-1.22047E+02
 -1       965 6.43656E+01 1.33820E+01-9.95206E+01 4.82574E+01-6.11598E+01 9.52182E+00
 -1       966-1.32627E+01 1.80706E+01-4.73003E+01 8.57635E+00 7.80678E+00 1.82329E+01
 -1       967-4.20331E+01-3.51791E+01 4.92914E+01-3.89020E+01-2.54724E+01-2.87031E+01
 -1       968-7.74772E-01-1.30342E+01 1.91352E+01-8.57437E+00-1.04795E+01-3.60494E+00
 -1       969-1.32469E+01-1.05235E+00 1.06684E+00-1.30744E+00-6.62510E+00 1.96989E+00
 -1       970-1.80538E+01 1.32051E+00-7.60581E-01 5.87507E-01-5.99463E+00 2.25735E-01
 -1       971-1.39217E+01 5.60210E-01 8.95780E-01 2.17544E+00-6.53089E+00-1.27994E+00
 -1       972-2.30960E+00-1.56077E+01 2.01276E+01 6.25697E+00-1.20603E+01 1.88655E+00
 -1       973-3.46428E+01-4.43062E+01 5.02957E+01 3.95608E+01-2.97182E+01 2.53526E+01
 -1       974-1.03998E+01 2.74439E+01-4.91226E+01-2.92958E+00 1.45561E+01-1.46947E+01
 -1       975 5.37322E+01 1.80901E+01-1.02433E+02-5.03629E+01-5.74314E+01-8.66706E+00
 -1       976 3.30626E+02-2.79179E+02 4.19330E+01 2.29157E+02 1.29416E+02 1.34167E+02
 -1       977 5.89359E+02-2.09398E+02-1.35738E+02 1.75351E+02 9.82882E+01-1.24910E+02
 -1       978 7.12078E+02-1.27020E+02-3.13409E+02 3.16421E+02-6.40155E+00 9.56358E+01
 -1       979 6.20469E+02-3.03766E+01-1.56705E+02 2.01002E+02 2.98359E+01 1.13134E+01
 -1       980 5.96867E+02-1.24677E-04 4.17862E-04 2.74904E+01 3.55024E-04-6.26599E+00
 -1       981 6.77562E+02 1.28148E-04 5.66089E-04-9.26683E+00-5.49188E-04-9.30891E+01
 -1       982 5.89782E+02-6.20219E+01-3.05995E+02-1.70670E+02 3.77278E+01-4.51326E+01
 -1       983 3.71523E+02-1.70428E+02-2.36850E+01-2.51769E+02 6.24342E+01-1.63013E+02
 -1       984 4.12279E+01-5.59971E+00-2.63020E+01 1.22129E+01-3.36471E+01-1.33535E+01
 -1       985-1.50508E+01-2.10902E+00 1.96125E+01-6.76623E+00-2.14187E+00-1.18258E+01
 -1       986-1.23326E+01-7.09942E+00 5.89524E+00-3.03859E+00-8.57127E-01-2.41278E+00
 -1       987-1.23212E+01-7.70174E+00 6.02026E+00 2.90812E+00-6.44005E-01 2.54749E+00
 -1       988-1.28330E+01-2.53252E-01 1.93201E+01 8.82111E+00-3.85828E+00 1.03247E+01
 -1       989 3.60488E+01-3.37385E+00-2.44158E+01-1.64923E+01-3.27808E+01 1.22553E+01
 -1       990 3.61905E+02 1.61864E+02-2.69602E+02 2.92638E+02 1.35213E+02 1.29944E+02
 -1       991 4.38604E+02-3.82802E-04 4.98762E-04 2.19545E+01-6.80125E-04-1.69774E+01
 -1       992 5.70790E+02-2.04990E-04 5.58239E-04-2.01482E+01 4.01399E-04-6.89694E+01
 -1       993 5.46364E+02 2.55451E+01-1.56089E+02-1.15499E+02 2.54535E+01 7.04429E+00
 -1       994 5.56461E+02 3.62587E+01-3.12178E+02-2.12838E+02 3.50200E+00-7.51269E+01
 -1       995 4.33995E+02-7.29128E+01-1.63576E+02-2.12518E+02 1.17899E+01 1.07753E+02
 -1       996 2.42483E+02-1.02658E+02-1.49736E+01-2.55124E+02 9.04473E+01-8.96926E+01
 -1       997-1.41011E+01-1.04085E+01 1.85694E+01 2.21204E-01-1.43648E+01-5.20220E+00
 -1       998-4.12015E+00-1.97229E+01 1.55610E+01-4.11687E+00-6.14874E+00-5.21440E+00
 -1       999 1.31587E-02-1.34453E+01 8.38546E-01-2.20033E+00 1.38346E+00-6.69928E+00
 -1      1000-7.62639E+00-1.20666E+01 5.92228E+00-3.02205E+00-2.45710E+00-8.63036E-01
 -1      1001-1.03174E+01-9.90577E+00 8.70344E+00 9.78599E-02-2.00149E+00-2.22317E+00
 -1      1002-1.11460E+01-9.80065E+00 8.84175E+00-1.62011E-01-2.39351E+00-2.01600E-01
 -1      1003-1.00276E+01-1.02922E+01 8.73985E+00-4.08946E-01-2.06857E+00 1.98520E+00
 -1      1004-7.19540E+00-1.23919E+01 5.87638E+00 2.90827E+00-2.22181E+00 7.64665E-01
 -1      1005-1.01201E+00-1.32356E+01 9.13825E-01 9.53363E-01 2.31575E+00 6.56625E+00
 -1      1006-2.88415E+00-2.11207E+01 1.55779E+01 4.10733E+00-5.96764E+00 4.72294E+00
 -1      1007-9.15089E+00-8.36305E+00 1.67961E+01 3.75034E+00-9.65010E+00 7.03541E+00
 -1      1008 1.59138E+02 2.40619E+02-2.25794E+02 7.23997E+01 5.34781E+00 4.44981E+01
 -1      1009 2.59439E+02 8.40285E+01-1.12897E+02 3.62508E+01 9.20186E+00-3.42726E+01
 -1      1010 3.59740E+02-2.86654E-04 5.91248E-04 3.62860E-01 5.41149E-05 1.77682E+02
 -1      1011 5.15613E+02-5.40852E-04 5.75370E-04-3.81580E-01-8.79754E-06 7.22719E+01
 -1      1012 4.64832E+02 2.29639E+02-3.11012E+02-5.11467E+00 2.19958E+00-1.53209E+02
 -1      1013-9.12586E+00-2.44555E+01 2.12219E+01-2.91630E-01-9.24586E-01-7.88652E+00
 -1      1014 1.30755E+00-1.74241E+01-5.93199E-01-3.31747E-01 1.73872E-04-6.16008E+00
 -1      1015-9.99169E+00-1.09093E+01 8.75602E+00-1.96972E-01 6.82772E-02-2.63850E+00
 -1      1016-9.85171E+00-1.10307E+01 8.85416E+00-2.13587E-01-4.57993E-02 2.35979E+00
 -1      1017 1.04623E+00-1.83826E+01-7.56724E-01-8.37132E-01 3.75282E-01 6.03822E+00
 -1      1018-8.14607E+00-2.64548E+01 2.16968E+01 1.85173E-01 2.32923E+00 8.08756E+00
 -1      1019 2.95441E+02 2.16157E+02-2.48104E+02-1.88867E+02-9.59262E+01 1.27195E+02
 -1      1020 3.74228E+02-5.41357E-04 4.58990E-04-1.28903E+01 5.45501E-04-2.95953E+01
 -1      1021 5.66404E+02-2.06330E-04 5.59462E-04 1.97797E+01-4.00516E-04-7.19598E+01
 -1      1022 5.40050E+02 2.75039E+01-1.54923E+02 1.11560E+02-2.45099E+01 7.29629E+00
 -1      1023 5.46078E+02 4.23061E+01-3.09846E+02 2.07510E+02-3.10196E+00-7.30647E+01
 -1      1024 4.24387E+02-6.72392E+01-1.62287E+02 2.10548E+02-9.82363E+00 1.06110E+02
 -1      1025 2.37930E+02-9.70634E+01-1.47289E+01 2.49753E+02-8.65314E+01-8.87052E+01
 -1      1026-1.15739E+01-1.01809E+01 1.69519E+01 5.62081E-01 1.24918E+01-5.71949E+00
 -1      1027-3.60684E+00-1.97390E+01 1.48272E+01 3.86979E+00 5.99542E+00-4.89505E+00
 -1      1028-6.10873E-01-1.33279E+01 1.29073E+00 1.59417E+00-1.35896E+00-6.87619E+00
 -1      1029-7.48996E+00-1.20284E+01 5.98192E+00 2.62581E+00 2.53866E+00-9.62060E-01
 -1      1030-1.02589E+01-9.99035E+00 8.61427E+00-4.39984E-01 2.13661E+00-2.30675E+00
 -1      1031-1.11348E+01-9.66276E+00 8.77209E+00-2.72597E-01 2.48206E+00-1.17337E-01
 -1      1032-1.03267E+01-1.00128E+01 8.72172E+00-8.50220E-02 2.15030E+00 2.02790E+00
 -1      1033-7.62682E+00-1.23183E+01 6.06037E+00-3.39628E+00 2.60816E+00 5.88912E-01
 -1      1034 1.68894E-01-1.38822E+01 1.13354E+00-2.35014E+00-1.29193E+00 6.55240E+00
 -1      1035-3.90553E+00-1.99789E+01 1.54096E+01-4.34831E+00 6.79745E+00 5.17348E+00
 -1      1036-1.38943E+01-1.07763E+01 1.84023E+01-8.64176E-01 1.53554E+01 5.32169E+00
 -1      1037 2.77967E+02-1.17185E+02-4.36379E+01-2.56137E+02-9.18833E+01 9.35227E+01
 -1      1038 4.92083E+02-1.02512E+02-1.57025E+02-2.24274E+02-2.04418E+01-1.06168E+02
 -1      1039 5.84063E+02-2.11240E+01-2.70413E+02-3.12879E+02 7.07450E-02 5.98293E+01
 -1      1040 5.01482E+02 1.58390E+00-1.35206E+02-1.76778E+02-3.23033E+01 4.66158E+00
 -1      1041 4.79968E+02-2.25235E-04 4.83734E-04-1.63973E+01-5.09483E-04 1.45979E+01
 -1      1042 6.71173E+02 1.11622E-04 5.61363E-04 9.24983E+00 5.49301E-04-9.16444E+01
 -1      1043 5.79502E+02-5.54457E+01-3.03441E+02 1.71023E+02-3.74635E+01-4.62985E+01
 -1      1044 3.61786E+02-1.60621E+02-2.35945E+01 2.46667E+02-6.28505E+01-1.59351E+02
 -1      1045 3.85953E+01-5.41632E+00-2.46736E+01-1.24286E+01 3.21047E+01-1.27654E+01
 -1      1046-1.41589E+01-2.02890E+00 1.89643E+01 6.84646E+00 2.50010E+00-1.14917E+01
 -1      1047-1.23697E+01-7.17739E+00 6.02509E+00 2.70474E+00 7.89191E-01-2.59830E+00
 -1      1048-1.24363E+01-7.27974E+00 5.91199E+00-3.44079E+00 7.92037E-01 2.25558E+00
 -1      1049-1.46840E+01-1.92421E+00 1.97868E+01-7.41231E+00 2.42503E+00 1.15839E+01
 -1      1050 4.04911E+01-5.31664E+00-2.60732E+01 1.24974E+01 3.51565E+01 1.31306E+01
 -1      1051 3.92188E+02-1.97463E+02-3.53005E+01-2.62577E+02-5.11158E+01 1.78942E+02
 -1      1052 6.08829E+02-1.08416E+02-2.86425E+02-2.19157E+02-2.81908E+01 3.01001E+01
 -1      1053 6.41884E+02 2.63709E-04 5.29884E-04-8.18905E+00 4.23499E-04 8.46619E+01
 -1      1054 7.47536E+02 2.00138E-04 5.48814E-04-2.10327E+00-2.33848E-04-2.49746E+01
 -1      1055 7.14077E+02-1.73383E+01-1.48518E+02 5.85600E+01-7.92308E+00-1.38573E+01
 -1      1056 6.08255E+02-6.18520E+01-2.97036E+02 1.16811E+02 3.38622E+00-4.32992E+01
 -1      1057 5.36490E+02-1.68770E+02-1.64748E+02 1.35092E+02-8.13414E+00 1.35917E+01
 -1      1058 5.18444E+02-3.20117E+02-3.24606E+01 1.10474E+02-2.51483E+01-7.33618E+01
 -1      1059 3.55188E+02-3.14796E+02-1.88882E+01-4.27055E+01-1.46858E+02-3.77700E-01
 -1      1060 2.29220E+02-3.18728E+02-5.31501E+00-5.56877E+01-1.64687E+02-1.14184E+02
 -1      1061 5.90034E+01 1.32156E+01-9.51964E+01-4.61651E+01 5.86293E+01 8.77827E+00
 -1      1062-1.21158E+01 1.86819E+01-4.53669E+01-6.82094E+00-8.42666E+00 1.64114E+01
 -1      1063-3.86900E+01-3.56975E+01 4.74281E+01 3.72900E+01 2.56681E+01-2.72222E+01
 -1      1064-1.54322E+00-1.30234E+01 1.87787E+01 7.58254E+00 1.07151E+01-3.15784E+00
 -1      1065-1.36216E+01-5.15208E-01 1.44666E+00 1.22261E+00 6.60257E+00 1.44588E+00
 -1      1066-1.83243E+01 9.24702E-01-5.64692E-01-3.40075E-01 6.08789E+00-1.63698E-01
 -1      1067-1.34626E+01-4.26854E-01 9.04287E-01-1.95038E+00 6.52021E+00-1.92826E+00
 -1      1068-9.93248E-01-1.32754E+01 1.93024E+01-8.69451E+00 1.07701E+01 3.28384E+00
 -1      1069-4.12071E+01-3.65483E+01 4.96831E+01-3.96384E+01 2.63639E+01 2.83658E+01
 -1      1070-1.28621E+01 1.90820E+01-4.77056E+01 7.40800E+00-8.44744E+00-1.78121E+01
 -1      1071 6.32923E+01 1.38900E+01-1.00330E+02 4.84956E+01 6.26024E+01-9.44635E+00
 -1      1072 2.45092E+02-3.36415E+02-7.18085E+00 6.90004E+01-1.75541E+02 1.21102E+02
 -1      1073 3.79765E+02-3.40584E+02-1.70726E+01 5.10360E+01-1.55945E+02 1.85800E+00
 -1      1074 5.58648E+02-3.62765E+02-2.69635E+01-1.17305E+02-3.10100E+01 6.87837E+01
 -1      1075 5.68122E+02-2.01073E+02-1.64700E+02-1.55400E+02-3.66321E+00-8.31618E+00
 -1      1076 6.19761E+02-8.59606E+01-3.02436E+02-1.43627E+02-3.41136E+00 4.97865E+01
 -1      1077 7.23445E+02-2.06961E+01-1.51218E+02-7.46003E+01 7.34209E+00 7.82115E+00
 -1      1078 7.62859E+02 3.10939E-04 5.01168E-04-2.94498E+00-1.30929E-04 1.03656E+01
 -1      1079 7.96100E+02 2.32171E-04 5.37171E-04 3.42249E+00-7.06446E-05-9.75730E+01
 -1      1080 6.18223E+02-8.48749E+01-2.90364E+02 2.70871E+01 1.16343E+01-6.07922E+01
 -1      1081 4.21825E+02-3.13340E+02-2.95977E+01-5.66866E+01-1.46978E+01-5.10717E+01
 -1      1082 2.14356E+02-5.73786E+02 1.46408E+02-1.68409E+02 8.97479E+01-7.93167E+01
 -1      1083-8.93733E+01-1.69969E+02 1.72383E+02 1.44266E+02 5.19782E+01-2.14906E+01
 -1      1084 2.17801E+01-1.08486E+01-4.55917E+01-4.62126E+00-1.50168E+01 1.05832E+01
 -1      1085-2.02146E+01-3.04872E+00 1.47039E+01 3.84116E+00 4.76934E+00-6.33850E+00
 -1      1086-2.06404E+01-3.17757E+00 1.55649E+01-4.43102E+00 4.92854E+00 6.34941E+00
 -1      1087 2.40424E+01-1.10982E+01-4.82232E+01 3.99994E+00-1.55185E+01-1.21092E+01
 -1      1088-9.58166E+01-1.73941E+02 1.80117E+02-1.51822E+02 5.70185E+01 2.26868E+01
 -1      1089 2.26804E+02-6.08744E+02 1.54382E+02 1.80648E+02 9.54658E+01 8.46632E+01
 -1      1090 4.45524E+02-3.42987E+02-2.60174E+01 5.77714E+01-1.99773E+01 5.07289E+01
 -1      1091 6.35134E+02-9.50784E+01-2.96221E+02-4.33406E+01 9.07666E+00 6.11983E+01
 -1      1092 8.20502E+02 2.50846E-04 5.48007E-04-5.83073E+00-4.86090E-05 1.01618E+02
 -1      1093 8.07099E+02 2.29639E-04 4.72894E-04 3.97007E+00 4.32854E-04-7.42839E+01
 -1      1094 7.40241E+02-4.28220E+01-1.41846E+02-3.14503E+01 3.39587E+00 6.25328E+00
 -1      1095 5.93447E+02-1.10466E+02-2.83692E+02-5.37324E+01-3.29139E+01-7.13289E+01
 -1      1096 4.57730E+02-1.86805E+02-1.55213E+02-1.07408E+02-2.55607E-01 2.51380E+01
 -1      1097 3.24449E+02-2.84099E+02-2.67347E+01-1.98276E+02 2.72643E+01-4.79880E+01
 -1      1098 2.29104E+02-4.13957E+02 1.35698E+02-3.22725E+02-3.77707E+01-1.15327E+01
 -1      1099-1.20704E+02-5.08256E+02 2.98131E+02-4.88955E+02 2.04678E+01-7.91011E+01
 -1      1100-1.19753E+03-6.79444E+02 4.96315E+02 2.52662E+02-1.81083E+02-1.35326E+02
 -1      1101-8.18161E+02-7.52472E+02 4.57505E+02 7.16871E+02 3.50857E+02-3.77703E+02
 -1      1102-1.88613E+02-8.12289E+01 1.76645E+02 1.43069E+02 1.89579E+01-4.26644E+01
 -1      1103 1.46254E+01 5.48651E+01-9.54741E+01-4.65662E+01-8.37239E+00-5.74671E+01
 -1      1104-4.60182E+00 3.61269E+01-2.35678E+01-1.37750E+01 1.21350E+01-3.20986E+01
 -1      1105-9.87785E+00-1.03333E+01 1.64900E+01 2.39176E+00 6.11969E+00-1.13469E+01
 -1      1106-2.62974E+01-7.47045E+00 2.10616E+01-4.23585E-01 7.99596E+00 1.05532E+00
 -1      1107-9.30706E+00-1.09827E+01 1.75092E+01-2.85533E+00 6.37217E+00 1.29545E+01
 -1      1108-4.15715E+00 3.70413E+01-2.45395E+01 1.47982E+01 1.23619E+01 3.47274E+01
 -1      1109 1.61719E+01 5.65070E+01-1.00645E+02 4.88783E+01-8.92028E+00 6.02204E+01
 -1      1110-2.02414E+02-8.33363E+01 1.86589E+02-1.49964E+02 1.88774E+01 4.25551E+01
 -1      1111-8.79479E+02-7.71162E+02 4.81290E+02-7.56156E+02 3.62530E+02 3.99728E+02
 -1      1112-1.28398E+03-6.96976E+02 5.23062E+02-2.63219E+02-1.91008E+02 1.43643E+02
 -1      1113-1.28989E+02-5.39185E+02 3.15944E+02 5.17983E+02 2.09045E+01 8.50089E+01
 -1      1114 2.42368E+02-4.41379E+02 1.45436E+02 3.37909E+02-3.65657E+01 1.24161E+01
 -1      1115 3.36653E+02-3.04114E+02-2.50712E+01 2.03274E+02 3.21043E+01 5.05760E+01
 -1      1116 4.72198E+02-2.02753E+02-1.57538E+02 1.05498E+02-4.98125E-01-2.70567E+01
 -1      1117 6.14063E+02-1.18584E+02-2.90006E+02 4.80636E+01-3.02219E+01 7.55163E+01
 -1      1118 7.65953E+02-4.66569E+01-1.45003E+02 2.88362E+01 4.56404E+00-4.81341E+00
 -1      1119 8.34973E+02 2.45213E-04 4.87346E-04-3.78655E+00 4.26812E-04 7.96835E+01
 -1      1120 7.09631E+02 2.44171E-04 4.75878E-04-2.63610E+01-5.30483E-04-5.33574E+01
 -1      1121 5.74442E+02-1.31036E+02-2.57233E+02-1.21708E+02 1.41625E+01-6.29964E+01
 -1      1122 2.10825E+02-2.86151E+02 3.72222E+01-2.48682E+02-1.94103E+01-6.69918E+01
 -1      1123-1.63253E+02-4.03591E+02 2.35732E+02-5.75096E+02 9.01044E+01-2.31918E+02
 -1      1124-6.83863E+02-1.17828E+03 4.94815E+02 3.00633E+02 1.19688E+02 1.57411E+02
 -1      1125-7.33571E+02-1.21441E+03 5.18306E+02-3.35900E+02 1.19029E+02-1.64719E+02
 -1      1126-1.76836E+02-4.21622E+02 2.48905E+02 6.03541E+02 9.06570E+01 2.46126E+02
 -1      1127 2.15155E+02-3.02210E+02 4.16992E+01 2.56301E+02-1.98873E+01 6.84185E+01
 -1      1128 5.94006E+02-1.37016E+02-2.65059E+02 1.20648E+02 1.47385E+01 6.63129E+01
 -1      1129 7.38859E+02 2.56825E-04 4.90357E-04 2.75569E+01-5.53202E-04 5.80363E+01
 -1      1130 5.79686E+02 1.93548E-04 5.65819E-04-6.04155E+01 4.84049E-04 1.50947E+02
 -1      1131 6.18643E+02-7.23982E+01-1.15386E+02-1.39106E+02-3.22437E+01 3.19410E+01
 -1      1132 5.45999E+02-1.45929E+02-2.30773E+02-1.84833E+02-2.04853E+01-3.17371E+01
 -1      1133 3.33775E+02-1.96435E+02-6.47966E+01-2.40028E+02 2.79375E+01 8.43289E+01
 -1      1134 7.08007E+01-3.00736E+02 1.01179E+02-3.07152E+02 2.39468E+01-5.45639E+01
 -1      1135-6.41366E+01-3.05437E+02 1.37256E+02-4.42103E+02 6.65016E+00 1.77375E+01
 -1      1136-2.70862E+02-2.97701E+02 1.73333E+02-5.72407E+02-7.38441E+01 9.26086E+01
 -1      1137-3.28984E+02-2.24843E+02 2.34232E+02-5.60610E+02 2.29513E+02-1.21896E+02
 -1      1138-3.76275E+02-2.43873E+02 2.95131E+02-4.82782E+02 8.22885E+01-2.94733E+01
 -1      1139-4.60444E+02 1.14889E+02 1.73146E+02-2.06000E+02 7.82372E+00-7.26672E+01
 -1      1140-2.60348E+02 9.18319E+01 5.11609E+01-4.94014E+01 9.65517E+01 1.04178E+02
 -1      1141-2.65996E+02 9.36851E+01 5.16167E+01 5.11283E+01 9.98390E+01-1.08223E+02
 -1      1142-4.71023E+02 1.16018E+02 1.79024E+02 2.11986E+02 7.33324E+00 7.56067E+01
 -1      1143-3.83877E+02-2.57980E+02 3.06431E+02 4.89701E+02 8.12602E+01 2.98872E+01
 -1      1144-3.44163E+02-2.33141E+02 2.44148E+02 5.75409E+02 2.37727E+02 1.31555E+02
 -1      1145-2.89286E+02-3.08120E+02 1.81866E+02 5.94621E+02-7.64929E+01-9.98736E+01
 -1      1146-7.09334E+01-3.18962E+02 1.45168E+02 4.59548E+02 8.15157E+00-1.91373E+01
 -1      1147 6.91797E+01-3.15413E+02 1.08470E+02 3.18766E+02 2.61697E+01 5.82659E+01
 -1      1148 3.39914E+02-2.06194E+02-6.58206E+01 2.47697E+02 3.01866E+01-8.75551E+01
 -1      1149 5.63690E+02-1.51663E+02-2.40112E+02 1.88357E+02-2.12589E+01 3.65533E+01
 -1      1150 6.45241E+02-7.47517E+01-1.20056E+02 1.41724E+02-3.24392E+01-3.28010E+01
 -1      1151 6.07730E+02 2.07039E-04 5.75156E-04 6.25623E+01 5.06225E-04-1.54802E+02
 -1      1152-1.11279E+02-2.81585E+02 1.46253E+02-2.19510E+02-8.15379E+01-8.72002E+01
 -1      1153-2.76068E+02-8.68504E+01 1.40995E+02-4.56533E+02-1.10377E+01-3.08794E+00
 -1      1154-3.19128E+02 1.28517E+02 1.21763E+02-3.79455E+02-4.31014E+00 5.12056E+01
 -1      1155-2.08155E+02 1.14229E+02-8.61775E-01-1.17570E+02 1.25508E+01 1.34931E+02
 -1      1156-2.13883E+02 1.15961E+02-1.23773E+00 1.20345E+02 1.40860E+01-1.37731E+02
 -1      1157-3.27304E+02 1.28247E+02 1.26696E+02 3.88203E+02-3.47914E+00-5.50748E+01
 -1      1158-2.89222E+02-9.14936E+01 1.47567E+02 4.73454E+02-1.07342E+01 1.42820E+00
 -1      1159-1.17946E+02-2.92082E+02 1.53700E+02 2.29558E+02-8.72264E+01 9.18229E+01
 -1      1160-2.00132E+02-1.86354E+02 1.91326E+02-1.29286E+02 1.01016E+02-8.59305E+01
 -1      1161-2.87899E+02-1.21329E+02 1.49992E+02-2.34435E+02 8.30235E+01 7.57459E+01
 -1      1162-2.76145E+02 3.71729E+01 1.08658E+02-3.32349E+02 5.05182E+01-2.39568E+01
 -1      1163-2.56653E+02 2.00549E+02 2.85262E+01-3.11548E+02 8.06099E+01 2.81516E+01
 -1      1164-2.41919E+02 3.40270E+02-5.16050E+01-2.99267E+02 3.21888E+01-1.69033E+01
 -1      1165-2.01664E+02 3.60895E+02-5.22444E+01-2.34707E+02 1.15374E+02-1.06832E+01
 -1      1166-2.06411E+02 3.62427E+02-5.28839E+01-2.08708E+02 1.34067E+02-5.30569E+00
 -1      1167-2.11410E+02 3.72173E+02-5.40916E+01 2.14096E+02 1.37564E+02 4.55502E+00
 -1      1168-2.06902E+02 3.70818E+02-5.35649E+01 2.40311E+02 1.19640E+02 1.14386E+01
 -1      1169-2.49814E+02 3.49255E+02-5.30382E+01 3.06649E+02 3.25854E+01 1.93061E+01
 -1      1170-2.63968E+02 2.05396E+02 3.01146E+01 3.19828E+02 8.45584E+01-3.00464E+01
 -1      1171-2.83933E+02 3.53078E+01 1.13267E+02 3.43155E+02 5.20304E+01 2.50394E+01
 -1      1172-3.00314E+02-1.27606E+02 1.56099E+02 2.45183E+02 8.53567E+01-7.83216E+01
 -1      1173-2.10232E+02-1.91703E+02 1.98930E+02 1.37436E+02 1.08012E+02 8.75622E+01
 -1      1174-1.95858E+02 3.16046E+02-6.53305E+01-2.39160E+02-9.88113E+01-1.07368E+01
 -1      1175-1.93665E+02 5.02464E+02-1.60517E+02-1.60242E+02 1.47921E+01 3.82591E+00
 -1      1176-2.18609E+02 8.06922E+02-2.02598E+02-1.00522E+02 3.17704E+01-1.48776E+01
 -1      1177-2.24710E+02 8.32139E+02-2.08961E+02 1.02212E+02 3.17269E+01 1.52016E+01
 -1      1178-1.99510E+02 5.17993E+02-1.65903E+02 1.62827E+02 1.51622E+01-3.88403E+00
 -1      1179-2.00538E+02 3.24481E+02-6.75600E+01 2.44060E+02-1.01465E+02 1.19036E+01
 -1      1180-1.57665E+02 5.68838E+02-2.39319E+02-1.87309E+02 5.08859E+01 9.39350E+00
 -1      1181-1.40727E+02 5.80743E+02-2.54374E+02-1.18091E+02 5.79847E+01-1.07433E+01
 -1      1182-1.44731E+02 5.92978E+02-2.69429E+02-4.19400E+01 8.20918E+01 1.72848E+01
 -1      1183-2.01392E+02 7.38625E+02-3.10871E+02 5.70422E+01 4.41865E+01-1.75475E+00
 -1      1184-1.79476E+02 8.24231E+02-3.52312E+02 2.48289E+02 8.66768E+01 3.48046E+01
 -1      1185 3.88625E+01 4.02367E+02-2.62001E+02 3.87626E+02 1.02420E+02 1.48725E+02
 -1      1186 2.08252E+02 1.40807E+02-1.71689E+02 2.68007E+02 2.35024E+01 1.44620E+01
 -1      1187 2.75184E+02 9.81587E+01-1.73421E+02-5.45650E+00 1.35289E+02-3.05414E-01
 -1      1188 2.10016E+02 1.43808E+02-1.75153E+02-2.79981E+02 2.57035E+01-1.71364E+01
 -1      1189 3.89205E+01 4.14830E+02-2.69492E+02-4.01851E+02 1.05586E+02-1.53609E+02
 -1      1190-1.84880E+02 8.50552E+02-3.63831E+02-2.57801E+02 8.96306E+01-3.58405E+01
 -1      1191-2.07293E+02 7.62383E+02-3.21300E+02-6.09134E+01 4.57834E+01 1.67719E+00
 -1      1192-1.48654E+02 6.12687E+02-2.78769E+02 4.10054E+01 8.53391E+01-1.78858E+01
 -1      1193-1.45002E+02 6.00532E+02-2.63579E+02 1.19262E+02 6.07428E+01 1.14628E+01
 -1      1194-1.63161E+02 5.88694E+02-2.48388E+02 1.90200E+02 5.43334E+01-1.05797E+01
 -1      1195-7.56542E+01 6.33466E+02-1.19659E+02-1.50414E+02-2.58347E+01 2.32349E+01
 -1      1196-5.23775E+01 7.54650E+02-1.34714E+02-2.61821E+01-2.86820E+01-2.46838E+01
 -1      1197-5.38601E+01 6.83994E+02-1.76156E+02 1.82437E+02-1.08876E+01 2.28371E+01
 -1      1198 7.07483E+01 2.19248E+02-8.58442E+01 1.24328E+02-2.51159E+01 4.16774E+01
 -1      1199 7.17482E+01 2.24520E+02-8.75760E+01-1.30601E+02-2.62058E+01-4.09535E+01
 -1      1200-5.55194E+01 7.06007E+02-1.81915E+02-1.88999E+02-1.10516E+01-2.31180E+01
 -1      1201-5.37926E+01 7.80939E+02-1.39384E+02 2.57372E+01-2.96021E+01 2.54540E+01
 -1      1202-7.83568E+01 6.58453E+02-1.24194E+02 1.53700E+02-2.65777E+01-2.45550E+01
 -1      1203 2.12615E-04 5.74792E+02 5.21764E-04-6.37147E+01-1.78752E+02-6.68329E-04
 -1      1204 2.70191E-04 7.25014E+02 4.70590E-04-2.95938E+01 4.57586E+01 7.43012E-04
 -1      1205 4.67886E-04 8.39713E+02 5.67697E-04 2.92099E-01 6.41103E+01-3.50222E-04
 -1      1206 4.86586E-04 7.69130E+02 5.75109E-04 9.37807E+00 1.33004E+02-2.35366E-04
 -1      1207-1.90198E-05 6.44448E+02 3.05977E-04 2.73939E+01-5.50400E+01 5.11636E-06
 -1      1208-5.28703E-05 4.41263E+02 4.84699E-04 2.44205E+01 7.85607E+00-5.61842E-04
 -1      1209-2.19774E-04 2.97690E+02 5.59200E-04-4.31799E+00 1.53630E+02 2.62771E-04
 -1      1210-7.34948E-04 2.57313E+02 3.20827E-04-1.42125E-01 9.48011E+00-2.54448E-06
 -1      1211-2.13564E-04 3.05232E+02 5.67087E-04 3.88165E+00 1.55831E+02-2.57869E-04
 -1      1212-5.22480E-05 4.54805E+02 4.98558E-04-2.53885E+01 7.80035E+00 5.80817E-04
 -1      1213-1.73413E-05 6.65270E+02 3.13857E-04-2.83302E+01-5.64439E+01-7.93408E-06
 -1      1214 5.00750E-04 7.95064E+02 5.94403E-04-9.74889E+00 1.37425E+02 2.45375E-04
 -1      1215 4.82950E-04 8.69076E+02 5.87480E-04-3.74532E-01 6.67132E+01 3.59416E-04
 -1      1216 2.78241E-04 7.52370E+02 4.87619E-04 3.03823E+01 4.82107E+01-7.63008E-04
 -1      1217 2.16517E-04 5.99058E+02 5.39253E-04 6.56794E+01-1.82578E+02 6.88940E-04
 -1      1218-2.60494E+02-1.98449E+02-8.30215E+01-2.74110E+02-5.06997E+02-5.72024E+02
 -1      1219-2.49872E+01 3.51521E+01-1.29516E+01 1.53263E+01-1.14625E+01-3.99156E+01
 -1      1220-3.16162E+01 3.31576E+00-5.90840E+00-1.53131E+00-2.15708E+01-2.88643E+01
 -1      1221-3.22481E+01-3.24798E-01-2.19847E+00-1.07739E-02-2.66781E+01 2.89551E+01
 -1      1222-2.25056E+01 4.20713E+01-8.18041E+00-1.67160E+01-1.37287E+01 4.76020E+01
 -1      1223-1.90795E+02-2.79343E+02-8.28405E+01 2.80686E+02-5.97233E+02 5.04561E+02
 -1      1224 4.01328E+01-2.27666E+01-8.56561E+00 1.59177E+01-4.61228E+01-1.31799E+01
 -1      1225-3.64533E+01-3.15548E+01 5.24679E+01-4.01301E+01 1.79602E+01 2.22243E+01
 -1      1226-2.67040E+01-5.23651E+00 1.09543E+01-5.88950E+00-7.46207E+00-7.35009E+00
 -1      1227-2.69754E+01-4.59808E+00 1.06919E+01 6.77905E+00-8.78158E+00 7.04969E+00
 -1      1228-3.12658E+01-3.80316E+01 5.34028E+01 4.05207E+01 2.39643E+01-1.77523E+01
 -1      1229 3.49604E+01-2.54844E+01-1.43582E+01-1.58996E+01-3.85168E+01 1.12955E+01
 -1      1230 4.75101E-01-3.15033E+01-3.06065E+00-2.07765E-01-2.82463E+01-2.53101E+01
 -1      1231-4.95038E+00-2.63786E+01 1.05010E+01-6.82643E+00-6.73325E+00-8.53717E+00
 -1      1232-2.03447E+01-1.96573E+01 1.49109E+01-1.41319E+00-3.04742E+00-3.09290E+00
 -1      1233-1.99262E+01-2.02848E+01 1.49393E+01 8.83289E-01-2.87901E+00 3.04388E+00
 -1      1234-5.23971E+00-2.68320E+01 1.09996E+01 5.40692E+00-7.52210E+00 7.54501E+00
 -1      1235 3.44007E+00-3.18136E+01-6.62983E+00 1.78189E+00-2.90898E+01 2.15029E+01
 -1      1236 1.78268E+00-3.13718E+01-3.35066E+00 3.91594E-01 2.68909E+01-2.33681E+01
 -1      1237-5.24870E+00-2.62750E+01 1.08071E+01 5.82182E+00 6.80851E+00-8.12805E+00
 -1      1238-2.02656E+01-1.96884E+01 1.48917E+01 7.17792E-01 3.04774E+00-3.14208E+00
 -1      1239-2.03432E+01-1.98484E+01 1.49276E+01-1.81077E+00 3.05752E+00 2.86350E+00
 -1      1240-4.76380E+00-2.70359E+01 1.09518E+01-7.38009E+00 7.46948E+00 8.45912E+00
 -1      1241 7.57398E-01-3.23695E+01-2.94321E+00-8.37110E-01 3.05204E+01 2.51245E+01
 -1      1242 3.73525E+01-2.32559E+01-9.03015E+00-1.48158E+01 4.33924E+01-1.24567E+01
 -1      1243-3.41715E+01-3.19151E+01 5.07294E+01 3.85053E+01-1.78806E+01 1.96629E+01
 -1      1244-2.69231E+01-4.86979E+00 1.11186E+01 5.48660E+00 7.79854E+00-7.48316E+00
 -1      1245-2.69203E+01-4.86955E+00 1.08461E+01-6.97481E+00 7.96350E+00 7.40231E+00
 -1      1246-3.59147E+01-3.26195E+01 5.28993E+01-4.13269E+01-1.86523E+01-2.16343E+01
 -1      1247 3.97236E+01-2.36049E+01-9.44451E+00 1.55160E+01 4.66548E+01 1.27712E+01
 -1      1248-2.33310E+02-2.05730E+02-8.23720E+01 2.62420E+02 5.04458E+02-5.33460E+02
 -1      1249-2.43830E+01 3.53184E+01-1.11760E+01-1.45899E+01 1.14018E+01-4.06648E+01
 -1      1250-3.19454E+01 2.61480E+00-4.07444E+00 1.20522E+00 2.20404E+01-2.81229E+01
 -1      1251-3.19686E+01 2.37188E+00-5.28485E+00-1.73808E+00 2.26367E+01 3.05166E+01
 -1      1252-2.50244E+01 3.63424E+01-1.22999E+01 1.51139E+01 1.15392E+01 4.23364E+01
 -1      1253-2.51938E+02-2.09481E+02-8.57938E+01-2.75558E+02 5.22219E+02 5.66585E+02
 -1      1254-6.89485E+01-3.57024E+01-8.43723E+01-9.83401E+01-2.86953E+02-3.26973E+02
 -1      1255-9.05484E+01-1.06048E+00 3.71765E+01-6.35152E+01-2.44412E+01-6.79341E+01
 -1      1256-7.14030E+01 1.97824E+01 1.70797E+01-1.86922E+01-1.62069E+01-3.84359E+01
 -1      1257-4.44839E+01 2.00131E+01 2.42117E+01-4.99358E+00 7.61911E-01-1.60946E+01
 -1      1258-5.37217E+01 1.50590E+01 5.76310E+00-1.51314E-02-1.01947E+01-1.49534E+01
 -1      1259-4.89450E+01 1.46674E+01 7.90611E+00 1.18639E-01-7.88151E+00 3.49732E-01
 -1      1260-5.27824E+01 1.43759E+01 7.39843E+00 4.72858E-01-1.33773E+01 1.55049E+01
 -1      1261-4.41642E+01 1.97246E+01 2.27812E+01 6.63492E+00 3.22553E+00 1.97729E+01
 -1      1262-6.28940E+01 2.03073E+01 1.88101E+01 1.70260E+01-1.82681E+01 4.51235E+01
 -1      1263-6.20411E+01-8.47149E+00 2.22224E+01 6.28014E+01-2.89802E+01 7.09636E+01
 -1      1264-2.97755E+01-7.72587E+01-8.52552E+01 1.00488E+02-3.41629E+02 2.84565E+02
 -1      1265-7.03024E+00-6.58303E+01 2.43564E+01-6.20046E+01-6.98546E+01-2.79545E+01
 -1      1266-4.54413E+01-2.37953E+00 2.05445E+00-3.37107E+01-1.71838E+01-2.49210E+01
 -1      1267-5.37790E+01 3.76433E+00 1.98469E+01-6.85374E+00-6.85012E-01 2.00780E+00
 -1      1268-5.24436E+01 3.20527E+00 1.95168E+01 7.86168E+00-4.14068E-01-1.09460E+00
 -1      1269-4.52259E+01-4.08102E+00 3.61527E+00 3.19469E+01-2.35488E+01 2.20723E+01
 -1      1270 3.80852E-02-9.72079E+01 4.04976E+01 6.49336E+01-6.81451E+01 2.40027E+01
 -1      1271 1.99401E+01-6.34443E+01 1.83388E+01-1.72704E+01-4.36778E+01-1.76464E+01
 -1      1272-3.82241E+00-4.46401E+01 3.30677E+00-3.21661E+01-2.21187E+01-2.20596E+01
 -1      1273-2.95218E+01-2.66375E+01 3.85639E+01-4.00566E+01 1.11460E+01 1.30080E+01
 -1      1274-3.52789E+01-1.62696E+01 2.31810E+01-2.30636E+01-2.86903E+00 4.64311E+00
 -1      1275-4.04701E+01-9.70272E+00 1.85416E+01-1.10142E+01-6.97528E+00-5.28305E+00
 -1      1276-4.15367E+01-8.98039E+00 1.72390E+01 4.87034E-01-8.97751E+00-1.97559E-01
 -1      1277-4.02787E+01-1.00581E+01 1.85858E+01 1.19633E+01-7.66775E+00 5.22646E+00
 -1      1278-3.40339E+01-1.83825E+01 2.39242E+01 2.31062E+01-2.61528E+00-3.88367E+00
 -1      1279-2.65758E+01-3.03612E+01 3.91459E+01 4.01415E+01 1.39335E+01-1.11700E+01
 -1      1280-2.20153E+00-4.60826E+01 1.75372E+00 3.41261E+01-2.58927E+01 1.66414E+01
 -1      1281 2.00328E+01-7.39553E+01 1.70076E+01 1.89972E+01-3.74035E+01 1.62746E+01
 -1      1282 1.94990E+01-4.35410E+01 2.25703E+01-6.39334E+00-1.90970E+01 2.75895E+00
 -1      1283-1.80335E+01-3.36510E+01 2.35195E+01-2.31952E+01 3.94840E+00-2.78874E+00
 -1      1284-3.38292E+01-2.07381E+01 2.13076E+01-5.85480E+00-4.14942E-01-1.60592E+00
 -1      1285-3.35128E+01-2.14040E+01 2.15263E+01 5.70707E+00-5.82510E-01 1.56413E+00
 -1      1286-1.62427E+01-3.57639E+01 2.33398E+01 2.28643E+01 4.98503E+00 2.90355E+00
 -1      1287 2.03301E+01-4.49487E+01 2.48905E+01 4.59373E+00-1.52839E+01-3.30838E-01
 -1      1288 1.42763E+01-5.19781E+01 6.78640E+00-5.31043E-01-1.50735E+01-1.25388E+01
 -1      1289 3.08792E+00-5.17723E+01 1.93949E+01-7.84051E+00 1.17654E+00-5.75262E-01
 -1      1290-1.02072E+01-3.95736E+01 1.83171E+01-1.20126E+01-5.00421E+00-7.58089E+00
 -1      1291-2.14967E+01-3.29371E+01 2.13017E+01-6.15837E+00-1.50386E+00-6.35123E-01
 -1      1292-3.03761E+01-2.94212E+01 2.23348E+01-2.69741E+00-2.01841E+00-2.06673E+00
 -1      1293-2.98945E+01-2.82500E+01 2.22283E+01-3.61862E-01-1.42238E+00-1.01493E-01
 -1      1294-2.98384E+01-3.02784E+01 2.24312E+01 1.94612E+00-1.91472E+00 2.01318E+00
 -1      1295-2.09579E+01-3.39443E+01 2.14561E+01 5.24230E+00-1.51099E+00 3.54113E-01
 -1      1296-9.75979E+00-4.07577E+01 1.86643E+01 1.04053E+01-5.33384E+00 7.05063E+00
 -1      1297 3.84948E+00-5.44882E+01 2.00475E+01 6.37552E+00 2.41174E+00 5.41752E-01
 -1      1298 1.52767E+01-5.44288E+01 5.48869E+00-2.47436E-01-1.48643E+01 1.00276E+01
 -1      1299 1.43715E+01-4.78488E+01 7.94442E+00-2.08772E-01-5.00344E-01-8.01923E+00
 -1      1300-9.26155E+00-4.05637E+01 1.70528E+01-7.09588E-01 2.76323E-02-9.09100E+00
 -1      1301-2.87388E+01-2.92279E+01 2.21578E+01-5.33738E-01 1.93975E-02-1.55891E+00
 -1      1302-2.85049E+01-2.97060E+01 2.22521E+01-6.82765E-01 8.06137E-04 1.43150E+00
 -1      1303-9.00912E+00-4.18678E+01 1.73589E+01-1.30430E+00-1.20156E-01 8.86920E+00
 -1      1304 1.48564E+01-4.95145E+01 7.83157E+00-3.80199E-01 9.79580E-01 7.68412E+00
 -1      1305 1.44359E+01-5.19771E+01 6.78799E+00 1.19014E-01 1.40977E+01-1.15767E+01
 -1      1306 3.19742E+00-5.18359E+01 1.93053E+01 6.78462E+00-1.26574E+00-7.48733E-01
 -1      1307-1.01568E+01-3.94767E+01 1.83713E+01 1.05871E+01 5.02534E+00-7.31411E+00
 -1      1308-2.14052E+01-3.28803E+01 2.12112E+01 5.05306E+00 1.59183E+00-5.98031E-01
 -1      1309-3.02863E+01-2.93994E+01 2.23051E+01 1.65486E+00 2.03975E+00-2.14034E+00
 -1      1310-3.00402E+01-2.79631E+01 2.21795E+01-8.08803E-01 1.53587E+00-1.00488E-01
 -1      1311-3.03654E+01-2.96944E+01 2.24146E+01-3.30839E+00 2.06321E+00 1.92109E+00
 -1      1312-2.13910E+01-3.35363E+01 2.15195E+01-6.90035E+00 1.66325E+00 5.01368E-01
 -1      1313-9.98722E+00-4.04439E+01 1.86898E+01-1.29811E+01 5.42631E+00 7.46391E+00
 -1      1314 3.37845E+00-5.30454E+01 1.96085E+01-8.47818E+00-1.15598E+00 4.33354E-01
 -1      1315 1.46481E+01-5.33578E+01 7.24587E+00-7.34484E-01 1.66543E+01 1.25576E+01
 -1      1316 1.93419E+01-4.33788E+01 2.25114E+01 5.71723E+00 1.75289E+01 1.97096E+00
 -1      1317-1.74570E+01-3.36869E+01 2.31422E+01 2.18810E+01-3.91579E+00-3.01859E+00
 -1      1318-3.38464E+01-2.05942E+01 2.12921E+01 4.94536E+00 5.07547E-01-1.75466E+00
 -1      1319-3.39820E+01-2.07995E+01 2.14279E+01-6.85696E+00 4.86115E-01 1.50267E+00
 -1      1320-1.77856E+01-3.44575E+01 2.37520E+01-2.44870E+01-3.99767E+00 2.76843E+00
 -1      1321 1.98557E+01-4.44417E+01 2.33042E+01-6.59604E+00 1.98173E+01-2.33005E+00
 -1      1322 1.95007E+01-6.41183E+01 1.75975E+01 1.72688E+01 4.11402E+01-1.66623E+01
 -1      1323-3.44139E+00-4.40522E+01 3.17193E+00 3.14864E+01 2.21305E+01-1.98905E+01
 -1      1324-2.83788E+01-2.68839E+01 3.76015E+01 3.84789E+01-1.08045E+01 1.15364E+01
 -1      1325-3.48499E+01-1.63464E+01 2.30547E+01 2.18875E+01 3.00850E+00 4.14675E+00
 -1      1326-4.04946E+01-9.49331E+00 1.85889E+01 1.02788E+01 7.05656E+00-5.37176E+00
 -1      1327-4.18523E+01-8.68820E+00 1.72909E+01-1.10562E+00 8.69912E+00 3.74013E-03
 -1      1328-4.06824E+01-9.60237E+00 1.85524E+01-1.25482E+01 7.24342E+00 5.26785E+00
 -1      1329-3.53164E+01-1.65995E+01 2.34024E+01-2.45281E+01 2.94889E+00-4.61149E+00
 -1      1330-2.92779E+01-2.73841E+01 3.89163E+01-4.17223E+01-1.13989E+01-1.27313E+01
 -1      1331-3.55587E+00-4.53814E+01 3.16565E+00-3.37280E+01 2.28491E+01 2.13529E+01
 -1      1332 2.01629E+01-6.56660E+01 1.82629E+01-1.82752E+01 4.41322E+01 1.73026E+01
 -1      1333-5.04910E+00-7.01199E+01 2.67795E+01 6.01976E+01 6.75258E+01-2.64879E+01
 -1      1334-4.45944E+01-2.68200E+00 2.68443E+00 3.22073E+01 1.77321E+01-2.35174E+01
 -1      1335-5.32512E+01 3.73561E+00 1.94820E+01 6.46994E+00 5.58910E-01 1.57638E+00
 -1      1336-5.37948E+01 3.73605E+00 1.98256E+01-8.03369E+00 4.64685E-01-1.84015E+00
 -1      1337-4.57876E+01-2.61995E+00 2.23809E+00-3.47958E+01 1.80686E+01 2.46262E+01
 -1      1338-6.05781E+00-7.05888E+01 2.66122E+01-6.31152E+01 7.11984E+01 2.78161E+01
 -1      1339-5.74488E+01-4.26624E+01-8.23080E+01 9.43899E+01 2.86911E+02-3.04754E+02
 -1      1340-8.11980E+01-2.38022E+00 3.25059E+01 6.08872E+01 2.48778E+01-6.67411E+01
 -1      1341-6.78670E+01 1.94609E+01 1.69873E+01 1.79676E+01 1.58386E+01-3.88773E+01
 -1      1342-4.41446E+01 1.96445E+01 2.34500E+01 5.15014E+00-9.73188E-01-1.64549E+01
 -1      1343-5.33688E+01 1.48667E+01 6.77309E+00-4.95474E-02 1.07797E+01-1.47977E+01
 -1      1344-4.93676E+01 1.48184E+01 7.89395E+00-3.63727E-01 7.44972E+00 8.18087E-01
 -1      1345-5.38733E+01 1.49677E+01 6.08488E+00-5.73738E-01 1.08483E+01 1.63795E+01
 -1      1346-4.46768E+01 2.00988E+01 2.42162E+01-5.68658E+00-9.83578E-01 1.77718E+01
 -1      1347-7.09398E+01 2.00336E+01 1.74522E+01-1.92297E+01 1.63291E+01 4.04182E+01
 -1      1348-8.74506E+01-1.98815E+00 3.53814E+01-6.41407E+01 2.54165E+01 6.98627E+01
 -1      1349-6.40891E+01-4.12888E+01-8.60353E+01-9.90282E+01 2.96516E+02 3.23860E+02
 -1      1350-5.29264E+01-2.47217E+01-9.12433E+00-8.88189E+01-9.90510E+01-1.14579E+02
 -1      1351-9.40256E+01 2.08661E+01 3.09966E+01-3.50001E+01-7.14558E+00-1.29012E+01
 -1      1352-6.97172E+01 1.95943E+01 2.24312E+01-4.01979E+00-2.83432E+00-1.71418E+00
 -1      1353-6.83467E+01 1.89965E+01 2.21917E+01 5.03411E+00-3.46337E+00 3.13029E+00
 -1      1354-8.37101E+01 2.04381E+01 2.89707E+01 3.35951E+01-8.42379E+00 1.83958E+01
 -1      1355-1.94190E+01-5.97003E+01-9.08830E+00 9.04288E+01-1.19709E+02 9.75589E+01
 -1      1356 2.02549E+01-8.42894E+01 2.88912E+01-3.36474E+01-1.73978E+01-8.09706E+00
 -1      1357-3.63372E+01-3.31999E+01 2.81751E+01-5.16012E+01-4.88122E+00-5.02746E+00
 -1      1358-5.46470E+01-1.31718E+01 2.52895E+01-1.36462E+01-3.88819E+00-1.60567E+00
 -1      1359-5.42095E+01-1.38313E+01 2.56087E+01 1.47943E+01-4.04172E+00 1.58776E+00
 -1      1360-3.32037E+01-3.72432E+01 2.85064E+01 5.17143E+01-5.00918E+00 4.90301E+00
 -1      1361 2.12250E+01-9.72389E+01 3.18466E+01 3.54570E+01-1.17934E+01 7.09865E+00
 -1      1362 1.87982E+01-6.74532E+01 2.17275E+01-4.97123E+00-2.83104E+00-3.31172E+00
 -1      1363-1.39710E+01-5.32730E+01 2.52780E+01-1.49069E+01-1.54852E+00-4.04953E+00
 -1      1364-3.96873E+01-3.84740E+01 3.02862E+01-3.81408E+00-1.26833E+00-1.26227E+00
 -1      1365-3.90193E+01-3.95392E+01 3.04616E+01 2.83452E+00-1.16779E+00 1.29780E+00
 -1      1366-1.32459E+01-5.50950E+01 2.54467E+01 1.28521E+01-1.58463E+00 3.89840E+00
 -1      1367 1.98700E+01-7.05326E+01 2.27998E+01 3.61809E+00-1.28658E+00 2.80019E+00
 -1      1368 1.88843E+01-6.75521E+01 2.16937E+01 4.16770E+00 2.24133E+00-3.18296E+00
 -1      1369-1.38439E+01-5.31646E+01 2.51520E+01 1.30706E+01 1.55055E+00-4.03474E+00
 -1      1370-3.95912E+01-3.84300E+01 3.02229E+01 2.43979E+00 1.27219E+00-1.32968E+00
 -1      1371-3.96730E+01-3.88073E+01 3.04336E+01-4.63839E+00 1.31234E+00 1.18440E+00
 -1      1372-1.36938E+01-5.44924E+01 2.55900E+01-1.61472E+01 1.67822E+00 4.00344E+00
 -1      1373 1.92449E+01-6.90624E+01 2.24735E+01-5.38468E+00 3.48905E+00 3.35458E+00
 -1      1374 2.01002E+01-8.50117E+01 2.87525E+01 3.30628E+01 1.59288E+01-7.61448E+00
 -1      1375-3.51279E+01-3.34408E+01 2.78023E+01 4.95788E+01 4.95615E+00-5.08518E+00
 -1      1376-5.46070E+01-1.29391E+01 2.52732E+01 1.26764E+01 3.89606E+00-1.66104E+00
 -1      1377-5.49130E+01-1.30856E+01 2.53937E+01-1.56517E+01 3.91719E+00 1.62754E+00
 -1      1378-3.61113E+01-3.40700E+01 2.84514E+01-5.37782E+01 5.07345E+00 5.09641E+00
 -1      1379 2.06537E+01-8.70742E+01 2.96430E+01-3.50247E+01 1.74800E+01 7.96929E+00
 -1      1380-4.36236E+01-3.10848E+01-9.10677E+00 8.57498E+01 9.99330E+01-1.06848E+02
 -1      1381-8.95965E+01 2.04284E+01 2.97663E+01 3.37443E+01 7.16266E+00-1.40533E+01
 -1      1382-6.91827E+01 1.93871E+01 2.23969E+01 3.84676E+00 3.01452E+00-2.15288E+00
 -1      1383-6.97651E+01 1.95570E+01 2.25799E+01-4.93927E+00 2.97390E+00 2.63438E+00
 -1      1384-9.35246E+01 2.10299E+01 3.09885E+01-3.59521E+01 7.31670E+00 1.42725E+01
 -1      1385-4.89370E+01-2.95922E+01-9.45116E+00-8.98952E+01 1.02937E+02 1.13563E+02
 -1      1386-4.48434E+01-2.06554E+01-1.94170E+00-8.88628E+01-4.49990E+01-5.53546E+01
 -1      1387-9.73553E+01 5.01140E-01 4.02018E+01-8.44965E+01 6.95439E+00-1.77518E+01
 -1      1388-1.20450E+02 2.31125E+01 3.59733E+01-5.34545E+01-1.67461E+01-1.14307E+01
 -1      1389-8.63419E+01 2.62698E+01 2.29573E+01-1.83104E+01-7.35400E+00-9.93661E+00
 -1      1390-8.64055E+01 2.40261E+01 2.82603E+01-8.05198E+00 2.10084E-01 3.92140E+00
 -1      1391-8.99741E+01 2.46129E+01 2.31818E+01 7.17233E-01-1.08079E+00 2.17836E-01
 -1      1392-8.48368E+01 2.33903E+01 2.80715E+01 9.59420E+00 7.07722E-02-2.58909E+00
 -1      1393-8.43735E+01 2.49745E+01 2.25106E+01 2.00847E+01-7.41503E+00 9.20496E+00
 -1      1394-1.08016E+02 2.20831E+01 3.37630E+01 5.28300E+01-1.90375E+01 1.31223E+01
 -1      1395-7.20641E+01-5.98032E+00 3.03654E+01 8.41188E+01 8.81464E+00 1.83449E+01
 -1      1396-1.59113E+01-5.04590E+01-1.95825E+00 9.00962E+01-5.84670E+01 4.36811E+01
 -1      1397-4.79674E+00-7.53851E+01 3.16467E+01-8.33387E+01-1.80753E+01 8.34254E+00
 -1      1398-8.20515E+01-5.60018E+00 2.92366E+01-6.50027E+01-5.70872E+00-3.10333E-01
 -1      1399-8.44358E+01 6.92617E+00 3.24086E+01-1.37956E+01 2.12655E+00 2.55706E+00
 -1      1400-8.28895E+01 5.98338E+00 3.18803E+01 1.54423E+01 2.28600E+00-1.92625E+00
 -1      1401-7.82689E+01-7.75263E+00 2.88606E+01 6.47084E+01-7.63870E+00-1.25244E+00
 -1      1402 1.56296E+00-1.03245E+02 4.25339E+01 8.57279E+01-1.78720E+01-6.79783E+00
 -1      1403 2.20020E+01-1.08634E+02 3.36293E+01-5.25824E+01-1.26844E+01-1.83816E+01
 -1      1404-7.40533E+00-7.77988E+01 2.85325E+01-6.44539E+01 1.03865E+00-7.20972E+00
 -1      1405-4.24678E+01-3.91332E+01 3.52719E+01-6.33666E+01-5.53332E+00-4.78117E+00
 -1      1406-5.83461E+01-2.53910E+01 3.48448E+01-3.45406E+01-4.07535E+00 6.02260E-01
 -1      1407-6.87488E+01-1.68234E+01 3.17284E+01-1.63701E+01-2.04278E+00-2.42152E+00
 -1      1408-6.86843E+01-1.55302E+01 3.26840E+01 7.23970E-01-1.92131E+00-9.82740E-02
 -1      1409-6.79735E+01-1.78233E+01 3.19711E+01 1.77579E+01-2.38125E+00 2.25080E+00
 -1      1410-5.57265E+01-2.82137E+01 3.48905E+01 3.54219E+01-3.73210E+00 2.10426E-01
 -1      1411-3.92032E+01-4.34208E+01 3.57029E+01 6.35014E+01-4.58349E+00 5.71478E+00
 -1      1412-5.47028E+00-8.38808E+01 2.97921E+01 6.54452E+01-6.37133E-01 5.49445E+00
 -1      1413 2.35534E+01-1.24455E+02 3.69582E+01 5.39937E+01-1.12084E+01 1.67358E+01
 -1      1414 2.48749E+01-8.34368E+01 2.22265E+01-1.97780E+01-9.31736E+00-7.32449E+00
 -1      1415-2.77649E+01-5.52278E+01 3.44926E+01-3.54558E+01-9.98960E-02-3.77782E+00
 -1      1416-5.62609E+01-3.50850E+01 3.44831E+01-9.58820E+00 1.21208E+00-1.30396E+00
 -1      1417-5.55539E+01-3.61494E+01 3.46246E+01 9.54111E+00 1.01839E+00 1.24371E+00
 -1      1418-2.54428E+01-5.92425E+01 3.52617E+01 3.40256E+01 7.73917E-01 4.19686E+00
 -1      1419 2.67586E+01-8.76414E+01 2.33002E+01 1.78790E+01-1.01541E+01 7.46255E+00
 -1      1420 2.31358E+01-8.37905E+01 2.74882E+01-9.40518E+00 2.74658E+00 8.26812E-02
 -1      1421 5.83419E+00-8.17829E+01 3.15096E+01-1.53841E+01 2.05544E+00 2.23057E+00
 -1      1422-1.79397E+01-6.68328E+01 3.15865E+01-1.79237E+01-2.21779E+00-2.28325E+00
 -1      1423-3.63111E+01-5.46226E+01 3.43424E+01-1.02396E+01-1.20951E+00 1.07036E+00
 -1      1424-4.91433E+01-4.76858E+01 3.78008E+01-4.85652E+00-9.94337E-01-8.71621E-01
 -1      1425-4.97681E+01-4.57825E+01 3.73592E+01-5.60422E-01-1.02142E+00 8.19103E-03
 -1      1426-4.83650E+01-4.89442E+01 3.80169E+01 3.65034E+00-8.01928E-01 1.05015E+00
 -1      1427-3.54670E+01-5.64940E+01 3.46970E+01 8.54242E+00-1.32045E+00-1.24793E+00
 -1      1428-1.69176E+01-6.93623E+01 3.19421E+01 1.53844E+01-2.50585E+00 2.06049E+00
 -1      1429 7.08411E+00-8.53785E+01 3.28094E+01 1.30301E+01 2.71588E+00-2.16086E+00
 -1      1430 2.43574E+01-8.73067E+01 2.86843E+01 7.52505E+00 4.36056E+00-2.67291E-01
 -1      1431 2.41081E+01-8.79826E+01 2.28514E+01-5.71049E-01-1.36332E-01-1.11959E+00
 -1      1432-1.60221E+01-6.71373E+01 3.22611E+01-1.13733E+00-1.45325E-04-1.98974E+00
 -1      1433-4.65675E+01-4.86611E+01 3.72401E+01-8.77375E-01-8.82843E-03-1.01801E+00
 -1      1434-4.62313E+01-4.94752E+01 3.74112E+01-1.14672E+00-6.60396E-03 1.07705E+00
 -1      1435-1.55181E+01-6.91676E+01 3.28890E+01-2.05595E+00-2.04266E-02 1.88429E+00
 -1      1436 2.48499E+01-9.09692E+01 2.32759E+01-1.27939E+00 3.71659E-01 1.07797E+00
 -1      1437 2.31872E+01-8.39529E+01 2.74306E+01 8.19559E+00-3.02708E+00 3.54412E-04
 -1      1438 5.97598E+00-8.18577E+01 3.14900E+01 1.35075E+01-1.98585E+00 2.13715E+00
 -1      1439-1.77179E+01-6.67358E+01 3.14703E+01 1.56598E+01 2.16974E+00-2.24229E+00
 -1      1440-3.61479E+01-5.45484E+01 3.42805E+01 8.38602E+00 1.21686E+00 1.11697E+00
 -1      1441-4.90506E+01-4.76073E+01 3.77166E+01 3.15613E+00 9.61116E-01-9.31998E-01
 -1      1442-5.00465E+01-4.53433E+01 3.72806E+01-1.33541E+00 1.09750E+00-1.17603E-02
 -1      1443-4.91311E+01-4.80796E+01 3.79822E+01-5.89259E+00 9.60678E-01 8.42367E-01
 -1      1444-3.61245E+01-5.56462E+01 3.46538E+01-1.14519E+01 1.30182E+00-1.08720E+00
 -1      1445-1.76118E+01-6.83893E+01 3.19875E+01-1.94449E+01 2.44306E+00 2.31728E+00
 -1      1446 6.23561E+00-8.36768E+01 3.21920E+01-1.65762E+01-2.15560E+00-2.26657E+00
 -1      1447 2.36390E+01-8.56497E+01 2.84008E+01-1.00873E+01-2.65742E+00-7.54301E-02
 -1      1448 2.49817E+01-8.32195E+01 2.21708E+01 1.84895E+01 9.01217E+00-7.19606E+00
 -1      1449-2.70358E+01-5.54193E+01 3.42362E+01 3.32289E+01-1.63752E-01-3.83148E+00
 -1      1450-5.62317E+01-3.47938E+01 3.43885E+01 8.15082E+00-1.11279E+00-1.32364E+00
 -1      1451-5.64818E+01-3.51743E+01 3.45910E+01-1.12570E+01-1.19664E+00 1.33900E+00
 -1      1452-2.74849E+01-5.65592E+01 3.49515E+01-3.74549E+01 4.01872E-02 3.89111E+00
 -1      1453 2.54890E+01-8.52317E+01 2.27316E+01-2.05573E+01 9.55248E+00 7.41130E+00
 -1      1454 2.20272E+01-1.09388E+02 3.34317E+01 5.12319E+01 1.21011E+01-1.73633E+01
 -1      1455-6.85884E+00-7.74071E+01 2.82246E+01 6.23618E+01-6.32648E-01-6.53525E+00
 -1      1456-4.12292E+01-3.93693E+01 3.47974E+01 6.09001E+01 5.27058E+00-4.97085E+00
 -1      1457-5.74906E+01-2.54709E+01 3.44648E+01 3.29427E+01 3.97010E+00 4.45340E-01
 -1      1458-6.86134E+01-1.65713E+01 3.16586E+01 1.51694E+01 2.15391E+00-2.38512E+00
 -1      1459-6.91441E+01-1.49357E+01 3.26591E+01-1.81565E+00 1.84110E+00 7.25487E-02
 -1      1460-6.90488E+01-1.67611E+01 3.18185E+01-1.88685E+01 2.11790E+00 2.57421E+00
 -1      1461-5.83363E+01-2.58811E+01 3.50449E+01-3.70429E+01 4.09588E+00-4.15952E-01
 -1      1462-4.22669E+01-4.01097E+01 3.56330E+01-6.60821E+01 5.57740E+00 5.03056E+00
 -1      1463-7.05497E+00-7.94714E+01 2.89459E+01-6.68418E+01-9.21096E-01 7.10090E+00
 -1      1464 2.25546E+01-1.12048E+02 3.44275E+01-5.43175E+01 1.30049E+01 1.83354E+01
 -1      1465-3.16759E+00-7.93216E+01 3.30981E+01 8.12571E+01 1.74738E+01 7.56774E+00
 -1      1466-7.95884E+01-5.84506E+00 2.85944E+01 6.26574E+01 5.88769E+00-1.30038E-02
 -1      1467-8.38487E+01 6.81606E+00 3.20787E+01 1.30392E+01-2.11621E+00 2.19439E+00
 -1      1468-8.45179E+01 6.89499E+00 3.24372E+01-1.58940E+01-2.20577E+00-2.62032E+00
 -1      1469-8.21593E+01-5.90554E+00 2.93674E+01-6.72448E+01 6.08246E+00-2.86528E-02
 -1      1470-3.97512E+00-8.01521E+01 3.35220E+01-8.53630E+01 1.84854E+01-8.23997E+00
 -1      1471-3.72104E+01-2.64613E+01-1.86643E+00 8.63781E+01 4.61680E+01-5.07643E+01
 -1      1472-8.92162E+01-7.98655E-01 3.69224E+01 8.18150E+01-6.96648E+00-1.73558E+01
 -1      1473-1.14923E+02 2.26030E+01 3.45570E+01 5.17076E+01 1.66271E+01-1.16587E+01
 -1      1474-8.50717E+01 2.57388E+01 2.26878E+01 1.79434E+01 7.16956E+00-9.19805E+00
 -1      1475-8.57745E+01 2.37715E+01 2.82369E+01 7.77593E+00-6.84926E-02 3.39896E+00
 -1      1476-9.05090E+01 2.47312E+01 2.31549E+01-7.84917E-01 1.07359E+00 1.75241E-01
 -1      1477-8.63917E+01 2.40027E+01 2.84609E+01-9.38665E+00-2.52036E-01-3.48230E+00
 -1      1478-8.65490E+01 2.63032E+01 2.30277E+01-1.96582E+01 7.39380E+00 1.01125E+01
 -1      1479-1.19887E+02 2.32604E+01 3.59182E+01-5.49379E+01 1.72290E+01 1.20336E+01
 -1      1480-9.50805E+01-3.61916E-01 3.93567E+01-8.61562E+01-7.26635E+00 1.82597E+01
 -1      1481-4.16425E+01-2.50532E+01-1.93992E+00-9.04819E+01 4.71786E+01 5.42850E+01
 -3
    1PSTEP                         4           1           1          
    1PGM                1.000000E+00                                  
    1PGK                2.417092E+10                                  
    1PHID                         -1                                  
    1PSUBC                         0                                  
    1PMODE                         1                                  
  100CL  101 24743.81753        1481                     2    1MODAL      1
 -4  ERROR       1    1
 -5  STR(%)      1    1    0    0
 -1         1 1.15310E+01
 -1         2 1.15310E+01
 -1         3 1.15310E+01
 -1         4 1.11898E+01
 -1         5 1.08487E+01
 -1         6 1.06151E+01
 -1         7 1.03815E+01
 -1         8 1.10127E+01
 -1         9 1.16440E+01
 -1        10 1.16440E+01
 -1        11 1.16440E+01
 -1        12 1.15310E+01
 -1        13 1.15310E+01
 -1        14 1.08487E+01
 -1        15 1.03815E+01
 -1        16 1.16440E+01
 -1        17 1.16440E+01
 -1        18 1.15310E+01
 -1        19 1.15310E+01
 -1        20 1.15310E+01
 -1        21 1.11898E+01
 -1        22 1.08487E+01
 -1        23 1.06151E+01
 -1        24 1.03815E+01
 -1        25 1.10127E+01
 -1        26 1.16440E+01
 -1        27 1.16440E+01
 -1        28 1.16440E+01
 -1        29 1.10178E+01
 -1        30 1.10178E+01
 -1        31 9.21322E+00
 -1        32 9.07231E+00
 -1        33 1.13014E+01
 -1        34 1.13014E+01
 -1        35 1.05047E+01
 -1        36 1.05047E+01
 -1        37 1.05047E+01
 -1        38 9.04124E+00
 -1        39 7.57776E+00
 -1        40 7.67042E+00
 -1        41 7.76308E+00
 -1        42 9.36097E+00
 -1        43 1.09589E+01
 -1        44 1.09589E+01
 -1        45 1.09589E+01
 -1        46 1.04679E+01
 -1        47 1.04679E+01
 -1        48 7.57392E+00
 -1        49 7.71357E+00
 -1        50 1.07714E+01
 -1        51 1.07714E+01
 -1        52 1.04310E+01
 -1        53 1.04310E+01
 -1        54 1.04310E+01
 -1        55 9.00056E+00
 -1        56 7.57008E+00
 -1        57 7.61707E+00
 -1        58 7.66407E+00
 -1        59 9.12403E+00
 -1        60 1.05840E+01
 -1        61 1.05840E+01
 -1        62 1.05840E+01
 -1        63 1.09322E+01
 -1        64 1.09322E+01
 -1        65 9.06771E+00
 -1        66 9.25675E+00
 -1        67 1.09933E+01
 -1        68 1.09933E+01
 -1        69 1.14334E+01
 -1        70 1.14334E+01
 -1        71 1.14334E+01
 -1        72 1.09994E+01
 -1        73 1.05653E+01
 -1        74 1.07074E+01
 -1        75 1.08494E+01
 -1        76 1.11260E+01
 -1        77 1.14026E+01
 -1        78 1.14026E+01
 -1        79 1.14026E+01
 -1        80 1.14334E+01
 -1        81 1.14334E+01
 -1        82 1.05653E+01
 -1        83 1.08494E+01
 -1        84 1.14026E+01
 -1        85 1.14026E+01
 -1        86 1.14334E+01
 -1        87 1.14334E+01
 -1        88 1.14334E+01
 -1        89 1.09994E+01
 -1        90 1.05653E+01
 -1        91 1.07074E+01
 -1        92 1.08494E+01
 -1        93 1.11260E+01
 -1        94 1.14026E+01
 -1        95 1.14026E+01
 -1        96 1.14026E+01
 -1        97 1.69561E+01
 -1        98 1.69561E+01
 -1        99 1.51277E+01
 -1       100 1.47612E+01
 -1       101 1.70252E+01
 -1       102 1.70252E+01
 -1       103 1.69561E+01
 -1       104 1.71812E+01
 -1       105 1.68401E+01
 -1       106 1.65989E+01
 -1       107 1.72301E+01
 -1       108 1.70252E+01
 -1       109 1.48210E+01
 -1       110 1.66681E+01
 -1       111 1.52046E+01
 -1       112 1.52897E+01
 -1       113 1.68876E+01
 -1       114 1.52609E+01
 -1       115 1.47672E+01
 -1       116 1.66307E+01
 -1       117 1.52002E+01
 -1       118 1.52346E+01
 -1       119 1.66945E+01
 -1       120 1.47901E+01
 -1       121 1.68921E+01
 -1       122 1.71319E+01
 -1       123 1.66979E+01
 -1       124 1.68272E+01
 -1       125 1.71038E+01
 -1       126 1.68819E+01
 -1       127 1.68921E+01
 -1       128 1.68921E+01
 -1       129 1.48628E+01
 -1       130 1.50437E+01
 -1       131 1.68819E+01
 -1       132 1.68819E+01
 -1       133 2.23813E+01
 -1       134 2.23813E+01
 -1       135 2.23813E+01
 -1       136 2.08940E+01
 -1       137 1.94067E+01
 -1       138 1.92738E+01
 -1       139 1.91409E+01
 -1       140 2.07737E+01
 -1       141 2.24065E+01
 -1       142 2.24065E+01
 -1       143 2.24065E+01
 -1       144 2.23813E+01
 -1       145 2.26063E+01
 -1       146 2.11191E+01
 -1       147 2.09786E+01
 -1       148 2.26114E+01
 -1       149 2.24065E+01
 -1       150 2.23813E+01
 -1       151 2.26063E+01
 -1       152 2.28314E+01
 -1       153 2.28314E+01
 -1       154 2.28314E+01
 -1       155 2.28239E+01
 -1       156 2.28163E+01
 -1       157 2.28163E+01
 -1       158 2.28163E+01
 -1       159 2.26114E+01
 -1       160 2.24065E+01
 -1       161 2.07592E+01
 -1       162 2.28314E+01
 -1       163 2.28314E+01
 -1       164 2.28163E+01
 -1       165 2.28163E+01
 -1       166 2.09847E+01
 -1       167 1.91372E+01
 -1       168 2.09843E+01
 -1       169 2.28314E+01
 -1       170 2.28314E+01
 -1       171 2.28314E+01
 -1       172 2.28239E+01
 -1       173 2.28163E+01
 -1       174 2.28163E+01
 -1       175 2.28163E+01
 -1       176 2.11896E+01
 -1       177 1.95630E+01
 -1       178 1.91203E+01
 -1       179 2.28309E+01
 -1       180 2.28309E+01
 -1       181 2.28107E+01
 -1       182 2.28107E+01
 -1       183 1.92796E+01
 -1       184 1.91033E+01
 -1       185 2.09669E+01
 -1       186 2.28304E+01
 -1       187 2.28304E+01
 -1       188 2.28304E+01
 -1       189 2.28177E+01
 -1       190 2.28050E+01
 -1       191 2.28050E+01
 -1       192 2.28050E+01
 -1       193 2.09006E+01
 -1       194 1.89963E+01
 -1       195 2.07270E+01
 -1       196 2.28304E+01
 -1       197 2.28304E+01
 -1       198 2.28050E+01
 -1       199 2.28050E+01
 -1       200 2.06788E+01
 -1       201 2.23507E+01
 -1       202 2.25906E+01
 -1       203 2.28304E+01
 -1       204 2.28304E+01
 -1       205 2.28304E+01
 -1       206 2.28177E+01
 -1       207 2.28050E+01
 -1       208 2.28050E+01
 -1       209 2.28050E+01
 -1       210 2.25832E+01
 -1       211 2.23613E+01
 -1       212 2.23507E+01
 -1       213 2.25906E+01
 -1       214 2.09953E+01
 -1       215 2.10215E+01
 -1       216 2.25832E+01
 -1       217 2.23613E+01
 -1       218 2.23507E+01
 -1       219 2.23507E+01
 -1       220 2.23507E+01
 -1       221 2.07555E+01
 -1       222 1.91602E+01
 -1       223 1.91990E+01
 -1       224 1.92379E+01
 -1       225 2.07996E+01
 -1       226 2.23613E+01
 -1       227 2.23613E+01
 -1       228 2.23613E+01
 -1       229 2.32230E+01
 -1       230 2.37253E+01
 -1       231 2.22381E+01
 -1       232 2.10971E+01
 -1       233 2.27299E+01
 -1       234 2.32655E+01
 -1       235 2.28818E+01
 -1       236 2.39504E+01
 -1       237 2.83429E+01
 -1       238 2.83354E+01
 -1       239 2.40702E+01
 -1       240 2.38653E+01
 -1       241 2.12598E+01
 -1       242 2.83549E+01
 -1       243 2.83549E+01
 -1       244 2.83354E+01
 -1       245 2.81386E+01
 -1       246 2.24435E+01
 -1       247 2.15030E+01
 -1       248 2.83544E+01
 -1       249 2.83544E+01
 -1       250 2.81329E+01
 -1       251 2.81329E+01
 -1       252 2.13315E+01
 -1       253 2.31267E+01
 -1       254 2.37457E+01
 -1       255 2.79362E+01
 -1       256 2.79235E+01
 -1       257 2.38181E+01
 -1       258 2.30140E+01
 -1       259 2.31404E+01
 -1       260 2.35059E+01
 -1       261 2.19106E+01
 -1       262 2.20346E+01
 -1       263 2.35963E+01
 -1       264 2.31499E+01
 -1       265 3.13029E+01
 -1       266 3.13029E+01
 -1       267 3.13029E+01
 -1       268 3.12854E+01
 -1       269 3.12678E+01
 -1       270 3.12678E+01
 -1       271 3.12678E+01
 -1       272 3.11559E+01
 -1       273 3.10440E+01
 -1       274 3.12375E+01
 -1       275 3.14309E+01
 -1       276 3.14309E+01
 -1       277 3.14309E+01
 -1       278 3.13637E+01
 -1       279 3.12965E+01
 -1       280 3.13029E+01
 -1       281 3.13029E+01
 -1       282 3.12678E+01
 -1       283 3.12678E+01
 -1       284 3.10440E+01
 -1       285 3.14309E+01
 -1       286 3.14309E+01
 -1       287 3.12965E+01
 -1       288 3.13029E+01
 -1       289 3.13029E+01
 -1       290 3.13029E+01
 -1       291 3.12854E+01
 -1       292 3.12678E+01
 -1       293 3.12678E+01
 -1       294 3.12678E+01
 -1       295 3.11559E+01
 -1       296 3.10440E+01
 -1       297 3.12375E+01
 -1       298 3.14309E+01
 -1       299 3.14309E+01
 -1       300 3.14309E+01
 -1       301 3.13637E+01
 -1       302 3.12965E+01
 -1       303 2.70782E+01
 -1       304 2.64710E+01
 -1       305 2.69126E+01
 -1       306 2.69126E+01
 -1       307 2.63507E+01
 -1       308 2.65441E+01
 -1       309 2.65771E+01
 -1       310 2.68551E+01
 -1       311 2.28535E+01
 -1       312 2.28535E+01
 -1       313 2.28535E+01
 -1       314 2.22462E+01
 -1       315 2.16390E+01
 -1       316 2.20982E+01
 -1       317 2.25574E+01
 -1       318 2.25574E+01
 -1       319 2.25574E+01
 -1       320 2.16573E+01
 -1       321 2.16573E+01
 -1       322 2.16573E+01
 -1       323 2.16903E+01
 -1       324 2.17233E+01
 -1       325 2.20685E+01
 -1       326 2.24136E+01
 -1       327 2.24136E+01
 -1       328 2.24136E+01
 -1       329 2.28535E+01
 -1       330 2.34591E+01
 -1       331 2.28518E+01
 -1       332 2.13842E+01
 -1       333 2.29239E+01
 -1       334 2.32690E+01
 -1       335 2.24136E+01
 -1       336 3.13003E+01
 -1       337 3.13003E+01
 -1       338 3.13003E+01
 -1       339 2.70769E+01
 -1       340 2.28535E+01
 -1       341 2.34591E+01
 -1       342 2.40646E+01
 -1       343 2.40646E+01
 -1       344 2.40646E+01
 -1       345 2.11111E+01
 -1       346 2.26178E+01
 -1       347 2.41245E+01
 -1       348 2.41245E+01
 -1       349 2.41245E+01
 -1       350 2.32690E+01
 -1       351 2.24136E+01
 -1       352 2.68240E+01
 -1       353 3.12344E+01
 -1       354 3.12344E+01
 -1       355 3.12344E+01
 -1       356 3.13832E+01
 -1       357 3.13832E+01
 -1       358 2.23526E+01
 -1       359 2.40646E+01
 -1       360 2.40646E+01
 -1       361 2.41245E+01
 -1       362 2.41245E+01
 -1       363 2.20560E+01
 -1       364 3.12344E+01
 -1       365 3.12344E+01
 -1       366 3.14661E+01
 -1       367 3.14661E+01
 -1       368 3.14661E+01
 -1       369 2.66589E+01
 -1       370 2.18518E+01
 -1       371 2.29582E+01
 -1       372 2.40646E+01
 -1       373 2.40646E+01
 -1       374 2.40646E+01
 -1       375 2.45670E+01
 -1       376 2.50694E+01
 -1       377 2.50694E+01
 -1       378 2.50694E+01
 -1       379 2.40613E+01
 -1       380 2.30533E+01
 -1       381 2.30533E+01
 -1       382 2.30533E+01
 -1       383 2.35889E+01
 -1       384 2.41245E+01
 -1       385 2.41245E+01
 -1       386 2.41245E+01
 -1       387 2.29114E+01
 -1       388 2.16983E+01
 -1       389 2.64664E+01
 -1       390 3.12344E+01
 -1       391 3.12344E+01
 -1       392 3.12344E+01
 -1       393 3.14661E+01
 -1       394 3.14661E+01
 -1       395 2.18518E+01
 -1       396 2.25879E+01
 -1       397 2.37235E+01
 -1       398 2.50694E+01
 -1       399 2.94619E+01
 -1       400 2.84539E+01
 -1       401 2.41887E+01
 -1       402 2.47242E+01
 -1       403 2.16109E+01
 -1       404 3.10625E+01
 -1       405 3.10625E+01
 -1       406 3.14661E+01
 -1       407 3.14661E+01
 -1       408 3.14661E+01
 -1       409 2.66589E+01
 -1       410 2.18518E+01
 -1       411 2.14815E+01
 -1       412 2.11112E+01
 -1       413 2.33823E+01
 -1       414 2.42259E+01
 -1       415 2.50694E+01
 -1       416 2.94619E+01
 -1       417 3.38544E+01
 -1       418 3.38544E+01
 -1       419 3.38544E+01
 -1       420 2.95892E+01
 -1       421 2.53240E+01
 -1       422 2.53240E+01
 -1       423 2.53240E+01
 -1       424 2.15234E+01
 -1       425 2.62070E+01
 -1       426 3.08907E+01
 -1       427 3.08907E+01
 -1       428 3.08907E+01
 -1       429 3.12988E+01
 -1       430 3.12988E+01
 -1       431 2.17942E+01
 -1       432 2.33823E+01
 -1       433 2.94739E+01
 -1       434 3.38664E+01
 -1       435 3.38544E+01
 -1       436 2.93925E+01
 -1       437 2.53240E+01
 -1       438 3.03603E+01
 -1       439 3.03603E+01
 -1       440 3.11315E+01
 -1       441 3.11315E+01
 -1       442 3.11315E+01
 -1       443 2.64340E+01
 -1       444 2.17366E+01
 -1       445 2.33823E+01
 -1       446 2.86304E+01
 -1       447 3.38784E+01
 -1       448 3.38784E+01
 -1       449 3.38784E+01
 -1       450 3.38664E+01
 -1       451 3.38544E+01
 -1       452 3.36576E+01
 -1       453 3.34609E+01
 -1       454 2.93925E+01
 -1       455 2.53240E+01
 -1       456 2.98300E+01
 -1       457 2.98300E+01
 -1       458 2.98300E+01
 -1       459 3.11420E+01
 -1       460 3.11420E+01
 -1       461 2.36425E+01
 -1       462 3.38784E+01
 -1       463 3.38784E+01
 -1       464 3.36576E+01
 -1       465 3.34609E+01
 -1       466 2.44954E+01
 -1       467 3.04045E+01
 -1       468 3.04045E+01
 -1       469 3.11524E+01
 -1       470 3.11524E+01
 -1       471 3.11524E+01
 -1       472 2.64602E+01
 -1       473 2.17680E+01
 -1       474 2.39027E+01
 -1       475 2.88906E+01
 -1       476 3.38784E+01
 -1       477 3.38784E+01
 -1       478 3.38784E+01
 -1       479 3.36696E+01
 -1       480 3.34609E+01
 -1       481 3.34609E+01
 -1       482 3.34609E+01
 -1       483 2.85638E+01
 -1       484 2.36667E+01
 -1       485 2.16033E+01
 -1       486 2.62912E+01
 -1       487 3.09791E+01
 -1       488 3.09791E+01
 -1       489 3.09791E+01
 -1       490 3.12821E+01
 -1       491 3.12821E+01
 -1       492 2.17858E+01
 -1       493 2.39027E+01
 -1       494 2.92697E+01
 -1       495 3.34602E+01
 -1       496 3.32514E+01
 -1       497 2.91461E+01
 -1       498 2.36667E+01
 -1       499 2.16033E+01
 -1       500 3.11794E+01
 -1       501 3.11794E+01
 -1       502 3.14118E+01
 -1       503 3.14118E+01
 -1       504 3.14118E+01
 -1       505 2.66078E+01
 -1       506 2.18037E+01
 -1       507 2.14949E+01
 -1       508 2.11862E+01
 -1       509 2.39027E+01
 -1       510 2.42819E+01
 -1       511 2.46610E+01
 -1       512 2.88515E+01
 -1       513 3.30420E+01
 -1       514 3.30420E+01
 -1       515 3.30420E+01
 -1       516 2.89366E+01
 -1       517 2.48313E+01
 -1       518 2.42490E+01
 -1       519 2.36667E+01
 -1       520 2.11747E+01
 -1       521 2.13890E+01
 -1       522 2.16033E+01
 -1       523 2.64915E+01
 -1       524 3.13797E+01
 -1       525 3.13797E+01
 -1       526 3.13797E+01
 -1       527 3.14118E+01
 -1       528 3.14118E+01
 -1       529 2.18037E+01
 -1       530 2.25582E+01
 -1       531 2.39164E+01
 -1       532 2.46610E+01
 -1       533 2.88515E+01
 -1       534 2.89366E+01
 -1       535 2.48313E+01
 -1       536 2.38026E+01
 -1       537 2.25566E+01
 -1       538 2.16380E+01
 -1       539 3.13797E+01
 -1       540 3.13797E+01
 -1       541 3.14118E+01
 -1       542 3.14118E+01
 -1       543 3.14118E+01
 -1       544 2.66078E+01
 -1       545 2.18037E+01
 -1       546 2.28669E+01
 -1       547 2.39301E+01
 -1       548 2.39301E+01
 -1       549 2.39301E+01
 -1       550 2.42956E+01
 -1       551 2.46610E+01
 -1       552 2.46610E+01
 -1       553 2.46610E+01
 -1       554 2.47461E+01
 -1       555 2.48313E+01
 -1       556 2.48313E+01
 -1       557 2.48313E+01
 -1       558 2.43849E+01
 -1       559 2.39385E+01
 -1       560 2.39385E+01
 -1       561 2.39385E+01
 -1       562 2.28056E+01
 -1       563 2.16727E+01
 -1       564 2.65262E+01
 -1       565 3.13797E+01
 -1       566 3.13797E+01
 -1       567 3.13797E+01
 -1       568 3.13685E+01
 -1       569 3.13685E+01
 -1       570 2.18396E+01
 -1       571 2.39301E+01
 -1       572 2.39301E+01
 -1       573 2.39385E+01
 -1       574 2.39385E+01
 -1       575 2.17960E+01
 -1       576 3.13467E+01
 -1       577 3.13467E+01
 -1       578 3.13252E+01
 -1       579 3.13252E+01
 -1       580 3.13252E+01
 -1       581 2.66004E+01
 -1       582 2.18756E+01
 -1       583 2.29029E+01
 -1       584 2.39301E+01
 -1       585 2.39301E+01
 -1       586 2.39301E+01
 -1       587 2.23794E+01
 -1       588 2.08287E+01
 -1       589 2.08524E+01
 -1       590 2.23954E+01
 -1       591 2.39385E+01
 -1       592 2.39385E+01
 -1       593 2.39385E+01
 -1       594 2.29289E+01
 -1       595 2.19194E+01
 -1       596 2.66166E+01
 -1       597 3.13137E+01
 -1       598 3.13137E+01
 -1       599 3.13137E+01
 -1       600 2.18756E+01
 -1       601 2.29029E+01
 -1       602 2.29061E+01
 -1       603 2.13553E+01
 -1       604 2.13817E+01
 -1       605 2.29247E+01
 -1       606 2.29289E+01
 -1       607 2.19194E+01
 -1       608 2.18756E+01
 -1       609 2.18756E+01
 -1       610 2.18756E+01
 -1       611 2.18788E+01
 -1       612 2.18820E+01
 -1       613 2.18820E+01
 -1       614 2.18820E+01
 -1       615 2.19109E+01
 -1       616 2.19109E+01
 -1       617 2.19109E+01
 -1       618 2.19151E+01
 -1       619 2.19194E+01
 -1       620 2.19194E+01
 -1       621 2.19194E+01
 -1       622 2.66004E+01
 -1       623 2.66036E+01
 -1       624 2.64511E+01
 -1       625 2.64666E+01
 -1       626 2.66204E+01
 -1       627 2.66247E+01
 -1       628 3.13252E+01
 -1       629 3.13252E+01
 -1       630 3.13252E+01
 -1       631 3.11727E+01
 -1       632 3.10202E+01
 -1       633 3.03493E+01
 -1       634 2.96784E+01
 -1       635 2.96759E+01
 -1       636 2.96733E+01
 -1       637 3.03478E+01
 -1       638 3.10223E+01
 -1       639 3.11761E+01
 -1       640 3.13299E+01
 -1       641 3.13299E+01
 -1       642 3.13299E+01
 -1       643 3.13252E+01
 -1       644 3.13252E+01
 -1       645 3.10202E+01
 -1       646 2.96784E+01
 -1       647 2.96733E+01
 -1       648 3.10223E+01
 -1       649 3.13299E+01
 -1       650 3.13299E+01
 -1       651 3.13252E+01
 -1       652 3.13252E+01
 -1       653 3.13252E+01
 -1       654 3.11727E+01
 -1       655 3.10202E+01
 -1       656 3.03493E+01
 -1       657 2.96784E+01
 -1       658 2.96759E+01
 -1       659 2.96733E+01
 -1       660 3.03478E+01
 -1       661 3.10223E+01
 -1       662 3.11761E+01
 -1       663 3.13299E+01
 -1       664 3.13299E+01
 -1       665 3.13299E+01
 -1       666 3.13029E+01
 -1       667 3.13029E+01
 -1       668 3.12678E+01
 -1       669 3.12678E+01
 -1       670 3.10440E+01
 -1       671 3.14309E+01
 -1       672 3.14309E+01
 -1       673 3.12965E+01
 -1       674 3.13029E+01
 -1       675 3.13029E+01
 -1       676 3.12678E+01
 -1       677 3.12678E+01
 -1       678 3.10440E+01
 -1       679 3.14309E+01
 -1       680 3.14309E+01
 -1       681 3.12965E+01
 -1       682 2.28535E+01
 -1       683 2.28535E+01
 -1       684 2.16390E+01
 -1       685 2.25574E+01
 -1       686 2.25574E+01
 -1       687 2.16573E+01
 -1       688 2.16573E+01
 -1       689 2.17233E+01
 -1       690 2.24136E+01
 -1       691 2.24136E+01
 -1       692 3.13003E+01
 -1       693 3.13003E+01
 -1       694 2.28535E+01
 -1       695 2.40646E+01
 -1       696 2.40646E+01
 -1       697 2.11111E+01
 -1       698 2.41245E+01
 -1       699 2.41245E+01
 -1       700 2.24136E+01
 -1       701 3.12344E+01
 -1       702 3.12344E+01
 -1       703 3.14661E+01
 -1       704 3.14661E+01
 -1       705 2.18518E+01
 -1       706 2.40646E+01
 -1       707 2.40646E+01
 -1       708 2.50694E+01
 -1       709 2.50694E+01
 -1       710 2.30533E+01
 -1       711 2.30533E+01
 -1       712 2.41245E+01
 -1       713 2.41245E+01
 -1       714 2.16983E+01
 -1       715 3.12344E+01
 -1       716 3.12344E+01
 -1       717 3.14661E+01
 -1       718 3.14661E+01
 -1       719 2.18518E+01
 -1       720 2.11112E+01
 -1       721 2.33823E+01
 -1       722 2.50694E+01
 -1       723 3.38544E+01
 -1       724 3.38544E+01
 -1       725 2.53240E+01
 -1       726 2.53240E+01
 -1       727 2.15234E+01
 -1       728 3.08907E+01
 -1       729 3.08907E+01
 -1       730 3.11315E+01
 -1       731 3.11315E+01
 -1       732 2.17366E+01
 -1       733 2.33823E+01
 -1       734 3.38784E+01
 -1       735 3.38784E+01
 -1       736 3.38544E+01
 -1       737 3.34609E+01
 -1       738 2.53240E+01
 -1       739 2.98300E+01
 -1       740 2.98300E+01
 -1       741 3.11524E+01
 -1       742 3.11524E+01
 -1       743 2.17680E+01
 -1       744 2.39027E+01
 -1       745 3.38784E+01
 -1       746 3.38784E+01
 -1       747 3.34609E+01
 -1       748 3.34609E+01
 -1       749 2.36667E+01
 -1       750 2.16033E+01
 -1       751 3.09791E+01
 -1       752 3.09791E+01
 -1       753 3.14118E+01
 -1       754 3.14118E+01
 -1       755 2.18037E+01
 -1       756 2.11862E+01
 -1       757 2.39027E+01
 -1       758 2.46610E+01
 -1       759 3.30420E+01
 -1       760 3.30420E+01
 -1       761 2.48313E+01
 -1       762 2.36667E+01
 -1       763 2.11747E+01
 -1       764 2.16033E+01
 -1       765 3.13797E+01
 -1       766 3.13797E+01
 -1       767 3.14118E+01
 -1       768 3.14118E+01
 -1       769 2.18037E+01
 -1       770 2.39301E+01
 -1       771 2.39301E+01
 -1       772 2.46610E+01
 -1       773 2.46610E+01
 -1       774 2.48313E+01
 -1       775 2.48313E+01
 -1       776 2.39385E+01
 -1       777 2.39385E+01
 -1       778 2.16727E+01
 -1       779 3.13797E+01
 -1       780 3.13797E+01
 -1       781 3.13252E+01
 -1       782 3.13252E+01
 -1       783 2.18756E+01
 -1       784 2.39301E+01
 -1       785 2.39301E+01
 -1       786 2.08287E+01
 -1       787 2.08524E+01
 -1       788 2.39385E+01
 -1       789 2.39385E+01
 -1       790 2.19194E+01
 -1       791 3.13137E+01
 -1       792 3.13137E+01
 -1       793 2.18756E+01
 -1       794 2.18756E+01
 -1       795 2.18820E+01
 -1       796 2.18820E+01
 -1       797 2.19109E+01
 -1       798 2.19109E+01
 -1       799 2.19194E+01
 -1       800 2.19194E+01
 -1       801 3.13252E+01
 -1       802 3.13252E+01
 -1       803 3.10202E+01
 -1       804 2.96784E+01
 -1       805 2.96733E+01
 -1       806 3.10223E+01
 -1       807 3.13299E+01
 -1       808 3.13299E+01
 -1       809 3.13252E+01
 -1       810 3.13252E+01
 -1       811 3.10202E+01
 -1       812 2.96784E+01
 -1       813 2.96733E+01
 -1       814 3.10223E+01
 -1       815 3.13299E+01
 -1       816 3.13299E+01
 -1       817 3.13029E+01
 -1       818 3.13029E+01
 -1       819 3.13029E+01
 -1       820 3.12854E+01
 -1       821 3.12678E+01
 -1       822 3.12678E+01
 -1       823 3.12678E+01
 -1       824 3.11559E+01
 -1       825 3.10440E+01
 -1       826 3.12375E+01
 -1       827 3.14309E+01
 -1       828 3.14309E+01
 -1       829 3.14309E+01
 -1       830 3.13637E+01
 -1       831 3.12965E+01
 -1       832 3.13029E+01
 -1       833 3.13029E+01
 -1       834 3.12678E+01
 -1       835 3.12678E+01
 -1       836 3.10440E+01
 -1       837 3.14309E+01
 -1       838 3.14309E+01
 -1       839 3.12965E+01
 -1       840 3.13029E+01
 -1       841 3.13029E+01
 -1       842 3.13029E+01
 -1       843 3.12854E+01
 -1       844 3.12678E+01
 -1       845 3.12678E+01
 -1       846 3.12678E+01
 -1       847 3.11559E+01
 -1       848 3.10440E+01
 -1       849 3.12375E+01
 -1       850 3.14309E+01
 -1       851 3.14309E+01
 -1       852 3.14309E+01
 -1       853 3.13637E+01
 -1       854 3.12965E+01
 -1       855 2.70782E+01
 -1       856 2.64710E+01
 -1       857 2.69126E+01
 -1       858 2.69126E+01
 -1       859 2.63507E+01
 -1       860 2.65441E+01
 -1       861 2.65771E+01
 -1       862 2.68551E+01
 -1       863 2.28535E+01
 -1       864 2.28535E+01
 -1       865 2.28535E+01
 -1       866 2.22462E+01
 -1       867 2.16390E+01
 -1       868 2.20982E+01
 -1       869 2.25574E+01
 -1       870 2.25574E+01
 -1       871 2.25574E+01
 -1       872 2.16573E+01
 -1       873 2.16573E+01
 -1       874 2.16573E+01
 -1       875 2.16903E+01
 -1       876 2.17233E+01
 -1       877 2.20685E+01
 -1       878 2.24136E+01
 -1       879 2.24136E+01
 -1       880 2.24136E+01
 -1       881 2.28535E+01
 -1       882 2.34591E+01
 -1       883 2.28518E+01
 -1       884 2.13842E+01
 -1       885 2.29239E+01
 -1       886 2.32690E+01
 -1       887 2.24136E+01
 -1       888 3.13003E+01
 -1       889 3.13003E+01
 -1       890 3.13003E+01
 -1       891 2.70769E+01
 -1       892 2.28535E+01
 -1       893 2.34591E+01
 -1       894 2.40646E+01
 -1       895 2.40646E+01
 -1       896 2.40646E+01
 -1       897 2.11111E+01
 -1       898 2.26178E+01
 -1       899 2.41245E+01
 -1       900 2.41245E+01
 -1       901 2.41245E+01
 -1       902 2.32690E+01
 -1       903 2.24136E+01
 -1       904 2.68240E+01
 -1       905 3.12344E+01
 -1       906 3.12344E+01
 -1       907 3.12344E+01
 -1       908 3.13832E+01
 -1       909 3.13832E+01
 -1       910 2.23526E+01
 -1       911 2.40646E+01
 -1       912 2.40646E+01
 -1       913 2.41245E+01
 -1       914 2.41245E+01
 -1       915 2.20560E+01
 -1       916 3.12344E+01
 -1       917 3.12344E+01
 -1       918 3.14661E+01
 -1       919 3.14661E+01
 -1       920 3.14661E+01
 -1       921 2.66589E+01
 -1       922 2.18518E+01
 -1       923 2.29582E+01
 -1       924 2.40646E+01
 -1       925 2.40646E+01
 -1       926 2.40646E+01
 -1       927 2.45670E+01
 -1       928 2.50694E+01
 -1       929 2.50694E+01
 -1       930 2.50694E+01
 -1       931 2.40613E+01
 -1       932 2.30533E+01
 -1       933 2.30533E+01
 -1       934 2.30533E+01
 -1       935 2.35889E+01
 -1       936 2.41245E+01
 -1       937 2.41245E+01
 -1       938 2.41245E+01
 -1       939 2.29114E+01
 -1       940 2.16983E+01
 -1       941 2.64664E+01
 -1       942 3.12344E+01
 -1       943 3.12344E+01
 -1       944 3.12344E+01
 -1       945 3.14661E+01
 -1       946 3.14661E+01
 -1       947 2.18518E+01
 -1       948 2.25879E+01
 -1       949 2.37235E+01
 -1       950 2.50694E+01
 -1       951 2.94619E+01
 -1       952 2.84539E+01
 -1       953 2.41887E+01
 -1       954 2.47242E+01
 -1       955 2.16109E+01
 -1       956 3.10625E+01
 -1       957 3.10625E+01
 -1       958 3.14661E+01
 -1       959 3.14661E+01
 -1       960 3.14661E+01
 -1       961 2.66589E+01
 -1       962 2.18518E+01
 -1       963 2.14815E+01
 -1       964 2.11112E+01
 -1       965 2.33823E+01
 -1       966 2.42259E+01
 -1       967 2.50694E+01
 -1       968 2.94619E+01
 -1       969 3.38544E+01
 -1       970 3.38544E+01
 -1       971 3.38544E+01
 -1       972 2.95892E+01
 -1       973 2.53240E+01
 -1       974 2.53240E+01
 -1       975 2.53240E+01
 -1       976 2.15234E+01
 -1       977 2.62070E+01
 -1       978 3.08907E+01
 -1       979 3.08907E+01
 -1       980 3.08907E+01
 -1       981 3.12988E+01
 -1       982 3.12988E+01
 -1       983 2.17942E+01
 -1       984 2.33823E+01
 -1       985 2.94739E+01
 -1       986 3.38664E+01
 -1       987 3.38544E+01
 -1       988 2.93925E+01
 -1       989 2.53240E+01
 -1       990 3.03603E+01
 -1       991 3.03603E+01
 -1       992 3.11315E+01
 -1       993 3.11315E+01
 -1       994 3.11315E+01
 -1       995 2.64340E+01
 -1       996 2.17366E+01
 -1       997 2.33823E+01
 -1       998 2.86304E+01
 -1       999 3.38784E+01
 -1      1000 3.38784E+01
 -1      1001 3.38784E+01
 -1      1002 3.38664E+01
 -1      1003 3.38544E+01
 -1      1004 3.36576E+01
 -1      1005 3.34609E+01
 -1      1006 2.93925E+01
 -1      1007 2.53240E+01
 -1      1008 2.98300E+01
 -1      1009 2.98300E+01
 -1      1010 2.98300E+01
 -1      1011 3.11420E+01
 -1      1012 3.11420E+01
 -1      1013 2.36425E+01
 -1      1014 3.38784E+01
 -1      1015 3.38784E+01
 -1      1016 3.36576E+01
 -1      1017 3.34609E+01
 -1      1018 2.44954E+01
 -1      1019 3.04045E+01
 -1      1020 3.04045E+01
 -1      1021 3.11524E+01
 -1      1022 3.11524E+01
 -1      1023 3.11524E+01
 -1      1024 2.64602E+01
 -1      1025 2.17680E+01
 -1      1026 2.39027E+01
 -1      1027 2.88906E+01
 -1      1028 3.38784E+01
 -1      1029 3.38784E+01
 -1      1030 3.38784E+01
 -1      1031 3.36696E+01
 -1      1032 3.34609E+01
 -1      1033 3.34609E+01
 -1      1034 3.34609E+01
 -1      1035 2.85638E+01
 -1      1036 2.36667E+01
 -1      1037 2.16033E+01
 -1      1038 2.62912E+01
 -1      1039 3.09791E+01
 -1      1040 3.09791E+01
 -1      1041 3.09791E+01
 -1      1042 3.12821E+01
 -1      1043 3.12821E+01
 -1      1044 2.17858E+01
 -1      1045 2.39027E+01
 -1      1046 2.92697E+01
 -1      1047 3.34602E+01
 -1      1048 3.32514E+01
 -1      1049 2.91461E+01
 -1      1050 2.36667E+01
 -1      1051 2.16033E+01
 -1      1052 3.11794E+01
 -1      1053 3.11794E+01
 -1      1054 3.14118E+01
 -1      1055 3.14118E+01
 -1      1056 3.14118E+01
 -1      1057 2.66078E+01
 -1      1058 2.18037E+01
 -1      1059 2.14949E+01
 -1      1060 2.11862E+01
 -1      1061 2.39027E+01
 -1      1062 2.42819E+01
 -1      1063 2.46610E+01
 -1      1064 2.88515E+01
 -1      1065 3.30420E+01
 -1      1066 3.30420E+01
 -1      1067 3.30420E+01
 -1      1068 2.89366E+01
 -1      1069 2.48313E+01
 -1      1070 2.42490E+01
 -1      1071 2.36667E+01
 -1      1072 2.11747E+01
 -1      1073 2.13890E+01
 -1      1074 2.16033E+01
 -1      1075 2.64915E+01
 -1      1076 3.13797E+01
 -1      1077 3.13797E+01
 -1      1078 3.13797E+01
 -1      1079 3.14118E+01
 -1      1080 3.14118E+01
 -1      1081 2.18037E+01
 -1      1082 2.25582E+01
 -1      1083 2.39164E+01
 -1      1084 2.46610E+01
 -1      1085 2.88515E+01
 -1      1086 2.89366E+01
 -1      1087 2.48313E+01
 -1      1088 2.38026E+01
 -1      1089 2.25566E+01
 -1      1090 2.16380E+01
 -1      1091 3.13797E+01
 -1      1092 3.13797E+01
 -1      1093 3.14118E+01
 -1      1094 3.14118E+01
 -1      1095 3.14118E+01
 -1      1096 2.66078E+01
 -1      1097 2.18037E+01
 -1      1098 2.28669E+01
 -1      1099 2.39301E+01
 -1      1100 2.39301E+01
 -1      1101 2.39301E+01
 -1      1102 2.42956E+01
 -1      1103 2.46610E+01
 -1      1104 2.46610E+01
 -1      1105 2.46610E+01
 -1      1106 2.47461E+01
 -1      1107 2.48313E+01
 -1      1108 2.48313E+01
 -1      1109 2.48313E+01
 -1      1110 2.43849E+01
 -1      1111 2.39385E+01
 -1      1112 2.39385E+01
 -1      1113 2.39385E+01
 -1      1114 2.28056E+01
 -1      1115 2.16727E+01
 -1      1116 2.65262E+01
 -1      1117 3.13797E+01
 -1      1118 3.13797E+01
 -1      1119 3.13797E+01
 -1      1120 3.13685E+01
 -1      1121 3.13685E+01
 -1      1122 2.18396E+01
 -1      1123 2.39301E+01
 -1      1124 2.39301E+01
 -1      1125 2.39385E+01
 -1      1126 2.39385E+01
 -1      1127 2.17960E+01
 -1      1128 3.13467E+01
 -1      1129 3.13467E+01
 -1      1130 3.13252E+01
 -1      1131 3.13252E+01
 -1      1132 3.13252E+01
 -1      1133 2.66004E+01
 -1      1134 2.18756E+01
 -1      1135 2.29029E+01
 -1      1136 2.39301E+01
 -1      1137 2.39301E+01
 -1      1138 2.39301E+01
 -1      1139 2.23794E+01
 -1      1140 2.08287E+01
 -1      1141 2.08524E+01
 -1      1142 2.23954E+01
 -1      1143 2.39385E+01
 -1      1144 2.39385E+01
 -1      1145 2.39385E+01
 -1      1146 2.29289E+01
 -1      1147 2.19194E+01
 -1      1148 2.66166E+01
 -1      1149 3.13137E+01
 -1      1150 3.13137E+01
 -1      1151 3.13137E+01
 -1      1152 2.18756E+01
 -1      1153 2.29029E+01
 -1      1154 2.29061E+01
 -1      1155 2.13553E+01
 -1      1156 2.13817E+01
 -1      1157 2.29247E+01
 -1      1158 2.29289E+01
 -1      1159 2.19194E+01
 -1      1160 2.18756E+01
 -1      1161 2.18756E+01
 -1      1162 2.18756E+01
 -1      1163 2.18788E+01
 -1      1164 2.18820E+01
 -1      1165 2.18820E+01
 -1      1166 2.18820E+01
 -1      1167 2.19109E+01
 -1      1168 2.19109E+01
 -1      1169 2.19109E+01
 -1      1170 2.19151E+01
 -1      1171 2.19194E+01
 -1      1172 2.19194E+01
 -1      1173 2.19194E+01
 -1      1174 2.66004E+01
 -1      1175 2.66036E+01
 -1      1176 2.64511E+01
 -1      1177 2.64666E+01
 -1      1178 2.66204E+01
 -1      1179 2.66247E+01
 -1      1180 3.13252E+01
 -1      1181 3.13252E+01
 -1      1182 3.13252E+01
 -1      1183 3.11727E+01
 -1      1184 3.10202E+01
 -1      1185 3.03493E+01
 -1      1186 2.96784E+01
 -1      1187 2.96759E+01
 -1      1188 2.96733E+01
 -1      1189 3.03478E+01
 -1      1190 3.10223E+01
 -1      1191 3.11761E+01
 -1      1192 3.13299E+01
 -1      1193 3.13299E+01
 -1      1194 3.13299E+01
 -1      1195 3.13252E+01
 -1      1196 3.13252E+01
 -1      1197 3.10202E+01
 -1      1198 2.96784E+01
 -1      1199 2.96733E+01
 -1      1200 3.10223E+01
 -1      1201 3.13299E+01
 -1      1202 3.13299E+01
 -1      1203 3.13252E+01
 -1      1204 3.13252E+01
 -1      1205 3.13252E+01
 -1      1206 3.11727E+01
 -1      1207 3.10202E+01
 -1      1208 3.03493E+01
 -1      1209 2.96784E+01
 -1      1210 2.96759E+01
 -1      1211 2.96733E+01
 -1      1212 3.03478E+01
 -1      1213 3.10223E+01
 -1      1214 3.11761E+01
 -1      1215 3.13299E+01
 -1      1216 3.13299E+01
 -1      1217 3.13299E+01
 -1      1218 2.32230E+01
 -1      1219 2.37253E+01
 -1      1220 2.22381E+01
 -1      1221 2.10971E+01
 -1      1222 2.27299E+01
 -1      1223 2.32655E+01
 -1      1224 2.28818E+01
 -1      1225 2.39504E+01
 -1      1226 2.83429E+01
 -1      1227 2.83354E+01
 -1      1228 2.40702E+01
 -1      1229 2.38653E+01
 -1      1230 2.12598E+01
 -1      1231 2.83549E+01
 -1      1232 2.83549E+01
 -1      1233 2.83354E+01
 -1      1234 2.81386E+01
 -1      1235 2.24435E+01
 -1      1236 2.15030E+01
 -1      1237 2.83544E+01
 -1      1238 2.83544E+01
 -1      1239 2.81329E+01
 -1      1240 2.81329E+01
 -1      1241 2.13315E+01
 -1      1242 2.31267E+01
 -1      1243 2.37457E+01
 -1      1244 2.79362E+01
 -1      1245 2.79235E+01
 -1      1246 2.38181E+01
 -1      1247 2.30140E+01
 -1      1248 2.31404E+01
 -1      1249 2.35059E+01
 -1      1250 2.19106E+01
 -1      1251 2.20346E+01
 -1      1252 2.35963E+01
 -1      1253 2.31499E+01
 -1      1254 2.23813E+01
 -1      1255 2.23813E+01
 -1      1256 2.23813E+01
 -1      1257 2.08940E+01
 -1      1258 1.94067E+01
 -1      1259 1.92738E+01
 -1      1260 1.91409E+01
 -1      1261 2.07737E+01
 -1      1262 2.24065E+01
 -1      1263 2.24065E+01
 -1      1264 2.24065E+01
 -1      1265 2.23813E+01
 -1      1266 2.26063E+01
 -1      1267 2.11191E+01
 -1      1268 2.09786E+01
 -1      1269 2.26114E+01
 -1      1270 2.24065E+01
 -1      1271 2.23813E+01
 -1      1272 2.26063E+01
 -1      1273 2.28314E+01
 -1      1274 2.28314E+01
 -1      1275 2.28314E+01
 -1      1276 2.28239E+01
 -1      1277 2.28163E+01
 -1      1278 2.28163E+01
 -1      1279 2.28163E+01
 -1      1280 2.26114E+01
 -1      1281 2.24065E+01
 -1      1282 2.07592E+01
 -1      1283 2.28314E+01
 -1      1284 2.28314E+01
 -1      1285 2.28163E+01
 -1      1286 2.28163E+01
 -1      1287 2.09847E+01
 -1      1288 1.91372E+01
 -1      1289 2.09843E+01
 -1      1290 2.28314E+01
 -1      1291 2.28314E+01
 -1      1292 2.28314E+01
 -1      1293 2.28239E+01
 -1      1294 2.28163E+01
 -1      1295 2.28163E+01
 -1      1296 2.28163E+01
 -1      1297 2.11896E+01
 -1      1298 1.95630E+01
 -1      1299 1.91203E+01
 -1      1300 2.28309E+01
 -1      1301 2.28309E+01
 -1      1302 2.28107E+01
 -1      1303 2.28107E+01
 -1      1304 1.92796E+01
 -1      1305 1.91033E+01
 -1      1306 2.09669E+01
 -1      1307 2.28304E+01
 -1      1308 2.28304E+01
 -1      1309 2.28304E+01
 -1      1310 2.28177E+01
 -1      1311 2.28050E+01
 -1      1312 2.28050E+01
 -1      1313 2.28050E+01
 -1      1314 2.09006E+01
 -1      1315 1.89963E+01
 -1      1316 2.07270E+01
 -1      1317 2.28304E+01
 -1      1318 2.28304E+01
 -1      1319 2.28050E+01
 -1      1320 2.28050E+01
 -1      1321 2.06788E+01
 -1      1322 2.23507E+01
 -1      1323 2.25906E+01
 -1      1324 2.28304E+01
 -1      1325 2.28304E+01
 -1      1326 2.28304E+01
 -1      1327 2.28177E+01
 -1      1328 2.28050E+01
 -1      1329 2.28050E+01
 -1      1330 2.28050E+01
 -1      1331 2.25832E+01
 -1      1332 2.23613E+01
 -1      1333 2.23507E+01
 -1      1334 2.25906E+01
 -1      1335 2.09953E+01
 -1      1336 2.10215E+01
 -1      1337 2.25832E+01
 -1      1338 2.23613E+01
 -1      1339 2.23507E+01
 -1      1340 2.23507E+01
 -1      1341 2.23507E+01
 -1      1342 2.07555E+01
 -1      1343 1.91602E+01
 -1      1344 1.91990E+01
 -1      1345 1.92379E+01
 -1      1346 2.07996E+01
 -1      1347 2.23613E+01
 -1      1348 2.23613E+01
 -1      1349 2.23613E+01
 -1      1350 1.69561E+01
 -1      1351 1.69561E+01
 -1      1352 1.51277E+01
 -1      1353 1.47612E+01
 -1      1354 1.70252E+01
 -1      1355 1.70252E+01
 -1      1356 1.69561E+01
 -1      1357 1.71812E+01
 -1      1358 1.68401E+01
 -1      1359 1.65989E+01
 -1      1360 1.72301E+01
 -1      1361 1.70252E+01
 -1      1362 1.48210E+01
 -1      1363 1.66681E+01
 -1      1364 1.52046E+01
 -1      1365 1.52897E+01
 -1      1366 1.68876E+01
 -1      1367 1.52609E+01
 -1      1368 1.47672E+01
 -1      1369 1.66307E+01
 -1      1370 1.52002E+01
 -1      1371 1.52346E+01
 -1      1372 1.66945E+01
 -1      1373 1.47901E+01
 -1      1374 1.68921E+01
 -1      1375 1.71319E+01
 -1      1376 1.66979E+01
 -1      1377 1.68272E+01
 -1      1378 1.71038E+01
 -1      1379 1.68819E+01
 -1      1380 1.68921E+01
 -1      1381 1.68921E+01
 -1      1382 1.48628E+01
 -1      1383 1.50437E+01
 -1      1384 1.68819E+01
 -1      1385 1.68819E+01
 -1      1386 1.15310E+01
 -1      1387 1.15310E+01
 -1      1388 1.15310E+01
 -1      1389 1.11898E+01
 -1      1390 1.08487E+01
 -1      1391 1.06151E+01
 -1      1392 1.03815E+01
 -1      1393 1.10127E+01
 -1      1394 1.16440E+01
 -1      1395 1.16440E+01
 -1      1396 1.16440E+01
 -1      1397 1.15310E+01
 -1      1398 1.15310E+01
 -1      1399 1.08487E+01
 -1      1400 1.03815E+01
 -1      1401 1.16440E+01
 -1      1402 1.16440E+01
 -1      1403 1.15310E+01
 -1      1404 1.15310E+01
 -1      1405 1.15310E+01
 -1      1406 1.11898E+01
 -1      1407 1.08487E+01
 -1      1408 1.06151E+01
 -1      1409 1.03815E+01
 -1      1410 1.10127E+01
 -1      1411 1.16440E+01
 -1      1412 1.16440E+01
 -1      1413 1.16440E+01
 -1      1414 1.10178E+01
 -1      1415 1.10178E+01
 -1      1416 9.21322E+00
 -1      1417 9.07231E+00
 -1      1418 1.13014E+01
 -1      1419 1.13014E+01
 -1      1420 1.05047E+01
 -1      1421 1.05047E+01
 -1      1422 1.05047E+01
 -1      1423 9.04124E+00
 -1      1424 7.57776E+00
 -1      1425 7.67042E+00
 -1      1426 7.76308E+00
 -1      1427 9.36097E+00
 -1      1428 1.09589E+01
 -1      1429 1.09589E+01
 -1      1430 1.09589E+01
 -1      1431 1.04679E+01
 -1      1432 1.04679E+01
 -1      1433 7.57392E+00
 -1      1434 7.71357E+00
 -1      1435 1.07714E+01
 -1      1436 1.07714E+01
 -1      1437 1.04310E+01
 -1      1438 1.04310E+01
 -1      1439 1.04310E+01
 -1      1440 9.00056E+00
 -1      1441 7.57008E+00
 -1      1442 7.61707E+00
 -1      1443 7.66407E+00
 -1      1444 9.12403E+00
 -1      1445 1.05840E+01
 -1      1446 1.05840E+01
 -1      1447 1.05840E+01
 -1      1448 1.09322E+01
 -1      1449 1.09322E+01
 -1      1450 9.06771E+00
 -1      1451 9.25675E+00
 -1      1452 1.09933E+01
 -1      1453 1.09933E+01
 -1      1454 1.14334E+01
 -1      1455 1.14334E+01
 -1      1456 1.14334E+01
 -1      1457 1.09994E+01
 -1      1458 1.05653E+01
 -1      1459 1.07074E+01
 -1      1460 1.08494E+01
 -1      1461 1.11260E+01
 -1      1462 1.14026E+01
 -1      1463 1.14026E+01
 -1      1464 1.14026E+01
 -1      1465 1.14334E+01
 -1      1466 1.14334E+01
 -1      1467 1.05653E+01
 -1      1468 1.08494E+01
 -1      1469 1.14026E+01
 -1      1470 1.14026E+01
 -1      1471 1.14334E+01
 -1      1472 1.14334E+01
 -1      1473 1.14334E+01
 -1      1474 1.09994E+01
 -1      1475 1.05653E+01
 -1      1476 1.07074E+01
 -1      1477 1.08494E+01
 -1      1478 1.11260E+01
 -1      1479 1.14026E+01
 -1      1480 1.14026E+01
 -1      1481 1.14026E+01
 -3
    1PSTEP                         5           1           1          
    1PGM                1.000000E+00                                  
    1PGK                9.543967E+10                                  
    1PHID                         -1                                  
    1PSUBC                         0                                  
    1PMODE                         2                                  
  100CL  102 49168.23204        1481                     2    2MODAL      1
 -4  DISP        4    1
 -5  D1          1    2    1    0
 -5  D2          1    2    2    0
 -5  D3          1    2    3    0
 -5  ALL         1    2    0    0    1ALL
 -1         1 2.48640E+03-3.62916E+03 7.41015E+03
 -1         2 2.50593E+03-3.67682E+03 1.05722E+04
 -1         3 2.51625E+03-3.69589E+03 1.37353E+04
 -1         4 2.50754E+03-3.70163E+03 1.68846E+04
 -1         5 2.49516E+03-3.70494E+03 2.00161E+04
 -1         6 2.47834E+03-3.70220E+03 2.31256E+04
 -1         7 2.45634E+03-3.69301E+03 2.62031E+04
 -1         8 2.43158E+03-3.67409E+03 2.92409E+04
 -1         9 2.39892E+03-3.64477E+03 3.22337E+04
 -1        10 2.35418E+03-3.57387E+03 3.51452E+04
 -1        11 2.33606E+03-3.50349E+03 3.80195E+04
 -1        12 2.51349E+03-3.66023E+03 2.82834E+03
 -1        13 2.51278E+03-3.69595E+03 9.11685E+03
 -1        14 2.49632E+03-3.70303E+03 1.53876E+04
 -1        15 2.46042E+03-3.68938E+03 2.15896E+04
 -1        16 2.40951E+03-3.64244E+03 2.76842E+04
 -1        17 2.37223E+03-3.54516E+03 3.36405E+04
 -1        18 2.50625E+03-3.69179E+03-1.77052E+03
 -1        19 2.50740E+03-3.69208E+03 1.36336E+03
 -1        20 2.50653E+03-3.69837E+03 4.49571E+03
 -1        21 2.50390E+03-3.70292E+03 7.62932E+03
 -1        22 2.49755E+03-3.70388E+03 1.07580E+04
 -1        23 2.48673E+03-3.70004E+03 1.38761E+04
 -1        24 2.47317E+03-3.69052E+03 1.69794E+04
 -1        25 2.45702E+03-3.67456E+03 2.00616E+04
 -1        26 2.44202E+03-3.65174E+03 2.31235E+04
 -1        27 2.43430E+03-3.61934E+03 2.61746E+04
 -1        28 2.43773E+03-3.61041E+03 2.92154E+04
 -1        29 2.50081E+03-3.69580E+03-6.38787E+03
 -1        30 2.50241E+03-3.70189E+03-1.31692E+02
 -1        31 2.49813E+03-3.70687E+03 6.12389E+03
 -1        32 2.48391E+03-3.69755E+03 1.23588E+04
 -1        33 2.46418E+03-3.66907E+03 1.85473E+04
 -1        34 2.46648E+03-3.64409E+03 2.47039E+04
 -1        35 2.49711E+03-3.69244E+03-1.10041E+04
 -1        36 2.49657E+03-3.69533E+03-7.88456E+03
 -1        37 2.49716E+03-3.70166E+03-4.76229E+03
 -1        38 2.49770E+03-3.70658E+03-1.63922E+03
 -1        39 2.49787E+03-3.70943E+03 1.48527E+03
 -1        40 2.49548E+03-3.70880E+03 4.60885E+03
 -1        41 2.49145E+03-3.70461E+03 7.72889E+03
 -1        42 2.48587E+03-3.69673E+03 1.08422E+04
 -1        43 2.48031E+03-3.68543E+03 1.39486E+04
 -1        44 2.48021E+03-3.67186E+03 1.70466E+04
 -1        45 2.48392E+03-3.66701E+03 2.01498E+04
 -1        46 2.49078E+03-3.68307E+03-1.56128E+04
 -1        47 2.48924E+03-3.69534E+03-9.39003E+03
 -1        48 2.49532E+03-3.70848E+03-3.15518E+03
 -1        49 2.49616E+03-3.70879E+03 3.09098E+03
 -1        50 2.49148E+03-3.69651E+03 9.32992E+03
 -1        51 2.49360E+03-3.68518E+03 1.55593E+04
 -1        52 2.48005E+03-3.66564E+03-2.01996E+04
 -1        53 2.47673E+03-3.67057E+03-1.71014E+04
 -1        54 2.47743E+03-3.68482E+03-1.40075E+04
 -1        55 2.48375E+03-3.69672E+03-1.09044E+04
 -1        56 2.49029E+03-3.70499E+03-7.79315E+03
 -1        57 2.49524E+03-3.70941E+03-4.67401E+03
 -1        58 2.49842E+03-3.71029E+03-1.55021E+03
 -1        59 2.49886E+03-3.70776E+03 1.57541E+03
 -1        60 2.49883E+03-3.70327E+03 4.70031E+03
 -1        61 2.49843E+03-3.69749E+03 7.82489E+03
 -1        62 2.49903E+03-3.69473E+03 1.09467E+04
 -1        63 2.46129E+03-3.64343E+03-2.47514E+04
 -1        64 2.46056E+03-3.66944E+03-1.86060E+04
 -1        65 2.48255E+03-3.69867E+03-1.24241E+04
 -1        66 2.49847E+03-3.70815E+03-6.19021E+03
 -1        67 2.50360E+03-3.70366E+03 6.74950E+01
 -1        68 2.50204E+03-3.69814E+03 6.32688E+03
 -1        69 2.43182E+03-3.61085E+03-2.92612E+04
 -1        70 2.42897E+03-3.62061E+03-2.62278E+04
 -1        71 2.43765E+03-3.65352E+03-2.31836E+04
 -1        72 2.45434E+03-3.67635E+03-2.01263E+04
 -1        73 2.47179E+03-3.69225E+03-1.70466E+04
 -1        74 2.48626E+03-3.70174E+03-1.39443E+04
 -1        75 2.49783E+03-3.70555E+03-1.08262E+04
 -1        76 2.50461E+03-3.70458E+03-7.69678E+03
 -1        77 2.50738E+03-3.70009E+03-4.56213E+03
 -1        78 2.50826E+03-3.69402E+03-1.42883E+03
 -1        79 2.50706E+03-3.69397E+03 1.70606E+03
 -1        80 2.36351E+03-3.55352E+03-3.36866E+04
 -1        81 2.40477E+03-3.64510E+03-2.77479E+04
 -1        82 2.45909E+03-3.69170E+03-2.16594E+04
 -1        83 2.49668E+03-3.70488E+03-1.54581E+04
 -1        84 2.51348E+03-3.69764E+03-9.18526E+03
 -1        85 2.51361E+03-3.66049E+03-2.89558E+03
 -1        86 2.31356E+03-3.52087E+03-3.80692E+04
 -1        87 2.34118E+03-3.57849E+03-3.52060E+04
 -1        88 2.39475E+03-3.64807E+03-3.23015E+04
 -1        89 2.42903E+03-3.67751E+03-2.93121E+04
 -1        90 2.45491E+03-3.69579E+03-2.62764E+04
 -1        91 2.47809E+03-3.70455E+03-2.31991E+04
 -1        92 2.49551E+03-3.70692E+03-2.00889E+04
 -1        93 2.50827E+03-3.70335E+03-1.69564E+04
 -1        94 2.51708E+03-3.69755E+03-1.38058E+04
 -1        95 2.50497E+03-3.67802E+03-1.06416E+04
 -1        96 2.48331E+03-3.62725E+03-7.47920E+03
 -1        97 1.98869E+03-2.90493E+03 7.41008E+03
 -1        98 2.02190E+03-2.97076E+03 1.37356E+04
 -1        99 2.00542E+03-2.97866E+03 2.00168E+04
 -1       100 1.97646E+03-2.96903E+03 2.62042E+04
 -1       101 1.93400E+03-2.92959E+03 3.22360E+04
 -1       102 1.87708E+03-2.80520E+03 3.80192E+04
 -1       103 2.01452E+03-2.96910E+03-1.76985E+03
 -1       104 2.01527E+03-2.97319E+03 4.49607E+03
 -1       105 2.00729E+03-2.97734E+03 1.07586E+04
 -1       106 1.98774E+03-2.96690E+03 1.69805E+04
 -1       107 1.96254E+03-2.93529E+03 2.31254E+04
 -1       108 1.95954E+03-2.90816E+03 2.92179E+04
 -1       109 2.00763E+03-2.96859E+03-1.10044E+04
 -1       110 2.00719E+03-2.97505E+03-4.76256E+03
 -1       111 2.00781E+03-2.98162E+03 1.48539E+03
 -1       112 2.00252E+03-2.97768E+03 7.72957E+03
 -1       113 1.99410E+03-2.96197E+03 1.39495E+04
 -1       114 1.99691E+03-2.94963E+03 2.01507E+04
 -1       115 1.99383E+03-2.94859E+03-2.02005E+04
 -1       116 1.99179E+03-2.96153E+03-1.40084E+04
 -1       117 2.00160E+03-2.97797E+03-7.79384E+03
 -1       118 2.00825E+03-2.98231E+03-1.55035E+03
 -1       119 2.00852E+03-2.97632E+03 4.70058E+03
 -1       120 2.00919E+03-2.97036E+03 1.09470E+04
 -1       121 1.95467E+03-2.90846E+03-2.92636E+04
 -1       122 1.95915E+03-2.93659E+03-2.31855E+04
 -1       123 1.98658E+03-2.96829E+03-1.70476E+04
 -1       124 2.00750E+03-2.97866E+03-1.08268E+04
 -1       125 2.01597E+03-2.97461E+03-4.56250E+03
 -1       126 2.01513E+03-2.97085E+03 1.70537E+03
 -1       127 1.85497E+03-2.82321E+03-3.80689E+04
 -1       128 1.93083E+03-2.93235E+03-3.23040E+04
 -1       129 1.97532E+03-2.97124E+03-2.62776E+04
 -1       130 2.00568E+03-2.98026E+03-2.00896E+04
 -1       131 2.02259E+03-2.97205E+03-1.38060E+04
 -1       132 1.98524E+03-2.90245E+03-7.47914E+03
 -1       133 1.49134E+03-2.17768E+03 7.40994E+03
 -1       134 1.51641E+03-2.23452E+03 1.05702E+04
 -1       135 1.52866E+03-2.24617E+03 1.37358E+04
 -1       136 1.52325E+03-2.25015E+03 1.68853E+04
 -1       137 1.51581E+03-2.25224E+03 2.00173E+04
 -1       138 1.50680E+03-2.25012E+03 2.31268E+04
 -1       139 1.49591E+03-2.24451E+03 2.62050E+04
 -1       140 1.48039E+03-2.23444E+03 2.92426E+04
 -1       141 1.46827E+03-2.21609E+03 3.22379E+04
 -1       142 1.43178E+03-2.17142E+03 3.51487E+04
 -1       143 1.40998E+03-2.09753E+03 3.80184E+04
 -1       144 1.52775E+03-2.21703E+03 2.83216E+03
 -1       145 1.52596E+03-2.24548E+03 9.11742E+03
 -1       146 1.51723E+03-2.25083E+03 1.53888E+04
 -1       147 1.49537E+03-2.24255E+03 2.15919E+04
 -1       148 1.46623E+03-2.21242E+03 2.76871E+04
 -1       149 1.44116E+03-2.14908E+03 3.36467E+04
 -1       150 1.52273E+03-2.24738E+03-1.76926E+03
 -1       151 1.52353E+03-2.24325E+03 1.36393E+03
 -1       152 1.52376E+03-2.24794E+03 4.49635E+03
 -1       153 1.52186E+03-2.25052E+03 7.63015E+03
 -1       154 1.51730E+03-2.25097E+03 1.07591E+04
 -1       155 1.51114E+03-2.24892E+03 1.38776E+04
 -1       156 1.50262E+03-2.24327E+03 1.69813E+04
 -1       157 1.49360E+03-2.23304E+03 2.00644E+04
 -1       158 1.48357E+03-2.21913E+03 2.31268E+04
 -1       159 1.47871E+03-2.20079E+03 2.61776E+04
 -1       160 1.48278E+03-2.20600E+03 2.92201E+04
 -1       161 1.51977E+03-2.24635E+03-6.38792E+03
 -1       162 1.52102E+03-2.25012E+03-1.31481E+02
 -1       163 1.51779E+03-2.25259E+03 6.12461E+03
 -1       164 1.50934E+03-2.24682E+03 1.23603E+04
 -1       165 1.49725E+03-2.23050E+03 1.85500E+04
 -1       166 1.50048E+03-2.21701E+03 2.47056E+04
 -1       167 1.51820E+03-2.24462E+03-1.10046E+04
 -1       168 1.51751E+03-2.24597E+03-7.88488E+03
 -1       169 1.51744E+03-2.24884E+03-4.76278E+03
 -1       170 1.51783E+03-2.25206E+03-1.63940E+03
 -1       171 1.51792E+03-2.25409E+03 1.48549E+03
 -1       172 1.51636E+03-2.25365E+03 4.60951E+03
 -1       173 1.51383E+03-2.25106E+03 7.73008E+03
 -1       174 1.51052E+03-2.24618E+03 1.08436E+04
 -1       175 1.50780E+03-2.23898E+03 1.39501E+04
 -1       176 1.50749E+03-2.23174E+03 1.70487E+04
 -1       177 1.50944E+03-2.23155E+03 2.01514E+04
 -1       178 1.51384E+03-2.23916E+03-1.56136E+04
 -1       179 1.51299E+03-2.24557E+03-9.39107E+03
 -1       180 1.51627E+03-2.25344E+03-3.15564E+03
 -1       181 1.51677E+03-2.25363E+03 3.09141E+03
 -1       182 1.51434E+03-2.24626E+03 9.33096E+03
 -1       183 1.51553E+03-2.24021E+03 1.55602E+04
 -1       184 1.50711E+03-2.23084E+03-2.02012E+04
 -1       185 1.50543E+03-2.23092E+03-1.71034E+04
 -1       186 1.50607E+03-2.23869E+03-1.40091E+04
 -1       187 1.50922E+03-2.24620E+03-1.09058E+04
 -1       188 1.51314E+03-2.25127E+03-7.79436E+03
 -1       189 1.51622E+03-2.25401E+03-4.67468E+03
 -1       190 1.51825E+03-2.25461E+03-1.55045E+03
 -1       191 1.51852E+03-2.25276E+03 1.57558E+03
 -1       192 1.51843E+03-2.24978E+03 4.70079E+03
 -1       193 1.51866E+03-2.24728E+03 7.82520E+03
 -1       194 1.51937E+03-2.24591E+03 1.09472E+04
 -1       195 1.49731E+03-2.21676E+03-2.47530E+04
 -1       196 1.49514E+03-2.23060E+03-1.86087E+04
 -1       197 1.50848E+03-2.24751E+03-1.24256E+04
 -1       198 1.51797E+03-2.25335E+03-6.19095E+03
 -1       199 1.52174E+03-2.25123E+03 6.72724E+01
 -1       200 1.52051E+03-2.24768E+03 6.32693E+03
 -1       201 1.47907E+03-2.20581E+03-2.92656E+04
 -1       202 1.47524E+03-2.20183E+03-2.62307E+04
 -1       203 1.48106E+03-2.22005E+03-2.31870E+04
 -1       204 1.49211E+03-2.23403E+03-2.01291E+04
 -1       205 1.50171E+03-2.24431E+03-1.70484E+04
 -1       206 1.51083E+03-2.24995E+03-1.39459E+04
 -1       207 1.51743E+03-2.25197E+03-1.08273E+04
 -1       208 1.52232E+03-2.25154E+03-7.69763E+03
 -1       209 1.52430E+03-2.24902E+03-4.56279E+03
 -1       210 1.52400E+03-2.24436E+03-1.42942E+03
 -1       211 1.52318E+03-2.24880E+03 1.70475E+03
 -1       212 1.43582E+03-2.15678E+03-3.36918E+04
 -1       213 1.46313E+03-2.21424E+03-2.77509E+04
 -1       214 1.49463E+03-2.24391E+03-2.16618E+04
 -1       215 1.51745E+03-2.25197E+03-1.54593E+04
 -1       216 1.52631E+03-2.24645E+03-9.18582E+03
 -1       217 1.52780E+03-2.21658E+03-2.89965E+03
 -1       218 1.38770E+03-2.11660E+03-3.80681E+04
 -1       219 1.42140E+03-2.17427E+03-3.52106E+04
 -1       220 1.46643E+03-2.21822E+03-3.23060E+04
 -1       221 1.47876E+03-2.23655E+03-2.93139E+04
 -1       222 1.49502E+03-2.24619E+03-2.62784E+04
 -1       223 1.50650E+03-2.25152E+03-2.32003E+04
 -1       224 1.51600E+03-2.25345E+03-2.00901E+04
 -1       225 1.52365E+03-2.25119E+03-1.69571E+04
 -1       226 1.52929E+03-2.24714E+03-1.38062E+04
 -1       227 1.51521E+03-2.23524E+03-1.06394E+04
 -1       228 1.48741E+03-2.17451E+03-7.47900E+03
 -1       229 9.91908E+02-1.42343E+03 7.40823E+03
 -1       230 1.03594E+03-1.52015E+03 1.37364E+04
 -1       231 1.02634E+03-1.52423E+03 2.00180E+04
 -1       232 1.01227E+03-1.51717E+03 2.62041E+04
 -1       233 9.96168E+02-1.49811E+03 3.22379E+04
 -1       234 8.85681E+02-1.31918E+03 3.80095E+04
 -1       235 1.03116E+03-1.52355E+03-1.77003E+03
 -1       236 1.03275E+03-1.52560E+03 4.49721E+03
 -1       237 1.02781E+03-1.52474E+03 1.07596E+04
 -1       238 1.01697E+03-1.51897E+03 1.69815E+04
 -1       239 1.01000E+03-1.50996E+03 2.31313E+04
 -1       240 1.00207E+03-1.49669E+03 2.92195E+04
 -1       241 1.02806E+03-1.51949E+03-1.10059E+04
 -1       242 1.02805E+03-1.52296E+03-4.76319E+03
 -1       243 1.02817E+03-1.52675E+03 1.48554E+03
 -1       244 1.02523E+03-1.52460E+03 7.73036E+03
 -1       245 1.02087E+03-1.51554E+03 1.39502E+04
 -1       246 1.02021E+03-1.50982E+03 2.01498E+04
 -1       247 1.01819E+03-1.50966E+03-2.01997E+04
 -1       248 1.01962E+03-1.51544E+03-1.40091E+04
 -1       249 1.02477E+03-1.52473E+03-7.79465E+03
 -1       250 1.02839E+03-1.52711E+03-1.55051E+03
 -1       251 1.02868E+03-1.52359E+03 4.70120E+03
 -1       252 1.02871E+03-1.52033E+03 1.09486E+04
 -1       253 9.99324E+02-1.49627E+03-2.92653E+04
 -1       254 1.00902E+03-1.50992E+03-2.31914E+04
 -1       255 1.01624E+03-1.51975E+03-1.70486E+04
 -1       256 1.02789E+03-1.52537E+03-1.08278E+04
 -1       257 1.03328E+03-1.52649E+03-4.56365E+03
 -1       258 1.03142E+03-1.52457E+03 1.70557E+03
 -1       259 8.57529E+02-1.34417E+03-3.80592E+04
 -1       260 9.95266E+02-1.49981E+03-3.23058E+04
 -1       261 1.01133E+03-1.51871E+03-2.62773E+04
 -1       262 1.02644E+03-1.52491E+03-2.00909E+04
 -1       263 1.03643E+03-1.52078E+03-1.38069E+04
 -1       264 9.86249E+02-1.41835E+03-7.47729E+03
 -1       265 0.00000E+00 0.00000E+00 0.00000E+00
 -1       266 0.00000E+00 0.00000E+00 0.00000E+00
 -1       267 0.00000E+00 0.00000E+00 0.00000E+00
 -1       268 0.00000E+00 0.00000E+00 0.00000E+00
 -1       269 0.00000E+00 0.00000E+00 0.00000E+00
 -1       270 0.00000E+00 0.00000E+00 0.00000E+00
 -1       271 0.00000E+00 0.00000E+00 0.00000E+00
 -1       272 0.00000E+00 0.00000E+00 0.00000E+00
 -1       273 0.00000E+00 0.00000E+00 0.00000E+00
 -1       274 0.00000E+00 0.00000E+00 0.00000E+00
 -1       275 0.00000E+00 0.00000E+00 0.00000E+00
 -1       276 0.00000E+00 0.00000E+00 0.00000E+00
 -1       277 0.00000E+00 0.00000E+00 0.00000E+00
 -1       278 0.00000E+00 0.00000E+00 0.00000E+00
 -1       279 0.00000E+00 0.00000E+00 0.00000E+00
 -1       280 1.99673E+01 8.68152E+01 2.32923E+02
 -1       281 9.95257E-02 1.11024E+02 3.32928E+02
 -1       282-3.55454E+00 1.03514E+02 3.19456E+02
 -1       283 8.73096E+00 1.08658E+02 3.57845E+02
 -1       284 5.96405E+01 2.47030E+02 7.15728E+02
 -1       285 2.19303E+01 3.83602E+02 1.12865E+03
 -1       286 1.11830E+00 4.24907E+02 1.27960E+03
 -1       287-6.41051E+01 3.60481E+02 9.75103E+02
 -1       288 4.41261E+01 1.76226E+02 9.93546E+02
 -1       289 2.38088E+01 1.98748E+02 1.19220E+03
 -1       290 6.79198E+00 2.08122E+02 1.28456E+03
 -1       291-3.31188E+00 2.12135E+02 1.27755E+03
 -1       292-1.94154E+01 2.03101E+02 1.22121E+03
 -1       293 3.35074E+00 1.89334E+02 1.16697E+03
 -1       294 3.90556E+01 1.88363E+02 1.23298E+03
 -1       295 1.25221E+02 3.12084E+02 1.86192E+03
 -1       296 1.92721E+02 5.05939E+02 2.86934E+03
 -1       297 1.32419E+02 6.45527E+02 3.81664E+03
 -1       298 8.00709E+01 7.42704E+02 4.46048E+03
 -1       299 4.00329E+01 7.95561E+02 4.79008E+03
 -1       300-7.08520E+00 8.07335E+02 4.91422E+03
 -1       301-6.54063E+01 7.83468E+02 4.69340E+03
 -1       302-1.34019E+02 7.25014E+02 4.11764E+03
 -1       303 8.03005E+01 1.98260E+02 2.08824E+03
 -1       304 1.88179E+01 2.74665E+02 2.67386E+03
 -1       305-3.33838E+01 2.51420E+02 2.53984E+03
 -1       306-2.16446E+00 2.03558E+02 2.34186E+03
 -1       307 3.02273E+02 8.09619E+02 6.79345E+03
 -1       308 1.61527E+02 1.00945E+03 9.53141E+03
 -1       309-2.92060E+01 1.03125E+03 1.02583E+04
 -1       310-2.19741E+02 8.84416E+02 8.81007E+03
 -1       311 1.50832E+02 1.09260E+02 1.47376E+03
 -1       312 1.54795E+02 1.30846E+02 2.36286E+03
 -1       313 1.49170E+02 1.86031E+02 3.19627E+03
 -1       314 1.08043E+02 2.64196E+02 3.96134E+03
 -1       315 5.26907E+01 3.46521E+02 4.45118E+03
 -1       316-2.81928E+01 3.19602E+02 4.41453E+03
 -1       317-6.95067E+01 2.80041E+02 4.08858E+03
 -1       318-4.25341E+01 2.48243E+02 3.76620E+03
 -1       319-2.55344E+01 2.14988E+02 3.54633E+03
 -1       320 4.24032E+02 1.00731E+03 1.20575E+04
 -1       321 3.44477E+02 1.12574E+03 1.43516E+04
 -1       322 2.24995E+02 1.27579E+03 1.61402E+04
 -1       323 5.53044E+01 1.28001E+03 1.69261E+04
 -1       324-8.70636E+01 1.22195E+03 1.68070E+04
 -1       325-2.29197E+02 1.10355E+03 1.59037E+04
 -1       326-3.54446E+02 9.71419E+02 1.41891E+04
 -1       327-5.25085E+02 7.93961E+02 1.17081E+04
 -1       328-6.30016E+02 6.79343E+02 8.34020E+03
 -1       329 1.70782E+02 6.20048E+01 1.97513E+03
 -1       330 1.97406E+02 1.27410E+02 4.12685E+03
 -1       331 2.25517E+02 3.39800E+02 6.61340E+03
 -1       332 1.73275E+02 1.45002E+03 2.41694E+04
 -1       333-2.32425E+02 1.27618E+03 2.40837E+04
 -1       334-5.44699E+02 9.05414E+02 1.96490E+04
 -1       335-7.68983E+02 5.41403E+02 1.18684E+04
 -1       336 0.00000E+00 0.00000E+00 0.00000E+00
 -1       337 5.01586E+01 4.76029E+00 1.38619E+02
 -1       338 1.00803E+02 6.42723E+00 5.81588E+02
 -1       339 1.39377E+02 1.46110E+00 1.27853E+03
 -1       340 1.77257E+02 3.33896E+00 2.19761E+03
 -1       341 2.11175E+02 2.77304E+01 3.31303E+03
 -1       342 2.56007E+02 6.04997E+01 4.68937E+03
 -1       343 3.35349E+02 1.34469E+02 6.35428E+03
 -1       344 4.02692E+02 2.90109E+02 8.48914E+03
 -1       345 1.06435E+02 1.57392E+03 3.30042E+04
 -1       346-9.80648E+01 1.47444E+03 3.30505E+04
 -1       347-4.23009E+02 1.31001E+03 3.16330E+04
 -1       348-5.90996E+02 1.06271E+03 2.85621E+04
 -1       349-8.00740E+02 8.11254E+02 2.46704E+04
 -1       350-8.69101E+02 5.64748E+02 1.97489E+04
 -1       351-9.47585E+02 3.65720E+02 1.44594E+04
 -1       352-9.00365E+02 1.88871E+02 9.11592E+03
 -1       353-7.52672E+02 1.25407E+02 4.26717E+03
 -1       354-3.71486E+02 6.32389E+01 1.00531E+03
 -1       355 0.00000E+00 0.00000E+00 0.00000E+00
 -1       356 0.00000E+00 0.00000E+00 0.00000E+00
 -1       357 9.79341E+01-5.16520E+00 5.79749E+02
 -1       358 1.70191E+02-1.71002E+01 2.14476E+03
 -1       359 2.66780E+02-6.77190E+01 4.63000E+03
 -1       360 5.13794E+02-1.05622E+02 9.16965E+03
 -1       361-3.86027E+02 5.46085E+02 3.70790E+04
 -1       362-1.00913E+03 6.56834E+02 2.87540E+04
 -1       363-1.13891E+03 2.25465E+02 1.61742E+04
 -1       364-7.91828E+02 4.10023E+01 4.74474E+03
 -1       365 0.00000E+00 0.00000E+00 0.00000E+00
 -1       366 0.00000E+00 0.00000E+00 0.00000E+00
 -1       367 4.53803E+01-2.75993E+00 1.37235E+02
 -1       368 8.79281E+01-1.26233E+01 5.31176E+02
 -1       369 1.24770E+02-2.70098E+01 1.15147E+03
 -1       370 1.57810E+02-5.08468E+01 1.96458E+03
 -1       371 1.77631E+02-7.56849E+01 2.93632E+03
 -1       372 1.93582E+02-1.29600E+02 4.07784E+03
 -1       373 3.06803E+02-3.32206E+02 5.29640E+03
 -1       374 4.94050E+02-6.65856E+02 7.40790E+03
 -1       375 5.32713E+02-7.88945E+02 1.05665E+04
 -1       376 5.43335E+02-7.95046E+02 1.37367E+04
 -1       377 5.41765E+02-8.03009E+02 1.68854E+04
 -1       378 5.37358E+02-7.96253E+02 2.00186E+04
 -1       379 5.33384E+02-7.96098E+02 2.31270E+04
 -1       380 5.27405E+02-7.88830E+02 2.62034E+04
 -1       381 5.30393E+02-8.02670E+02 2.92455E+04
 -1       382 5.27157E+02-7.83950E+02 3.22360E+04
 -1       383 4.96827E+02-7.59958E+02 3.51576E+04
 -1       384 3.49284E+02-5.27884E+02 3.80077E+04
 -1       385-4.68126E+02 3.73704E+02 3.71281E+04
 -1       386-1.16534E+03 6.60724E+02 3.26808E+04
 -1       387-1.32298E+03 3.95475E+02 2.50765E+04
 -1       388-1.34372E+03 2.20895E+01 1.69941E+04
 -1       389-1.05431E+03-3.41727E+01 1.01027E+04
 -1       390-7.81070E+02-2.79698E+01 4.79196E+03
 -1       391-4.15894E+02-9.49169E+00 1.23952E+03
 -1       392 0.00000E+00 0.00000E+00 0.00000E+00
 -1       393 0.00000E+00 0.00000E+00 0.00000E+00
 -1       394 7.17897E+01-2.12524E+01 4.34635E+02
 -1       395 1.32391E+02-7.06137E+01 1.62184E+03
 -1       396 1.73445E+02-1.13470E+02 3.40524E+03
 -1       397 5.41933E+02-7.75451E+02 2.84044E+03
 -1       398 5.38701E+02-7.88404E+02 9.11773E+03
 -1       399 5.38229E+02-7.98317E+02 1.53892E+04
 -1       400 5.31611E+02-7.96612E+02 2.15940E+04
 -1       401 5.11147E+02-7.67654E+02 2.76827E+04
 -1       402 5.02582E+02-7.43874E+02 3.36611E+04
 -1       403-1.25887E+03-2.32280E+02 1.61682E+04
 -1       404-7.28035E+02-1.11870E+02 4.35359E+03
 -1       405 0.00000E+00 0.00000E+00 0.00000E+00
 -1       406 0.00000E+00 0.00000E+00 0.00000E+00
 -1       407 2.49404E+01-1.14113E+01 6.28110E+01
 -1       408 4.44182E+01-3.05278E+01 2.75471E+02
 -1       409 7.51765E+01-6.45276E+01 6.23566E+02
 -1       410 1.14020E+02-8.75646E+01 1.14854E+03
 -1       411 1.37668E+02-9.90259E+01 1.91702E+03
 -1       412 1.51006E+02-1.01609E+02 2.76777E+03
 -1       413 5.39062E+02-8.01195E+02-1.77120E+03
 -1       414 5.38040E+02-7.88781E+02 1.36167E+03
 -1       415 5.41824E+02-8.02953E+02 4.49806E+03
 -1       416 5.40597E+02-7.99550E+02 7.63127E+03
 -1       417 5.38273E+02-7.98564E+02 1.07599E+04
 -1       418 5.35243E+02-7.96659E+02 1.38777E+04
 -1       419 5.31794E+02-7.95014E+02 1.69813E+04
 -1       420 5.32140E+02-7.93921E+02 2.00669E+04
 -1       421 5.35514E+02-7.99705E+02 2.31357E+04
 -1       422 5.12313E+02-7.67295E+02 2.61721E+04
 -1       423 5.24951E+02-7.91221E+02 2.92168E+04
 -1       424-1.18124E+03-4.01026E+02 1.42688E+04
 -1       425-9.54210E+02-2.94602E+02 8.06745E+03
 -1       426-6.02361E+02-2.16409E+02 3.43277E+03
 -1       427-2.94818E+02-7.05311E+01 8.44434E+02
 -1       428 0.00000E+00 0.00000E+00 0.00000E+00
 -1       429 0.00000E+00 0.00000E+00 0.00000E+00
 -1       430 1.04056E+01-6.19400E+01 1.32096E+01
 -1       431 7.99162E+01-1.11735E+02 5.65882E+02
 -1       432 5.40480E+02-8.00802E+02-6.38678E+03
 -1       433 5.40215E+02-8.00069E+02-1.31729E+02
 -1       434 5.38177E+02-7.99064E+02 6.12501E+03
 -1       435 5.35640E+02-7.97100E+02 1.23612E+04
 -1       436 5.32144E+02-7.94684E+02 1.85520E+04
 -1       437 5.39766E+02-7.94048E+02 2.47091E+04
 -1       438-3.45988E+02-1.93558E+02 2.07169E+03
 -1       439 0.00000E+00 0.00000E+00 0.00000E+00
 -1       440 0.00000E+00 0.00000E+00 0.00000E+00
 -1       441-3.88411E+01-2.82926E+01-1.57631E+02
 -1       442-4.32146E+01-1.05124E+02-4.22490E+02
 -1       443 2.68052E+01-1.11876E+02-4.10870E+02
 -1       444 7.32045E+01-1.26387E+02-1.23406E+02
 -1       445 5.38360E+02-7.94403E+02-1.10068E+04
 -1       446 5.37812E+02-7.97237E+02-7.88449E+03
 -1       447 5.38595E+02-7.97237E+02-4.76361E+03
 -1       448 5.38368E+02-7.98715E+02-1.63950E+03
 -1       449 5.38598E+02-7.99591E+02 1.48557E+03
 -1       450 5.37824E+02-7.99429E+02 4.60991E+03
 -1       451 5.36604E+02-7.98189E+02 7.73053E+03
 -1       452 5.35989E+02-7.96888E+02 1.08443E+04
 -1       453 5.34259E+02-7.92608E+02 1.39499E+04
 -1       454 5.35741E+02-7.93241E+02 1.70508E+04
 -1       455 5.29906E+02-7.86959E+02 2.01485E+04
 -1       456-1.39350E+02-1.47337E+02 9.24221E+02
 -1       457-8.25387E+01-3.83642E+01 2.75464E+02
 -1       458 0.00000E+00 0.00000E+00 0.00000E+00
 -1       459 0.00000E+00 0.00000E+00 0.00000E+00
 -1       460-2.32156E+02-1.68954E+02-1.38815E+03
 -1       461 5.35617E+02-7.92451E+02-1.56137E+04
 -1       462 5.35981E+02-7.95292E+02-9.39115E+03
 -1       463 5.37861E+02-7.99259E+02-3.15591E+03
 -1       464 5.38019E+02-7.99347E+02 3.09168E+03
 -1       465 5.36529E+02-7.95423E+02 9.33104E+03
 -1       466 5.36322E+02-7.92548E+02 1.55603E+04
 -1       467-3.94474E+01-8.92837E+01 2.80445E+02
 -1       468 0.00000E+00 0.00000E+00 0.00000E+00
 -1       469 0.00000E+00 0.00000E+00 0.00000E+00
 -1       470-2.24884E+02-6.44730E+01-6.39039E+02
 -1       471-4.70449E+02-2.12245E+02-2.62098E+03
 -1       472-7.77545E+02-3.19838E+02-6.35821E+03
 -1       473-9.78172E+02-4.39427E+02-1.14438E+04
 -1       474 5.28182E+02-7.87350E+02-2.01986E+04
 -1       475 5.35184E+02-7.92739E+02-1.71055E+04
 -1       476 5.33502E+02-7.92707E+02-1.40088E+04
 -1       477 5.35482E+02-7.96938E+02-1.09065E+04
 -1       478 5.36381E+02-7.98237E+02-7.79482E+03
 -1       479 5.37793E+02-7.99539E+02-4.67509E+03
 -1       480 5.38728E+02-7.99789E+02-1.55055E+03
 -1       481 5.38575E+02-7.98971E+02 1.57568E+03
 -1       482 5.38854E+02-7.97562E+02 4.70162E+03
 -1       483 5.38344E+02-7.97680E+02 7.82478E+03
 -1       484 5.38490E+02-7.94809E+02 1.09496E+04
 -1       485 9.18725E+01-6.32841E+01-8.98000E+02
 -1       486 6.72293E+01-5.11294E+01-4.41698E+02
 -1       487 3.04745E+01-3.83915E+01-1.37847E+02
 -1       488 1.26499E+01-1.39147E+01-1.47384E+01
 -1       489 0.00000E+00 0.00000E+00 0.00000E+00
 -1       490 0.00000E+00 0.00000E+00 0.00000E+00
 -1       491-6.19216E+02-1.44818E+02-3.64777E+03
 -1       492-1.09170E+03-3.61887E+02-1.38287E+04
 -1       493 5.39610E+02-7.93081E+02-2.47562E+04
 -1       494 5.31674E+02-7.94315E+02-1.86109E+04
 -1       495 5.35297E+02-7.97389E+02-1.24265E+04
 -1       496 5.38249E+02-7.99299E+02-6.19138E+03
 -1       497 5.40513E+02-8.00587E+02 6.75509E+01
 -1       498 5.40910E+02-8.01497E+02 6.32575E+03
 -1       499 1.02836E+02-6.16232E+01-1.26517E+03
 -1       500 5.55281E+01-2.66173E+01-3.21055E+02
 -1       501 0.00000E+00 0.00000E+00 0.00000E+00
 -1       502 0.00000E+00 0.00000E+00 0.00000E+00
 -1       503-3.74166E+02-2.51317E+01-1.09913E+03
 -1       504-7.23096E+02-8.80580E+01-4.34692E+03
 -1       505-9.83030E+02-1.77016E+02-9.28652E+03
 -1       506-1.24353E+03-2.44937E+02-1.57186E+04
 -1       507-1.40673E+03-2.02336E+02-2.35318E+04
 -1       508-1.52379E+03-1.36835E+02-3.20988E+04
 -1       509 5.23286E+02-7.90275E+02-2.92629E+04
 -1       510 5.09037E+02-7.69348E+02-2.62256E+04
 -1       511 5.35979E+02-7.98777E+02-2.31958E+04
 -1       512 5.32059E+02-7.94003E+02-2.01315E+04
 -1       513 5.31256E+02-7.95522E+02-1.70485E+04
 -1       514 5.35007E+02-7.97091E+02-1.39460E+04
 -1       515 5.38310E+02-7.98832E+02-1.08281E+04
 -1       516 5.40886E+02-7.99950E+02-7.69880E+03
 -1       517 5.42329E+02-8.03634E+02-4.56450E+03
 -1       518 5.37723E+02-7.88792E+02-1.42707E+03
 -1       519 5.39160E+02-8.01877E+02 1.70680E+03
 -1       520 1.49927E+02-7.74167E+01-3.30356E+03
 -1       521 1.43020E+02-7.28943E+01-2.44200E+03
 -1       522 1.30583E+02-5.80789E+01-1.61905E+03
 -1       523 1.01962E+02-3.90925E+01-9.61423E+02
 -1       524 7.39816E+01-1.88582E+01-4.49300E+02
 -1       525 3.85923E+01-5.77348E+00-1.16093E+02
 -1       526 0.00000E+00 0.00000E+00 0.00000E+00
 -1       527 0.00000E+00 0.00000E+00 0.00000E+00
 -1       528-7.84696E+02-4.84999E+01-4.72852E+03
 -1       529-1.25413E+03-8.49430E+01-1.66545E+04
 -1       530-1.43277E+03 4.79747E+01-3.23800E+04
 -1       531 4.99931E+02-7.49539E+02-3.37041E+04
 -1       532 5.08272E+02-7.70140E+02-2.77460E+04
 -1       533 5.31567E+02-7.96949E+02-2.16639E+04
 -1       534 5.38290E+02-7.98841E+02-1.54596E+04
 -1       535 5.38425E+02-7.88271E+02-9.18624E+03
 -1       536 5.41816E+02-7.74659E+02-2.90844E+03
 -1       537 1.71587E+02-9.38532E+01-3.81132E+03
 -1       538 1.47347E+02-5.38398E+01-1.95384E+03
 -1       539 9.14762E+01-1.45956E+01-5.49717E+02
 -1       540 0.00000E+00 0.00000E+00 0.00000E+00
 -1       541 0.00000E+00 0.00000E+00 0.00000E+00
 -1       542-4.23844E+02-3.44458E+00-1.27767E+03
 -1       543-8.04955E+02-2.58701E+00-4.90235E+03
 -1       544-1.02485E+03 9.16938E+00-1.02241E+04
 -1       545-1.21064E+03 5.14182E+01-1.67216E+04
 -1       546-1.25470E+03 1.81057E+02-2.39010E+04
 -1       547-1.27243E+03 3.42235E+02-3.13130E+04
 -1       548-5.78547E+02 2.16062E+02-3.65979E+04
 -1       549 3.14832E+02-5.59063E+02-3.80573E+04
 -1       550 4.90340E+02-7.61490E+02-3.52217E+04
 -1       551 5.27502E+02-7.85139E+02-3.23035E+04
 -1       552 5.30700E+02-8.02570E+02-2.93172E+04
 -1       553 5.26403E+02-7.90232E+02-2.62764E+04
 -1       554 5.33016E+02-7.96678E+02-2.32005E+04
 -1       555 5.37387E+02-7.96413E+02-2.00916E+04
 -1       556 5.42165E+02-8.03552E+02-1.69572E+04
 -1       557 5.43740E+02-7.95351E+02-1.38072E+04
 -1       558 5.31564E+02-7.89036E+02-1.06351E+04
 -1       559 4.86577E+02-6.58795E+02-7.47697E+03
 -1       560 2.82971E+02-3.35260E+02-5.47938E+03
 -1       561 1.84145E+02-1.18282E+02-4.38415E+03
 -1       562 1.81831E+02-6.58321E+01-3.25253E+03
 -1       563 1.71922E+02-4.39927E+01-2.22931E+03
 -1       564 1.39542E+02-2.25080E+01-1.32844E+03
 -1       565 1.02913E+02-1.02252E+01-6.21619E+02
 -1       566 5.36084E+01-2.43689E+00-1.60219E+02
 -1       567 0.00000E+00 0.00000E+00 0.00000E+00
 -1       568 0.00000E+00 0.00000E+00 0.00000E+00
 -1       569-7.90803E+02 5.33981E+01-4.74445E+03
 -1       570-1.10515E+03 1.96926E+02-1.60048E+04
 -1       571-1.06933E+03 5.15684E+02-2.86922E+04
 -1       572-4.30346E+02 4.46937E+02-3.76306E+04
 -1       573 4.67108E+02-8.42489E+01-9.12192E+03
 -1       574 2.59426E+02-6.38864E+01-4.89423E+03
 -1       575 1.82047E+02-1.32738E+01-2.37728E+03
 -1       576 1.11125E+02-4.14586E+00-6.61524E+02
 -1       577 0.00000E+00 0.00000E+00 0.00000E+00
 -1       578 0.00000E+00 0.00000E+00 0.00000E+00
 -1       579-3.70996E+02 6.01099E+01-1.01253E+03
 -1       580-7.42614E+02 1.21713E+02-4.24259E+03
 -1       581-8.98998E+02 1.93340E+02-9.03393E+03
 -1       582-9.82526E+02 3.18497E+02-1.45000E+04
 -1       583-9.15255E+02 5.09390E+02-2.00142E+04
 -1       584-8.28987E+02 7.65134E+02-2.51017E+04
 -1       585-6.43520E+02 1.01338E+03-2.92480E+04
 -1       586-5.31755E+02 1.24963E+03-3.27968E+04
 -1       587-2.85069E+02 1.46868E+03-3.51109E+04
 -1       588-1.27260E+02 1.57565E+03-3.63094E+04
 -1       589 1.02817E+02 4.54659E+02-1.04196E+04
 -1       590 1.80947E+02 3.96728E+02-9.58869E+03
 -1       591 3.00974E+02 3.08263E+02-8.25306E+03
 -1       592 2.98023E+02 1.49693E+02-6.48195E+03
 -1       593 2.50557E+02 6.54003E+01-4.91607E+03
 -1       594 2.11766E+02 3.09133E+01-3.56511E+03
 -1       595 1.86070E+02 2.76996E+00-2.42356E+03
 -1       596 1.52044E+02 5.06489E-01-1.43531E+03
 -1       597 1.14188E+02 7.14319E+00-6.58960E+02
 -1       598 5.69810E+01 5.06138E+00-1.59670E+02
 -1       599 0.00000E+00 0.00000E+00 0.00000E+00
 -1       600-7.98397E+02 5.01283E+02-1.21841E+04
 -1       601-5.65157E+02 8.86120E+02-2.02790E+04
 -1       602-3.22308E+02 1.30101E+03-2.53002E+04
 -1       603-4.07955E+01 1.55333E+03-2.71711E+04
 -1       604 7.06186E+01 4.43680E+02-7.80266E+03
 -1       605 1.76112E+02 3.22131E+02-6.45694E+03
 -1       606 1.84112E+02 1.42987E+02-4.30809E+03
 -1       607 1.72692E+02 6.08867E+01-2.20758E+03
 -1       608-6.56323E+02 6.33260E+02-8.90265E+03
 -1       609-5.31251E+02 7.80555E+02-1.23347E+04
 -1       610-3.57774E+02 9.83688E+02-1.48397E+04
 -1       611-2.54174E+02 1.14090E+03-1.66245E+04
 -1       612-1.27758E+02 1.30331E+03-1.77187E+04
 -1       613-3.91838E+01 1.42602E+03-1.82292E+04
 -1       614 4.77738E+01 1.53835E+03-1.82136E+04
 -1       615 3.12472E+01 4.35998E+02-5.27106E+03
 -1       616 6.14496E+01 3.90088E+02-4.99186E+03
 -1       617 8.69798E+01 3.26500E+02-4.56115E+03
 -1       618 1.07824E+02 2.60439E+02-4.01735E+03
 -1       619 1.34284E+02 1.99693E+02-3.29674E+03
 -1       620 1.45439E+02 1.38418E+02-2.54113E+03
 -1       621 1.41554E+02 1.14594E+02-1.70553E+03
 -1       622-2.18484E+02 9.23631E+02-9.30741E+03
 -1       623-3.25143E+01 1.08061E+03-1.07885E+04
 -1       624 1.51260E+02 1.20577E+03-1.00899E+04
 -1       625-1.61664E+01 3.45628E+02-2.92519E+03
 -1       626 3.50151E+01 2.74897E+02-2.80725E+03
 -1       627 8.38278E+01 2.04865E+02-2.13047E+03
 -1       628-1.42204E+02 7.69667E+02-4.34231E+03
 -1       629-6.79452E+01 8.26316E+02-4.95201E+03
 -1       630-6.34987E+00 8.46997E+02-5.16304E+03
 -1       631 8.37968E+01 8.22397E+02-4.93122E+03
 -1       632 1.95153E+02 7.44232E+02-4.18812E+03
 -1       633 2.08410E+02 4.53816E+02-2.75307E+03
 -1       634 1.70604E+02 2.19226E+02-1.44844E+03
 -1       635 7.14992E+01 1.24814E+02-8.23712E+02
 -1       636-2.02443E+01 9.17451E+01-6.03775E+02
 -1       637-4.48427E+01 1.41115E+02-8.62307E+02
 -1       638-4.61777E+01 2.16513E+02-1.21330E+03
 -1       639-1.26018E+01 2.25748E+02-1.35827E+03
 -1       640 1.37448E+01 2.21702E+02-1.35840E+03
 -1       641 3.05511E+01 2.05198E+02-1.23241E+03
 -1       642 4.74808E+01 1.79975E+02-1.00086E+03
 -1       643-6.81079E+01 3.78954E+02-1.02174E+03
 -1       644 8.28235E-02 4.50945E+02-1.33872E+03
 -1       645 6.39937E+01 3.63074E+02-1.02410E+03
 -1       646 4.42382E+01 1.30201E+02-4.28742E+02
 -1       647-1.32070E+00 5.28640E+01-1.91329E+02
 -1       648-1.54511E+01 1.05673E+02-2.95768E+02
 -1       649 2.81926E+00 1.18952E+02-3.53974E+02
 -1       650 2.10219E+01 8.78115E+01-2.30854E+02
 -1       651 0.00000E+00 0.00000E+00 0.00000E+00
 -1       652 0.00000E+00 0.00000E+00 0.00000E+00
 -1       653 0.00000E+00 0.00000E+00 0.00000E+00
 -1       654 0.00000E+00 0.00000E+00 0.00000E+00
 -1       655 0.00000E+00 0.00000E+00 0.00000E+00
 -1       656 0.00000E+00 0.00000E+00 0.00000E+00
 -1       657 0.00000E+00 0.00000E+00 0.00000E+00
 -1       658 0.00000E+00 0.00000E+00 0.00000E+00
 -1       659 0.00000E+00 0.00000E+00 0.00000E+00
 -1       660 0.00000E+00 0.00000E+00 0.00000E+00
 -1       661 0.00000E+00 0.00000E+00 0.00000E+00
 -1       662 0.00000E+00 0.00000E+00 0.00000E+00
 -1       663 0.00000E+00 0.00000E+00 0.00000E+00
 -1       664 0.00000E+00 0.00000E+00 0.00000E+00
 -1       665 0.00000E+00 0.00000E+00 0.00000E+00
 -1       666 0.00000E+00 0.00000E+00 0.00000E+00
 -1       667 0.00000E+00 0.00000E+00 0.00000E+00
 -1       668 0.00000E+00 0.00000E+00 0.00000E+00
 -1       669 0.00000E+00 0.00000E+00 0.00000E+00
 -1       670 0.00000E+00 0.00000E+00 0.00000E+00
 -1       671 0.00000E+00 0.00000E+00 0.00000E+00
 -1       672 0.00000E+00 0.00000E+00 0.00000E+00
 -1       673 0.00000E+00 0.00000E+00 0.00000E+00
 -1       674-1.67629E-10-3.31329E-10 9.91333E+02
 -1       675-8.77004E-11-1.35551E-10 1.28108E+03
 -1       676-6.40647E-11-8.37499E-12 1.21785E+03
 -1       677-3.90869E-11 4.07420E-11 1.22768E+03
 -1       678 4.77905E-11 5.56707E-11 2.85739E+03
 -1       679 8.45846E-11-4.77777E-11 4.44737E+03
 -1       680 1.23413E-10-1.87890E-10 4.90138E+03
 -1       681 2.15309E-10-3.79342E-10 4.10669E+03
 -1       682-6.34981E-10-3.71736E-10 1.47514E+03
 -1       683-5.07076E-10-5.69214E-10 3.19873E+03
 -1       684-3.64533E-10-3.39716E-10 4.45204E+03
 -1       685-2.20742E-10-1.86634E-11 4.08868E+03
 -1       686-2.00787E-10 7.92868E-11 3.54690E+03
 -1       687 3.32557E-10 1.41302E-10 1.20556E+04
 -1       688 3.38375E-10-9.33504E-11 1.61401E+04
 -1       689 4.08379E-10-4.40031E-10 1.68069E+04
 -1       690 6.15569E-10-6.93735E-10 1.41960E+04
 -1       691 7.31983E-10-5.99770E-10 8.34837E+03
 -1       692 0.00000E+00 0.00000E+00 0.00000E+00
 -1       693-1.76887E-10-9.95891E-11 5.79716E+02
 -1       694-3.69407E-10-3.33191E-10 2.19781E+03
 -1       695-4.68137E-10-5.97191E-10 4.69031E+03
 -1       696-4.61070E-10-8.60873E-10 8.49403E+03
 -1       697 7.27523E-10-5.39230E-11 3.30031E+04
 -1       698 7.26955E-10-8.27645E-10 3.16502E+04
 -1       699 6.63143E-10-7.36689E-10 2.46775E+04
 -1       700 5.51024E-10-4.66170E-10 1.44665E+04
 -1       701 2.66838E-10-1.25326E-10 4.25609E+03
 -1       702 0.00000E+00 0.00000E+00 0.00000E+00
 -1       703 0.00000E+00 0.00000E+00 0.00000E+00
 -1       704-5.28720E-11-7.48691E-11 5.29720E+02
 -1       705-9.54811E-11-2.71254E-10 1.96447E+03
 -1       706-1.08782E-10-5.70405E-10 4.07785E+03
 -1       707 4.37271E-11-2.07255E-09 7.41557E+03
 -1       708 2.28389E-11-2.65182E-09 1.37347E+04
 -1       709 9.22817E-11-2.80352E-09 2.00185E+04
 -1       710 1.16586E-10-2.91816E-09 2.62060E+04
 -1       711 1.04260E-10-2.91866E-09 3.22264E+04
 -1       712 1.09842E-10-2.50746E-09 3.80472E+04
 -1       713 2.64839E-10-7.28543E-10 3.26962E+04
 -1       714 1.70526E-10-3.46448E-10 1.69947E+04
 -1       715 7.93181E-11-7.19863E-11 4.77990E+03
 -1       716 0.00000E+00 0.00000E+00 0.00000E+00
 -1       717 0.00000E+00 0.00000E+00 0.00000E+00
 -1       718 2.19543E-11-7.76652E-11 2.74729E+02
 -1       719 6.43093E-11-2.24634E-10 1.14839E+03
 -1       720 1.18120E-10-5.15427E-10 2.76685E+03
 -1       721 2.48864E-10-2.46339E-09-1.77289E+03
 -1       722 2.46237E-10-2.66295E-09 4.49858E+03
 -1       723 2.31800E-10-2.83597E-09 1.07600E+04
 -1       724 2.24359E-10-2.91979E-09 1.69808E+04
 -1       725 2.00028E-10-2.94675E-09 2.31383E+04
 -1       726 1.79262E-10-3.04581E-09 2.92075E+04
 -1       727-8.71508E-11-2.59899E-10 1.42699E+04
 -1       728-3.49955E-11-5.12178E-11 3.41974E+03
 -1       729 0.00000E+00 0.00000E+00 0.00000E+00
 -1       730 0.00000E+00 0.00000E+00 0.00000E+00
 -1       731 3.79426E-11-6.42479E-11-4.20895E+02
 -1       732 8.30895E-11-1.72918E-10-1.25207E+02
 -1       733 3.39791E-10-2.54045E-09-1.10057E+04
 -1       734 3.66139E-10-2.63905E-09-4.76394E+03
 -1       735 3.54779E-10-2.78760E-09 1.48562E+03
 -1       736 3.43225E-10-2.89807E-09 7.73077E+03
 -1       737 3.39026E-10-2.93361E-09 1.39493E+04
 -1       738 3.01725E-10-2.95550E-09 2.01514E+04
 -1       739-1.21160E-12-1.66119E-11 9.19060E+02
 -1       740 0.00000E+00 0.00000E+00 0.00000E+00
 -1       741 0.00000E+00 0.00000E+00 0.00000E+00
 -1       742-6.84518E-11-9.80650E-11-2.60999E+03
 -1       743-1.82641E-10-3.83928E-10-1.14415E+04
 -1       744 4.45822E-10-2.52959E-09-2.02016E+04
 -1       745 4.30431E-10-2.63362E-09-1.40082E+04
 -1       746 4.43874E-10-2.75351E-09-7.79507E+03
 -1       747 4.42419E-10-2.85395E-09-1.55059E+03
 -1       748 4.56370E-10-2.90768E-09 4.70196E+03
 -1       749 4.46973E-10-2.95709E-09 1.09485E+04
 -1       750 7.87093E-11-1.65645E-10-8.97364E+02
 -1       751 4.20991E-11-5.16171E-11-1.37316E+02
 -1       752 0.00000E+00 0.00000E+00 0.00000E+00
 -1       753 0.00000E+00 0.00000E+00 0.00000E+00
 -1       754 1.16896E-11-1.35035E-10-4.33419E+03
 -1       755-1.07754E-11-4.17352E-10-1.57185E+04
 -1       756-1.74150E-10-9.74006E-10-3.20975E+04
 -1       757 4.61014E-10-2.45403E-09-2.92531E+04
 -1       758 5.26590E-10-2.65191E-09-2.31986E+04
 -1       759 5.63429E-10-2.75577E-09-1.70480E+04
 -1       760 5.67169E-10-2.89986E-09-1.08283E+04
 -1       761 5.76926E-10-2.91577E-09-4.56504E+03
 -1       762 5.61780E-10-2.91008E-09 1.70853E+03
 -1       763 1.10294E-10-4.86762E-10-3.30266E+03
 -1       764 6.27145E-11-2.14895E-10-1.61871E+03
 -1       765 2.14003E-11-7.15536E-11-4.48006E+02
 -1       766 0.00000E+00 0.00000E+00 0.00000E+00
 -1       767 0.00000E+00 0.00000E+00 0.00000E+00
 -1       768 1.33846E-10-1.52242E-10-4.88954E+03
 -1       769 2.80067E-10-4.75582E-10-1.67218E+04
 -1       770 4.32361E-10-9.09917E-10-3.13296E+04
 -1       771 6.41820E-10-2.03470E-09-3.80981E+04
 -1       772 7.14600E-10-2.65340E-09-3.22937E+04
 -1       773 6.90008E-10-2.75873E-09-2.62791E+04
 -1       774 6.28794E-10-2.86705E-09-2.00915E+04
 -1       775 5.76947E-10-2.88049E-09-1.38051E+04
 -1       776 4.60003E-10-2.41518E-09-7.48492E+03
 -1       777-7.34256E-11-5.35644E-10-4.38445E+03
 -1       778-9.02936E-11-2.64406E-10-2.22917E+03
 -1       779-5.01808E-11-7.36574E-11-6.19812E+02
 -1       780 0.00000E+00 0.00000E+00 0.00000E+00
 -1       781 0.00000E+00 0.00000E+00 0.00000E+00
 -1       782 3.42977E-10-2.22545E-10-4.23146E+03
 -1       783 6.17928E-10-6.00558E-10-1.45066E+04
 -1       784 7.20599E-10-8.86384E-10-2.51114E+04
 -1       785 8.25987E-10-7.67521E-10-3.28143E+04
 -1       786 7.62523E-10-1.27093E-10-3.63108E+04
 -1       787-5.95968E-10 2.73910E-13-1.04207E+04
 -1       788-5.43242E-10-6.88887E-10-8.25933E+03
 -1       789-4.65939E-10-5.58342E-10-4.91788E+03
 -1       790-3.51909E-10-3.42896E-10-2.42382E+03
 -1       791-1.72606E-10-1.00914E-10-6.56953E+02
 -1       792 0.00000E+00 0.00000E+00 0.00000E+00
 -1       793 7.99349E-10-7.02600E-10-8.91166E+03
 -1       794 6.30875E-10-7.60520E-10-1.48470E+04
 -1       795 4.28538E-10-4.42195E-10-1.77176E+04
 -1       796 3.71794E-10-9.93671E-11-1.82127E+04
 -1       797-2.31202E-10-3.66432E-11-5.27097E+03
 -1       798-2.84632E-10-3.35100E-10-4.56088E+03
 -1       799-4.23306E-10-5.31066E-10-3.29917E+03
 -1       800-5.45867E-10-4.16670E-10-1.70726E+03
 -1       801 2.18150E-10-4.39753E-10-4.33070E+03
 -1       802 1.27142E-10-2.18008E-10-5.15046E+03
 -1       803 6.02772E-11-4.80255E-11-4.17176E+03
 -1       804 8.11503E-12 3.57706E-12-1.44137E+03
 -1       805-2.81327E-12 1.43451E-12-6.00347E+02
 -1       806-3.55512E-11-3.15569E-11-1.20865E+03
 -1       807-7.76969E-11-1.54352E-10-1.35528E+03
 -1       808-1.49301E-10-2.99062E-10-9.98383E+02
 -1       809 0.00000E+00 0.00000E+00 0.00000E+00
 -1       810 0.00000E+00 0.00000E+00 0.00000E+00
 -1       811 0.00000E+00 0.00000E+00 0.00000E+00
 -1       812 0.00000E+00 0.00000E+00 0.00000E+00
 -1       813 0.00000E+00 0.00000E+00 0.00000E+00
 -1       814 0.00000E+00 0.00000E+00 0.00000E+00
 -1       815 0.00000E+00 0.00000E+00 0.00000E+00
 -1       816 0.00000E+00 0.00000E+00 0.00000E+00
 -1       817 0.00000E+00 0.00000E+00 0.00000E+00
 -1       818 0.00000E+00 0.00000E+00 0.00000E+00
 -1       819 0.00000E+00 0.00000E+00 0.00000E+00
 -1       820 0.00000E+00 0.00000E+00 0.00000E+00
 -1       821 0.00000E+00 0.00000E+00 0.00000E+00
 -1       822 0.00000E+00 0.00000E+00 0.00000E+00
 -1       823 0.00000E+00 0.00000E+00 0.00000E+00
 -1       824 0.00000E+00 0.00000E+00 0.00000E+00
 -1       825 0.00000E+00 0.00000E+00 0.00000E+00
 -1       826 0.00000E+00 0.00000E+00 0.00000E+00
 -1       827 0.00000E+00 0.00000E+00 0.00000E+00
 -1       828 0.00000E+00 0.00000E+00 0.00000E+00
 -1       829 0.00000E+00 0.00000E+00 0.00000E+00
 -1       830 0.00000E+00 0.00000E+00 0.00000E+00
 -1       831 0.00000E+00 0.00000E+00 0.00000E+00
 -1       832-1.99673E+01-8.68152E+01 2.32923E+02
 -1       833-9.95257E-02-1.11024E+02 3.32928E+02
 -1       834 3.55454E+00-1.03514E+02 3.19456E+02
 -1       835-8.73096E+00-1.08658E+02 3.57845E+02
 -1       836-5.96405E+01-2.47030E+02 7.15728E+02
 -1       837-2.19303E+01-3.83602E+02 1.12865E+03
 -1       838-1.11830E+00-4.24907E+02 1.27960E+03
 -1       839 6.41051E+01-3.60481E+02 9.75103E+02
 -1       840-4.41261E+01-1.76226E+02 9.93546E+02
 -1       841-2.38088E+01-1.98748E+02 1.19220E+03
 -1       842-6.79198E+00-2.08122E+02 1.28456E+03
 -1       843 3.31188E+00-2.12135E+02 1.27755E+03
 -1       844 1.94154E+01-2.03101E+02 1.22121E+03
 -1       845-3.35074E+00-1.89334E+02 1.16697E+03
 -1       846-3.90556E+01-1.88363E+02 1.23298E+03
 -1       847-1.25221E+02-3.12084E+02 1.86192E+03
 -1       848-1.92721E+02-5.05939E+02 2.86934E+03
 -1       849-1.32419E+02-6.45527E+02 3.81664E+03
 -1       850-8.00709E+01-7.42704E+02 4.46048E+03
 -1       851-4.00329E+01-7.95561E+02 4.79008E+03
 -1       852 7.08520E+00-8.07335E+02 4.91422E+03
 -1       853 6.54063E+01-7.83468E+02 4.69340E+03
 -1       854 1.34019E+02-7.25014E+02 4.11764E+03
 -1       855-8.03005E+01-1.98260E+02 2.08824E+03
 -1       856-1.88179E+01-2.74665E+02 2.67386E+03
 -1       857 3.33838E+01-2.51420E+02 2.53984E+03
 -1       858 2.16446E+00-2.03558E+02 2.34186E+03
 -1       859-3.02273E+02-8.09619E+02 6.79345E+03
 -1       860-1.61527E+02-1.00945E+03 9.53141E+03
 -1       861 2.92060E+01-1.03125E+03 1.02583E+04
 -1       862 2.19741E+02-8.84416E+02 8.81007E+03
 -1       863-1.50832E+02-1.09260E+02 1.47376E+03
 -1       864-1.54795E+02-1.30846E+02 2.36286E+03
 -1       865-1.49170E+02-1.86031E+02 3.19627E+03
 -1       866-1.08043E+02-2.64196E+02 3.96134E+03
 -1       867-5.26907E+01-3.46521E+02 4.45118E+03
 -1       868 2.81928E+01-3.19602E+02 4.41453E+03
 -1       869 6.95067E+01-2.80041E+02 4.08858E+03
 -1       870 4.25341E+01-2.48243E+02 3.76620E+03
 -1       871 2.55344E+01-2.14988E+02 3.54633E+03
 -1       872-4.24032E+02-1.00731E+03 1.20575E+04
 -1       873-3.44477E+02-1.12574E+03 1.43516E+04
 -1       874-2.24995E+02-1.27579E+03 1.61402E+04
 -1       875-5.53044E+01-1.28001E+03 1.69261E+04
 -1       876 8.70636E+01-1.22195E+03 1.68070E+04
 -1       877 2.29197E+02-1.10355E+03 1.59037E+04
 -1       878 3.54446E+02-9.71419E+02 1.41891E+04
 -1       879 5.25085E+02-7.93961E+02 1.17081E+04
 -1       880 6.30016E+02-6.79343E+02 8.34020E+03
 -1       881-1.70782E+02-6.20048E+01 1.97513E+03
 -1       882-1.97406E+02-1.27410E+02 4.12685E+03
 -1       883-2.25517E+02-3.39800E+02 6.61340E+03
 -1       884-1.73275E+02-1.45002E+03 2.41694E+04
 -1       885 2.32425E+02-1.27618E+03 2.40837E+04
 -1       886 5.44699E+02-9.05414E+02 1.96490E+04
 -1       887 7.68983E+02-5.41403E+02 1.18684E+04
 -1       888 0.00000E+00 0.00000E+00 0.00000E+00
 -1       889-5.01586E+01-4.76029E+00 1.38619E+02
 -1       890-1.00803E+02-6.42723E+00 5.81588E+02
 -1       891-1.39377E+02-1.46110E+00 1.27853E+03
 -1       892-1.77257E+02-3.33896E+00 2.19761E+03
 -1       893-2.11175E+02-2.77304E+01 3.31303E+03
 -1       894-2.56007E+02-6.04997E+01 4.68937E+03
 -1       895-3.35349E+02-1.34469E+02 6.35428E+03
 -1       896-4.02692E+02-2.90109E+02 8.48914E+03
 -1       897-1.06435E+02-1.57392E+03 3.30042E+04
 -1       898 9.80648E+01-1.47444E+03 3.30505E+04
 -1       899 4.23009E+02-1.31001E+03 3.16330E+04
 -1       900 5.90996E+02-1.06271E+03 2.85621E+04
 -1       901 8.00740E+02-8.11254E+02 2.46704E+04
 -1       902 8.69101E+02-5.64748E+02 1.97489E+04
 -1       903 9.47585E+02-3.65720E+02 1.44594E+04
 -1       904 9.00365E+02-1.88871E+02 9.11592E+03
 -1       905 7.52672E+02-1.25407E+02 4.26717E+03
 -1       906 3.71486E+02-6.32389E+01 1.00531E+03
 -1       907 0.00000E+00 0.00000E+00 0.00000E+00
 -1       908 0.00000E+00 0.00000E+00 0.00000E+00
 -1       909-9.79341E+01 5.16520E+00 5.79749E+02
 -1       910-1.70191E+02 1.71002E+01 2.14476E+03
 -1       911-2.66780E+02 6.77190E+01 4.63000E+03
 -1       912-5.13794E+02 1.05622E+02 9.16965E+03
 -1       913 3.86027E+02-5.46085E+02 3.70790E+04
 -1       914 1.00913E+03-6.56834E+02 2.87540E+04
 -1       915 1.13891E+03-2.25465E+02 1.61742E+04
 -1       916 7.91828E+02-4.10023E+01 4.74474E+03
 -1       917 0.00000E+00 0.00000E+00 0.00000E+00
 -1       918 0.00000E+00 0.00000E+00 0.00000E+00
 -1       919-4.53803E+01 2.75993E+00 1.37235E+02
 -1       920-8.79281E+01 1.26233E+01 5.31176E+02
 -1       921-1.24770E+02 2.70098E+01 1.15147E+03
 -1       922-1.57810E+02 5.08468E+01 1.96458E+03
 -1       923-1.77631E+02 7.56849E+01 2.93632E+03
 -1       924-1.93582E+02 1.29600E+02 4.07784E+03
 -1       925-3.06803E+02 3.32206E+02 5.29640E+03
 -1       926-4.94050E+02 6.65856E+02 7.40790E+03
 -1       927-5.32713E+02 7.88945E+02 1.05665E+04
 -1       928-5.43335E+02 7.95046E+02 1.37367E+04
 -1       929-5.41765E+02 8.03009E+02 1.68854E+04
 -1       930-5.37358E+02 7.96253E+02 2.00186E+04
 -1       931-5.33384E+02 7.96098E+02 2.31270E+04
 -1       932-5.27405E+02 7.88830E+02 2.62034E+04
 -1       933-5.30393E+02 8.02670E+02 2.92455E+04
 -1       934-5.27157E+02 7.83950E+02 3.22360E+04
 -1       935-4.96827E+02 7.59958E+02 3.51576E+04
 -1       936-3.49284E+02 5.27884E+02 3.80077E+04
 -1       937 4.68126E+02-3.73704E+02 3.71281E+04
 -1       938 1.16534E+03-6.60724E+02 3.26808E+04
 -1       939 1.32298E+03-3.95475E+02 2.50765E+04
 -1       940 1.34372E+03-2.20895E+01 1.69941E+04
 -1       941 1.05431E+03 3.41727E+01 1.01027E+04
 -1       942 7.81070E+02 2.79698E+01 4.79196E+03
 -1       943 4.15894E+02 9.49169E+00 1.23952E+03
 -1       944 0.00000E+00 0.00000E+00 0.00000E+00
 -1       945 0.00000E+00 0.00000E+00 0.00000E+00
 -1       946-7.17897E+01 2.12524E+01 4.34635E+02
 -1       947-1.32391E+02 7.06137E+01 1.62184E+03
 -1       948-1.73445E+02 1.13470E+02 3.40524E+03
 -1       949-5.41933E+02 7.75451E+02 2.84044E+03
 -1       950-5.38701E+02 7.88404E+02 9.11773E+03
 -1       951-5.38229E+02 7.98317E+02 1.53892E+04
 -1       952-5.31611E+02 7.96612E+02 2.15940E+04
 -1       953-5.11147E+02 7.67654E+02 2.76827E+04
 -1       954-5.02582E+02 7.43874E+02 3.36611E+04
 -1       955 1.25887E+03 2.32280E+02 1.61682E+04
 -1       956 7.28035E+02 1.11870E+02 4.35359E+03
 -1       957 0.00000E+00 0.00000E+00 0.00000E+00
 -1       958 0.00000E+00 0.00000E+00 0.00000E+00
 -1       959-2.49404E+01 1.14113E+01 6.28110E+01
 -1       960-4.44182E+01 3.05278E+01 2.75471E+02
 -1       961-7.51765E+01 6.45276E+01 6.23566E+02
 -1       962-1.14020E+02 8.75646E+01 1.14854E+03
 -1       963-1.37668E+02 9.90259E+01 1.91702E+03
 -1       964-1.51006E+02 1.01609E+02 2.76777E+03
 -1       965-5.39062E+02 8.01195E+02-1.77120E+03
 -1       966-5.38040E+02 7.88781E+02 1.36167E+03
 -1       967-5.41824E+02 8.02953E+02 4.49806E+03
 -1       968-5.40597E+02 7.99550E+02 7.63127E+03
 -1       969-5.38273E+02 7.98564E+02 1.07599E+04
 -1       970-5.35243E+02 7.96659E+02 1.38777E+04
 -1       971-5.31794E+02 7.95014E+02 1.69813E+04
 -1       972-5.32140E+02 7.93921E+02 2.00669E+04
 -1       973-5.35514E+02 7.99705E+02 2.31357E+04
 -1       974-5.12313E+02 7.67295E+02 2.61721E+04
 -1       975-5.24951E+02 7.91221E+02 2.92168E+04
 -1       976 1.18124E+03 4.01026E+02 1.42688E+04
 -1       977 9.54210E+02 2.94602E+02 8.06745E+03
 -1       978 6.02361E+02 2.16409E+02 3.43277E+03
 -1       979 2.94818E+02 7.05311E+01 8.44434E+02
 -1       980 0.00000E+00 0.00000E+00 0.00000E+00
 -1       981 0.00000E+00 0.00000E+00 0.00000E+00
 -1       982-1.04056E+01 6.19400E+01 1.32096E+01
 -1       983-7.99162E+01 1.11735E+02 5.65882E+02
 -1       984-5.40480E+02 8.00802E+02-6.38678E+03
 -1       985-5.40215E+02 8.00069E+02-1.31729E+02
 -1       986-5.38177E+02 7.99064E+02 6.12501E+03
 -1       987-5.35640E+02 7.97100E+02 1.23612E+04
 -1       988-5.32144E+02 7.94684E+02 1.85520E+04
 -1       989-5.39766E+02 7.94048E+02 2.47091E+04
 -1       990 3.45988E+02 1.93558E+02 2.07169E+03
 -1       991 0.00000E+00 0.00000E+00 0.00000E+00
 -1       992 0.00000E+00 0.00000E+00 0.00000E+00
 -1       993 3.88411E+01 2.82926E+01-1.57631E+02
 -1       994 4.32146E+01 1.05124E+02-4.22490E+02
 -1       995-2.68052E+01 1.11876E+02-4.10870E+02
 -1       996-7.32045E+01 1.26387E+02-1.23406E+02
 -1       997-5.38360E+02 7.94403E+02-1.10068E+04
 -1       998-5.37812E+02 7.97237E+02-7.88449E+03
 -1       999-5.38595E+02 7.97237E+02-4.76361E+03
 -1      1000-5.38368E+02 7.98715E+02-1.63950E+03
 -1      1001-5.38598E+02 7.99591E+02 1.48557E+03
 -1      1002-5.37824E+02 7.99429E+02 4.60991E+03
 -1      1003-5.36604E+02 7.98189E+02 7.73053E+03
 -1      1004-5.35989E+02 7.96888E+02 1.08443E+04
 -1      1005-5.34259E+02 7.92608E+02 1.39499E+04
 -1      1006-5.35741E+02 7.93241E+02 1.70508E+04
 -1      1007-5.29906E+02 7.86959E+02 2.01485E+04
 -1      1008 1.39350E+02 1.47337E+02 9.24221E+02
 -1      1009 8.25387E+01 3.83642E+01 2.75464E+02
 -1      1010 0.00000E+00 0.00000E+00 0.00000E+00
 -1      1011 0.00000E+00 0.00000E+00 0.00000E+00
 -1      1012 2.32156E+02 1.68954E+02-1.38815E+03
 -1      1013-5.35617E+02 7.92451E+02-1.56137E+04
 -1      1014-5.35981E+02 7.95292E+02-9.39115E+03
 -1      1015-5.37861E+02 7.99259E+02-3.15591E+03
 -1      1016-5.38019E+02 7.99347E+02 3.09168E+03
 -1      1017-5.36529E+02 7.95423E+02 9.33104E+03
 -1      1018-5.36322E+02 7.92548E+02 1.55603E+04
 -1      1019 3.94474E+01 8.92837E+01 2.80445E+02
 -1      1020 0.00000E+00 0.00000E+00 0.00000E+00
 -1      1021 0.00000E+00 0.00000E+00 0.00000E+00
 -1      1022 2.24884E+02 6.44730E+01-6.39039E+02
 -1      1023 4.70449E+02 2.12245E+02-2.62098E+03
 -1      1024 7.77545E+02 3.19838E+02-6.35821E+03
 -1      1025 9.78172E+02 4.39427E+02-1.14438E+04
 -1      1026-5.28182E+02 7.87350E+02-2.01986E+04
 -1      1027-5.35184E+02 7.92739E+02-1.71055E+04
 -1      1028-5.33502E+02 7.92707E+02-1.40088E+04
 -1      1029-5.35482E+02 7.96938E+02-1.09065E+04
 -1      1030-5.36381E+02 7.98237E+02-7.79482E+03
 -1      1031-5.37793E+02 7.99539E+02-4.67509E+03
 -1      1032-5.38728E+02 7.99789E+02-1.55055E+03
 -1      1033-5.38575E+02 7.98971E+02 1.57568E+03
 -1      1034-5.38854E+02 7.97562E+02 4.70162E+03
 -1      1035-5.38344E+02 7.97680E+02 7.82478E+03
 -1      1036-5.38490E+02 7.94809E+02 1.09496E+04
 -1      1037-9.18725E+01 6.32841E+01-8.98000E+02
 -1      1038-6.72293E+01 5.11294E+01-4.41698E+02
 -1      1039-3.04745E+01 3.83915E+01-1.37847E+02
 -1      1040-1.26499E+01 1.39147E+01-1.47384E+01
 -1      1041 0.00000E+00 0.00000E+00 0.00000E+00
 -1      1042 0.00000E+00 0.00000E+00 0.00000E+00
 -1      1043 6.19216E+02 1.44818E+02-3.64777E+03
 -1      1044 1.09170E+03 3.61887E+02-1.38287E+04
 -1      1045-5.39610E+02 7.93081E+02-2.47562E+04
 -1      1046-5.31674E+02 7.94315E+02-1.86109E+04
 -1      1047-5.35297E+02 7.97389E+02-1.24265E+04
 -1      1048-5.38249E+02 7.99299E+02-6.19138E+03
 -1      1049-5.40513E+02 8.00587E+02 6.75509E+01
 -1      1050-5.40910E+02 8.01497E+02 6.32575E+03
 -1      1051-1.02836E+02 6.16232E+01-1.26517E+03
 -1      1052-5.55281E+01 2.66173E+01-3.21055E+02
 -1      1053 0.00000E+00 0.00000E+00 0.00000E+00
 -1      1054 0.00000E+00 0.00000E+00 0.00000E+00
 -1      1055 3.74166E+02 2.51317E+01-1.09913E+03
 -1      1056 7.23096E+02 8.80580E+01-4.34692E+03
 -1      1057 9.83030E+02 1.77016E+02-9.28652E+03
 -1      1058 1.24353E+03 2.44937E+02-1.57186E+04
 -1      1059 1.40673E+03 2.02336E+02-2.35318E+04
 -1      1060 1.52379E+03 1.36835E+02-3.20988E+04
 -1      1061-5.23286E+02 7.90275E+02-2.92629E+04
 -1      1062-5.09037E+02 7.69348E+02-2.62256E+04
 -1      1063-5.35979E+02 7.98777E+02-2.31958E+04
 -1      1064-5.32059E+02 7.94003E+02-2.01315E+04
 -1      1065-5.31256E+02 7.95522E+02-1.70485E+04
 -1      1066-5.35007E+02 7.97091E+02-1.39460E+04
 -1      1067-5.38310E+02 7.98832E+02-1.08281E+04
 -1      1068-5.40886E+02 7.99950E+02-7.69880E+03
 -1      1069-5.42329E+02 8.03634E+02-4.56450E+03
 -1      1070-5.37723E+02 7.88792E+02-1.42707E+03
 -1      1071-5.39160E+02 8.01877E+02 1.70680E+03
 -1      1072-1.49927E+02 7.74167E+01-3.30356E+03
 -1      1073-1.43020E+02 7.28943E+01-2.44200E+03
 -1      1074-1.30583E+02 5.80789E+01-1.61905E+03
 -1      1075-1.01962E+02 3.90925E+01-9.61423E+02
 -1      1076-7.39816E+01 1.88582E+01-4.49300E+02
 -1      1077-3.85923E+01 5.77348E+00-1.16093E+02
 -1      1078 0.00000E+00 0.00000E+00 0.00000E+00
 -1      1079 0.00000E+00 0.00000E+00 0.00000E+00
 -1      1080 7.84696E+02 4.84999E+01-4.72852E+03
 -1      1081 1.25413E+03 8.49430E+01-1.66545E+04
 -1      1082 1.43277E+03-4.79747E+01-3.23800E+04
 -1      1083-4.99931E+02 7.49539E+02-3.37041E+04
 -1      1084-5.08272E+02 7.70140E+02-2.77460E+04
 -1      1085-5.31567E+02 7.96949E+02-2.16639E+04
 -1      1086-5.38290E+02 7.98841E+02-1.54596E+04
 -1      1087-5.38425E+02 7.88271E+02-9.18624E+03
 -1      1088-5.41816E+02 7.74659E+02-2.90844E+03
 -1      1089-1.71587E+02 9.38532E+01-3.81132E+03
 -1      1090-1.47347E+02 5.38398E+01-1.95384E+03
 -1      1091-9.14762E+01 1.45956E+01-5.49717E+02
 -1      1092 0.00000E+00 0.00000E+00 0.00000E+00
 -1      1093 0.00000E+00 0.00000E+00 0.00000E+00
 -1      1094 4.23844E+02 3.44458E+00-1.27767E+03
 -1      1095 8.04955E+02 2.58701E+00-4.90235E+03
 -1      1096 1.02485E+03-9.16938E+00-1.02241E+04
 -1      1097 1.21064E+03-5.14182E+01-1.67216E+04
 -1      1098 1.25470E+03-1.81057E+02-2.39010E+04
 -1      1099 1.27243E+03-3.42235E+02-3.13130E+04
 -1      1100 5.78547E+02-2.16062E+02-3.65979E+04
 -1      1101-3.14832E+02 5.59063E+02-3.80573E+04
 -1      1102-4.90340E+02 7.61490E+02-3.52217E+04
 -1      1103-5.27502E+02 7.85139E+02-3.23035E+04
 -1      1104-5.30700E+02 8.02570E+02-2.93172E+04
 -1      1105-5.26403E+02 7.90232E+02-2.62764E+04
 -1      1106-5.33016E+02 7.96678E+02-2.32005E+04
 -1      1107-5.37387E+02 7.96413E+02-2.00916E+04
 -1      1108-5.42165E+02 8.03552E+02-1.69572E+04
 -1      1109-5.43740E+02 7.95351E+02-1.38072E+04
 -1      1110-5.31564E+02 7.89036E+02-1.06351E+04
 -1      1111-4.86577E+02 6.58795E+02-7.47697E+03
 -1      1112-2.82971E+02 3.35260E+02-5.47938E+03
 -1      1113-1.84145E+02 1.18282E+02-4.38415E+03
 -1      1114-1.81831E+02 6.58321E+01-3.25253E+03
 -1      1115-1.71922E+02 4.39927E+01-2.22931E+03
 -1      1116-1.39542E+02 2.25080E+01-1.32844E+03
 -1      1117-1.02913E+02 1.02252E+01-6.21619E+02
 -1      1118-5.36084E+01 2.43689E+00-1.60219E+02
 -1      1119 0.00000E+00 0.00000E+00 0.00000E+00
 -1      1120 0.00000E+00 0.00000E+00 0.00000E+00
 -1      1121 7.90803E+02-5.33981E+01-4.74445E+03
 -1      1122 1.10515E+03-1.96926E+02-1.60048E+04
 -1      1123 1.06933E+03-5.15684E+02-2.86922E+04
 -1      1124 4.30346E+02-4.46937E+02-3.76306E+04
 -1      1125-4.67108E+02 8.42489E+01-9.12192E+03
 -1      1126-2.59426E+02 6.38864E+01-4.89423E+03
 -1      1127-1.82047E+02 1.32738E+01-2.37728E+03
 -1      1128-1.11125E+02 4.14586E+00-6.61524E+02
 -1      1129 0.00000E+00 0.00000E+00 0.00000E+00
 -1      1130 0.00000E+00 0.00000E+00 0.00000E+00
 -1      1131 3.70996E+02-6.01099E+01-1.01253E+03
 -1      1132 7.42614E+02-1.21713E+02-4.24259E+03
 -1      1133 8.98998E+02-1.93340E+02-9.03393E+03
 -1      1134 9.82526E+02-3.18497E+02-1.45000E+04
 -1      1135 9.15255E+02-5.09390E+02-2.00142E+04
 -1      1136 8.28987E+02-7.65134E+02-2.51017E+04
 -1      1137 6.43520E+02-1.01338E+03-2.92480E+04
 -1      1138 5.31755E+02-1.24963E+03-3.27968E+04
 -1      1139 2.85069E+02-1.46868E+03-3.51109E+04
 -1      1140 1.27260E+02-1.57565E+03-3.63094E+04
 -1      1141-1.02817E+02-4.54659E+02-1.04196E+04
 -1      1142-1.80947E+02-3.96728E+02-9.58869E+03
 -1      1143-3.00974E+02-3.08263E+02-8.25306E+03
 -1      1144-2.98023E+02-1.49693E+02-6.48195E+03
 -1      1145-2.50557E+02-6.54003E+01-4.91607E+03
 -1      1146-2.11766E+02-3.09133E+01-3.56511E+03
 -1      1147-1.86070E+02-2.76996E+00-2.42356E+03
 -1      1148-1.52044E+02-5.06489E-01-1.43531E+03
 -1      1149-1.14188E+02-7.14319E+00-6.58960E+02
 -1      1150-5.69810E+01-5.06138E+00-1.59670E+02
 -1      1151 0.00000E+00 0.00000E+00 0.00000E+00
 -1      1152 7.98397E+02-5.01283E+02-1.21841E+04
 -1      1153 5.65157E+02-8.86120E+02-2.02790E+04
 -1      1154 3.22308E+02-1.30101E+03-2.53002E+04
 -1      1155 4.07955E+01-1.55333E+03-2.71711E+04
 -1      1156-7.06186E+01-4.43680E+02-7.80266E+03
 -1      1157-1.76112E+02-3.22131E+02-6.45694E+03
 -1      1158-1.84112E+02-1.42987E+02-4.30809E+03
 -1      1159-1.72692E+02-6.08867E+01-2.20758E+03
 -1      1160 6.56323E+02-6.33260E+02-8.90265E+03
 -1      1161 5.31251E+02-7.80555E+02-1.23347E+04
 -1      1162 3.57774E+02-9.83688E+02-1.48397E+04
 -1      1163 2.54174E+02-1.14090E+03-1.66245E+04
 -1      1164 1.27758E+02-1.30331E+03-1.77187E+04
 -1      1165 3.91838E+01-1.42602E+03-1.82292E+04
 -1      1166-4.77738E+01-1.53835E+03-1.82136E+04
 -1      1167-3.12472E+01-4.35998E+02-5.27106E+03
 -1      1168-6.14496E+01-3.90088E+02-4.99186E+03
 -1      1169-8.69798E+01-3.26500E+02-4.56115E+03
 -1      1170-1.07824E+02-2.60439E+02-4.01735E+03
 -1      1171-1.34284E+02-1.99693E+02-3.29674E+03
 -1      1172-1.45439E+02-1.38418E+02-2.54113E+03
 -1      1173-1.41554E+02-1.14594E+02-1.70553E+03
 -1      1174 2.18484E+02-9.23631E+02-9.30741E+03
 -1      1175 3.25143E+01-1.08061E+03-1.07885E+04
 -1      1176-1.51260E+02-1.20577E+03-1.00899E+04
 -1      1177 1.61664E+01-3.45628E+02-2.92519E+03
 -1      1178-3.50151E+01-2.74897E+02-2.80725E+03
 -1      1179-8.38278E+01-2.04865E+02-2.13047E+03
 -1      1180 1.42204E+02-7.69667E+02-4.34231E+03
 -1      1181 6.79452E+01-8.26316E+02-4.95201E+03
 -1      1182 6.34987E+00-8.46997E+02-5.16304E+03
 -1      1183-8.37968E+01-8.22397E+02-4.93122E+03
 -1      1184-1.95153E+02-7.44232E+02-4.18812E+03
 -1      1185-2.08410E+02-4.53816E+02-2.75307E+03
 -1      1186-1.70604E+02-2.19226E+02-1.44844E+03
 -1      1187-7.14992E+01-1.24814E+02-8.23712E+02
 -1      1188 2.02443E+01-9.17451E+01-6.03775E+02
 -1      1189 4.48427E+01-1.41115E+02-8.62307E+02
 -1      1190 4.61777E+01-2.16513E+02-1.21330E+03
 -1      1191 1.26018E+01-2.25748E+02-1.35827E+03
 -1      1192-1.37448E+01-2.21702E+02-1.35840E+03
 -1      1193-3.05511E+01-2.05198E+02-1.23241E+03
 -1      1194-4.74808E+01-1.79975E+02-1.00086E+03
 -1      1195 6.81079E+01-3.78954E+02-1.02174E+03
 -1      1196-8.28235E-02-4.50945E+02-1.33872E+03
 -1      1197-6.39937E+01-3.63074E+02-1.02410E+03
 -1      1198-4.42382E+01-1.30201E+02-4.28742E+02
 -1      1199 1.32070E+00-5.28640E+01-1.91329E+02
 -1      1200 1.54511E+01-1.05673E+02-2.95768E+02
 -1      1201-2.81926E+00-1.18952E+02-3.53974E+02
 -1      1202-2.10219E+01-8.78115E+01-2.30854E+02
 -1      1203 0.00000E+00 0.00000E+00 0.00000E+00
 -1      1204 0.00000E+00 0.00000E+00 0.00000E+00
 -1      1205 0.00000E+00 0.00000E+00 0.00000E+00
 -1      1206 0.00000E+00 0.00000E+00 0.00000E+00
 -1      1207 0.00000E+00 0.00000E+00 0.00000E+00
 -1      1208 0.00000E+00 0.00000E+00 0.00000E+00
 -1      1209 0.00000E+00 0.00000E+00 0.00000E+00
 -1      1210 0.00000E+00 0.00000E+00 0.00000E+00
 -1      1211 0.00000E+00 0.00000E+00 0.00000E+00
 -1      1212 0.00000E+00 0.00000E+00 0.00000E+00
 -1      1213 0.00000E+00 0.00000E+00 0.00000E+00
 -1      1214 0.00000E+00 0.00000E+00 0.00000E+00
 -1      1215 0.00000E+00 0.00000E+00 0.00000E+00
 -1      1216 0.00000E+00 0.00000E+00 0.00000E+00
 -1      1217 0.00000E+00 0.00000E+00 0.00000E+00
 -1      1218-9.91908E+02 1.42343E+03 7.40823E+03
 -1      1219-1.03594E+03 1.52015E+03 1.37364E+04
 -1      1220-1.02634E+03 1.52423E+03 2.00180E+04
 -1      1221-1.01227E+03 1.51717E+03 2.62041E+04
 -1      1222-9.96168E+02 1.49811E+03 3.22379E+04
 -1      1223-8.85681E+02 1.31918E+03 3.80095E+04
 -1      1224-1.03116E+03 1.52355E+03-1.77003E+03
 -1      1225-1.03275E+03 1.52560E+03 4.49721E+03
 -1      1226-1.02781E+03 1.52474E+03 1.07596E+04
 -1      1227-1.01697E+03 1.51897E+03 1.69815E+04
 -1      1228-1.01000E+03 1.50996E+03 2.31313E+04
 -1      1229-1.00207E+03 1.49669E+03 2.92195E+04
 -1      1230-1.02806E+03 1.51949E+03-1.10059E+04
 -1      1231-1.02805E+03 1.52296E+03-4.76319E+03
 -1      1232-1.02817E+03 1.52675E+03 1.48554E+03
 -1      1233-1.02523E+03 1.52460E+03 7.73036E+03
 -1      1234-1.02087E+03 1.51554E+03 1.39502E+04
 -1      1235-1.02021E+03 1.50982E+03 2.01498E+04
 -1      1236-1.01819E+03 1.50966E+03-2.01997E+04
 -1      1237-1.01962E+03 1.51544E+03-1.40091E+04
 -1      1238-1.02477E+03 1.52473E+03-7.79465E+03
 -1      1239-1.02839E+03 1.52711E+03-1.55051E+03
 -1      1240-1.02868E+03 1.52359E+03 4.70120E+03
 -1      1241-1.02871E+03 1.52033E+03 1.09486E+04
 -1      1242-9.99324E+02 1.49627E+03-2.92653E+04
 -1      1243-1.00902E+03 1.50992E+03-2.31914E+04
 -1      1244-1.01624E+03 1.51975E+03-1.70486E+04
 -1      1245-1.02789E+03 1.52537E+03-1.08278E+04
 -1      1246-1.03328E+03 1.52649E+03-4.56365E+03
 -1      1247-1.03142E+03 1.52457E+03 1.70557E+03
 -1      1248-8.57529E+02 1.34417E+03-3.80592E+04
 -1      1249-9.95266E+02 1.49981E+03-3.23058E+04
 -1      1250-1.01133E+03 1.51871E+03-2.62773E+04
 -1      1251-1.02644E+03 1.52491E+03-2.00909E+04
 -1      1252-1.03643E+03 1.52078E+03-1.38069E+04
 -1      1253-9.86249E+02 1.41835E+03-7.47729E+03
 -1      1254-1.49134E+03 2.17768E+03 7.40994E+03
 -1      1255-1.51641E+03 2.23452E+03 1.05702E+04
 -1      1256-1.52866E+03 2.24617E+03 1.37358E+04
 -1      1257-1.52325E+03 2.25015E+03 1.68853E+04
 -1      1258-1.51581E+03 2.25224E+03 2.00173E+04
 -1      1259-1.50680E+03 2.25012E+03 2.31268E+04
 -1      1260-1.49591E+03 2.24451E+03 2.62050E+04
 -1      1261-1.48039E+03 2.23444E+03 2.92426E+04
 -1      1262-1.46827E+03 2.21609E+03 3.22379E+04
 -1      1263-1.43178E+03 2.17142E+03 3.51487E+04
 -1      1264-1.40998E+03 2.09753E+03 3.80184E+04
 -1      1265-1.52775E+03 2.21703E+03 2.83216E+03
 -1      1266-1.52596E+03 2.24548E+03 9.11742E+03
 -1      1267-1.51723E+03 2.25083E+03 1.53888E+04
 -1      1268-1.49537E+03 2.24255E+03 2.15919E+04
 -1      1269-1.46623E+03 2.21242E+03 2.76871E+04
 -1      1270-1.44116E+03 2.14908E+03 3.36467E+04
 -1      1271-1.52273E+03 2.24738E+03-1.76926E+03
 -1      1272-1.52353E+03 2.24325E+03 1.36393E+03
 -1      1273-1.52376E+03 2.24794E+03 4.49635E+03
 -1      1274-1.52186E+03 2.25052E+03 7.63015E+03
 -1      1275-1.51730E+03 2.25097E+03 1.07591E+04
 -1      1276-1.51114E+03 2.24892E+03 1.38776E+04
 -1      1277-1.50262E+03 2.24327E+03 1.69813E+04
 -1      1278-1.49360E+03 2.23304E+03 2.00644E+04
 -1      1279-1.48357E+03 2.21913E+03 2.31268E+04
 -1      1280-1.47871E+03 2.20079E+03 2.61776E+04
 -1      1281-1.48278E+03 2.20600E+03 2.92201E+04
 -1      1282-1.51977E+03 2.24635E+03-6.38792E+03
 -1      1283-1.52102E+03 2.25012E+03-1.31481E+02
 -1      1284-1.51779E+03 2.25259E+03 6.12461E+03
 -1      1285-1.50934E+03 2.24682E+03 1.23603E+04
 -1      1286-1.49725E+03 2.23050E+03 1.85500E+04
 -1      1287-1.50048E+03 2.21701E+03 2.47056E+04
 -1      1288-1.51820E+03 2.24462E+03-1.10046E+04
 -1      1289-1.51751E+03 2.24597E+03-7.88488E+03
 -1      1290-1.51744E+03 2.24884E+03-4.76278E+03
 -1      1291-1.51783E+03 2.25206E+03-1.63940E+03
 -1      1292-1.51792E+03 2.25409E+03 1.48549E+03
 -1      1293-1.51636E+03 2.25365E+03 4.60951E+03
 -1      1294-1.51383E+03 2.25106E+03 7.73008E+03
 -1      1295-1.51052E+03 2.24618E+03 1.08436E+04
 -1      1296-1.50780E+03 2.23898E+03 1.39501E+04
 -1      1297-1.50749E+03 2.23174E+03 1.70487E+04
 -1      1298-1.50944E+03 2.23155E+03 2.01514E+04
 -1      1299-1.51384E+03 2.23916E+03-1.56136E+04
 -1      1300-1.51299E+03 2.24557E+03-9.39107E+03
 -1      1301-1.51627E+03 2.25344E+03-3.15564E+03
 -1      1302-1.51677E+03 2.25363E+03 3.09141E+03
 -1      1303-1.51434E+03 2.24626E+03 9.33096E+03
 -1      1304-1.51553E+03 2.24021E+03 1.55602E+04
 -1      1305-1.50711E+03 2.23084E+03-2.02012E+04
 -1      1306-1.50543E+03 2.23092E+03-1.71034E+04
 -1      1307-1.50607E+03 2.23869E+03-1.40091E+04
 -1      1308-1.50922E+03 2.24620E+03-1.09058E+04
 -1      1309-1.51314E+03 2.25127E+03-7.79436E+03
 -1      1310-1.51622E+03 2.25401E+03-4.67468E+03
 -1      1311-1.51825E+03 2.25461E+03-1.55045E+03
 -1      1312-1.51852E+03 2.25276E+03 1.57558E+03
 -1      1313-1.51843E+03 2.24978E+03 4.70079E+03
 -1      1314-1.51866E+03 2.24728E+03 7.82520E+03
 -1      1315-1.51937E+03 2.24591E+03 1.09472E+04
 -1      1316-1.49731E+03 2.21676E+03-2.47530E+04
 -1      1317-1.49514E+03 2.23060E+03-1.86087E+04
 -1      1318-1.50848E+03 2.24751E+03-1.24256E+04
 -1      1319-1.51797E+03 2.25335E+03-6.19095E+03
 -1      1320-1.52174E+03 2.25123E+03 6.72724E+01
 -1      1321-1.52051E+03 2.24768E+03 6.32693E+03
 -1      1322-1.47907E+03 2.20581E+03-2.92656E+04
 -1      1323-1.47524E+03 2.20183E+03-2.62307E+04
 -1      1324-1.48106E+03 2.22005E+03-2.31870E+04
 -1      1325-1.49211E+03 2.23403E+03-2.01291E+04
 -1      1326-1.50171E+03 2.24431E+03-1.70484E+04
 -1      1327-1.51083E+03 2.24995E+03-1.39459E+04
 -1      1328-1.51743E+03 2.25197E+03-1.08273E+04
 -1      1329-1.52232E+03 2.25154E+03-7.69763E+03
 -1      1330-1.52430E+03 2.24902E+03-4.56279E+03
 -1      1331-1.52400E+03 2.24436E+03-1.42942E+03
 -1      1332-1.52318E+03 2.24880E+03 1.70475E+03
 -1      1333-1.43582E+03 2.15678E+03-3.36918E+04
 -1      1334-1.46313E+03 2.21424E+03-2.77509E+04
 -1      1335-1.49463E+03 2.24391E+03-2.16618E+04
 -1      1336-1.51745E+03 2.25197E+03-1.54593E+04
 -1      1337-1.52631E+03 2.24645E+03-9.18582E+03
 -1      1338-1.52780E+03 2.21658E+03-2.89965E+03
 -1      1339-1.38770E+03 2.11660E+03-3.80681E+04
 -1      1340-1.42140E+03 2.17427E+03-3.52106E+04
 -1      1341-1.46643E+03 2.21822E+03-3.23060E+04
 -1      1342-1.47876E+03 2.23655E+03-2.93139E+04
 -1      1343-1.49502E+03 2.24619E+03-2.62784E+04
 -1      1344-1.50650E+03 2.25152E+03-2.32003E+04
 -1      1345-1.51600E+03 2.25345E+03-2.00901E+04
 -1      1346-1.52365E+03 2.25119E+03-1.69571E+04
 -1      1347-1.52929E+03 2.24714E+03-1.38062E+04
 -1      1348-1.51521E+03 2.23524E+03-1.06394E+04
 -1      1349-1.48741E+03 2.17451E+03-7.47900E+03
 -1      1350-1.98869E+03 2.90493E+03 7.41008E+03
 -1      1351-2.02190E+03 2.97076E+03 1.37356E+04
 -1      1352-2.00542E+03 2.97866E+03 2.00168E+04
 -1      1353-1.97646E+03 2.96903E+03 2.62042E+04
 -1      1354-1.93400E+03 2.92959E+03 3.22360E+04
 -1      1355-1.87708E+03 2.80520E+03 3.80192E+04
 -1      1356-2.01452E+03 2.96910E+03-1.76985E+03
 -1      1357-2.01527E+03 2.97319E+03 4.49607E+03
 -1      1358-2.00729E+03 2.97734E+03 1.07586E+04
 -1      1359-1.98774E+03 2.96690E+03 1.69805E+04
 -1      1360-1.96254E+03 2.93529E+03 2.31254E+04
 -1      1361-1.95954E+03 2.90816E+03 2.92179E+04
 -1      1362-2.00763E+03 2.96859E+03-1.10044E+04
 -1      1363-2.00719E+03 2.97505E+03-4.76256E+03
 -1      1364-2.00781E+03 2.98162E+03 1.48539E+03
 -1      1365-2.00252E+03 2.97768E+03 7.72957E+03
 -1      1366-1.99410E+03 2.96197E+03 1.39495E+04
 -1      1367-1.99691E+03 2.94963E+03 2.01507E+04
 -1      1368-1.99383E+03 2.94859E+03-2.02005E+04
 -1      1369-1.99179E+03 2.96153E+03-1.40084E+04
 -1      1370-2.00160E+03 2.97797E+03-7.79384E+03
 -1      1371-2.00825E+03 2.98231E+03-1.55035E+03
 -1      1372-2.00852E+03 2.97632E+03 4.70058E+03
 -1      1373-2.00919E+03 2.97036E+03 1.09470E+04
 -1      1374-1.95467E+03 2.90846E+03-2.92636E+04
 -1      1375-1.95915E+03 2.93659E+03-2.31855E+04
 -1      1376-1.98658E+03 2.96829E+03-1.70476E+04
 -1      1377-2.00750E+03 2.97866E+03-1.08268E+04
 -1      1378-2.01597E+03 2.97461E+03-4.56250E+03
 -1      1379-2.01513E+03 2.97085E+03 1.70537E+03
 -1      1380-1.85497E+03 2.82321E+03-3.80689E+04
 -1      1381-1.93083E+03 2.93235E+03-3.23040E+04
 -1      1382-1.97532E+03 2.97124E+03-2.62776E+04
 -1      1383-2.00568E+03 2.98026E+03-2.00896E+04
 -1      1384-2.02259E+03 2.97205E+03-1.38060E+04
 -1      1385-1.98524E+03 2.90245E+03-7.47914E+03
 -1      1386-2.48640E+03 3.62916E+03 7.41015E+03
 -1      1387-2.50593E+03 3.67682E+03 1.05722E+04
 -1      1388-2.51625E+03 3.69589E+03 1.37353E+04
 -1      1389-2.50754E+03 3.70163E+03 1.68846E+04
 -1      1390-2.49516E+03 3.70494E+03 2.00161E+04
 -1      1391-2.47834E+03 3.70220E+03 2.31256E+04
 -1      1392-2.45634E+03 3.69301E+03 2.62031E+04
 -1      1393-2.43158E+03 3.67409E+03 2.92409E+04
 -1      1394-2.39892E+03 3.64477E+03 3.22337E+04
 -1      1395-2.35418E+03 3.57387E+03 3.51452E+04
 -1      1396-2.33606E+03 3.50349E+03 3.80195E+04
 -1      1397-2.51349E+03 3.66023E+03 2.82834E+03
 -1      1398-2.51278E+03 3.69595E+03 9.11685E+03
 -1      1399-2.49632E+03 3.70303E+03 1.53876E+04
 -1      1400-2.46042E+03 3.68938E+03 2.15896E+04
 -1      1401-2.40951E+03 3.64244E+03 2.76842E+04
 -1      1402-2.37223E+03 3.54516E+03 3.36405E+04
 -1      1403-2.50625E+03 3.69179E+03-1.77052E+03
 -1      1404-2.50740E+03 3.69208E+03 1.36336E+03
 -1      1405-2.50653E+03 3.69837E+03 4.49571E+03
 -1      1406-2.50390E+03 3.70292E+03 7.62932E+03
 -1      1407-2.49755E+03 3.70388E+03 1.07580E+04
 -1      1408-2.48673E+03 3.70004E+03 1.38761E+04
 -1      1409-2.47317E+03 3.69052E+03 1.69794E+04
 -1      1410-2.45702E+03 3.67456E+03 2.00616E+04
 -1      1411-2.44202E+03 3.65174E+03 2.31235E+04
 -1      1412-2.43430E+03 3.61934E+03 2.61746E+04
 -1      1413-2.43773E+03 3.61041E+03 2.92154E+04
 -1      1414-2.50081E+03 3.69580E+03-6.38787E+03
 -1      1415-2.50241E+03 3.70189E+03-1.31692E+02
 -1      1416-2.49813E+03 3.70687E+03 6.12389E+03
 -1      1417-2.48391E+03 3.69755E+03 1.23588E+04
 -1      1418-2.46418E+03 3.66907E+03 1.85473E+04
 -1      1419-2.46648E+03 3.64409E+03 2.47039E+04
 -1      1420-2.49711E+03 3.69244E+03-1.10041E+04
 -1      1421-2.49657E+03 3.69533E+03-7.88456E+03
 -1      1422-2.49716E+03 3.70166E+03-4.76229E+03
 -1      1423-2.49770E+03 3.70658E+03-1.63922E+03
 -1      1424-2.49787E+03 3.70943E+03 1.48527E+03
 -1      1425-2.49548E+03 3.70880E+03 4.60885E+03
 -1      1426-2.49145E+03 3.70461E+03 7.72889E+03
 -1      1427-2.48587E+03 3.69673E+03 1.08422E+04
 -1      1428-2.48031E+03 3.68543E+03 1.39486E+04
 -1      1429-2.48021E+03 3.67186E+03 1.70466E+04
 -1      1430-2.48392E+03 3.66701E+03 2.01498E+04
 -1      1431-2.49078E+03 3.68307E+03-1.56128E+04
 -1      1432-2.48924E+03 3.69534E+03-9.39003E+03
 -1      1433-2.49532E+03 3.70848E+03-3.15518E+03
 -1      1434-2.49616E+03 3.70879E+03 3.09098E+03
 -1      1435-2.49148E+03 3.69651E+03 9.32992E+03
 -1      1436-2.49360E+03 3.68518E+03 1.55593E+04
 -1      1437-2.48005E+03 3.66564E+03-2.01996E+04
 -1      1438-2.47673E+03 3.67057E+03-1.71014E+04
 -1      1439-2.47743E+03 3.68482E+03-1.40075E+04
 -1      1440-2.48375E+03 3.69672E+03-1.09044E+04
 -1      1441-2.49029E+03 3.70499E+03-7.79315E+03
 -1      1442-2.49524E+03 3.70941E+03-4.67401E+03
 -1      1443-2.49842E+03 3.71029E+03-1.55021E+03
 -1      1444-2.49886E+03 3.70776E+03 1.57541E+03
 -1      1445-2.49883E+03 3.70327E+03 4.70031E+03
 -1      1446-2.49843E+03 3.69749E+03 7.82489E+03
 -1      1447-2.49903E+03 3.69473E+03 1.09467E+04
 -1      1448-2.46129E+03 3.64343E+03-2.47514E+04
 -1      1449-2.46056E+03 3.66944E+03-1.86060E+04
 -1      1450-2.48255E+03 3.69867E+03-1.24241E+04
 -1      1451-2.49847E+03 3.70815E+03-6.19021E+03
 -1      1452-2.50360E+03 3.70366E+03 6.74950E+01
 -1      1453-2.50204E+03 3.69814E+03 6.32688E+03
 -1      1454-2.43182E+03 3.61085E+03-2.92612E+04
 -1      1455-2.42897E+03 3.62061E+03-2.62278E+04
 -1      1456-2.43765E+03 3.65352E+03-2.31836E+04
 -1      1457-2.45434E+03 3.67635E+03-2.01263E+04
 -1      1458-2.47179E+03 3.69225E+03-1.70466E+04
 -1      1459-2.48626E+03 3.70174E+03-1.39443E+04
 -1      1460-2.49783E+03 3.70555E+03-1.08262E+04
 -1      1461-2.50461E+03 3.70458E+03-7.69678E+03
 -1      1462-2.50738E+03 3.70009E+03-4.56213E+03
 -1      1463-2.50826E+03 3.69402E+03-1.42883E+03
 -1      1464-2.50706E+03 3.69397E+03 1.70606E+03
 -1      1465-2.36351E+03 3.55352E+03-3.36866E+04
 -1      1466-2.40477E+03 3.64510E+03-2.77479E+04
 -1      1467-2.45909E+03 3.69170E+03-2.16594E+04
 -1      1468-2.49668E+03 3.70488E+03-1.54581E+04
 -1      1469-2.51348E+03 3.69764E+03-9.18526E+03
 -1      1470-2.51361E+03 3.66049E+03-2.89558E+03
 -1      1471-2.31356E+03 3.52087E+03-3.80692E+04
 -1      1472-2.34118E+03 3.57849E+03-3.52060E+04
 -1      1473-2.39475E+03 3.64807E+03-3.23015E+04
 -1      1474-2.42903E+03 3.67751E+03-2.93121E+04
 -1      1475-2.45491E+03 3.69579E+03-2.62764E+04
 -1      1476-2.47809E+03 3.70455E+03-2.31991E+04
 -1      1477-2.49551E+03 3.70692E+03-2.00889E+04
 -1      1478-2.50827E+03 3.70335E+03-1.69564E+04
 -1      1479-2.51708E+03 3.69755E+03-1.38058E+04
 -1      1480-2.50497E+03 3.67802E+03-1.06416E+04
 -1      1481-2.48331E+03 3.62725E+03-7.47920E+03
 -3
    1PSTEP                         6           1           1          
    1PGM                1.000000E+00                                  
    1PGK                9.543967E+10                                  
    1PHID                         -1                                  
    1PSUBC                         0                                  
    1PMODE                         2                                  
  100CL  102 49168.23204        1481                     2    2MODAL      1
 -4  STRESS      6    1
 -5  SXX         1    4    1    1
 -5  SYY         1    4    2    2
 -5  SZZ         1    4    3    3
 -5  SXY         1    4    1    2
 -5  SYZ         1    4    2    3
 -5  SZX         1    4    3    1
 -1         1 1.31146E+07-2.33782E+07-3.02234E+06-5.88031E+06 1.11685E+07-4.10367E+06
 -1         2 1.11996E+07-2.83407E+06-2.46618E+06-4.67476E+06-1.81828E+06 1.35187E+06
 -1         3 6.46347E+05 1.76957E+06 2.29639E+06-2.64008E+06 2.31825E+06 2.07064E+06
 -1         4-9.35930E+06-1.08361E+06-3.36427E+05-1.65890E+06 5.92234E+05-2.25786E+05
 -1         5-1.19929E+07-3.54869E+05 7.02544E+05-5.63888E+04 4.18528E+05 5.72356E+05
 -1         6-1.67885E+07-6.73077E+05-3.50816E+05 1.92382E+06 5.57184E+04-4.23689E+05
 -1         7-1.87870E+07 2.72120E+05 1.51339E+06 4.25452E+06-6.25646E+05 1.38400E+06
 -1         8-2.46429E+07-2.90141E+05-5.69778E+05 7.15410E+06 2.14341E+06-3.87488E+06
 -1         9-4.14174E+07-4.57286E+06 3.68615E+05 1.74241E+07 6.75306E+06-3.62761E+06
 -1        10-3.04951E+07-1.30288E+07-4.72245E+05 2.82511E+07-3.74353E+06-6.16290E+06
 -1        11-1.82039E+07-3.48553E+07-1.56106E+07 3.04193E+07 2.17092E+07-1.46491E+07
 -1        12-2.17744E+06-2.64642E+07 2.73905E+06-6.38979E+06 9.86600E+05 5.53768E+05
 -1        13-5.24516E+06-2.57854E+06-2.04348E+05-3.78927E+06 1.55380E+06-8.54766E+05
 -1        14-1.18349E+07-2.88179E+06-6.14506E+04 4.35462E+05-1.38337E+05 7.73835E+05
 -1        15-1.95402E+07-4.11119E+06 1.08577E+06 7.39724E+06-7.23523E+05 1.38572E+06
 -1        16-3.25100E+07-1.27876E+07-2.58352E+06 2.25530E+07 2.98927E+06 8.89837E+05
 -1        17-1.28453E+07-4.85131E+07 1.87985E+06 2.90454E+07 5.96595E+06 2.73060E+06
 -1        18-4.10332E+06-1.86537E+07-2.56493E+06-4.20055E+06-9.06280E+05 9.32985E+04
 -1        19-2.29662E+06-7.78044E+06-8.54361E+05-4.99904E+06 6.69937E+05-5.89000E+05
 -1        20-2.24238E+06-4.34276E+06 3.63073E+05-4.45238E+06-5.97446E+05 1.00048E+06
 -1        21-4.95850E+06-4.33769E+06 2.65889E+05-1.79363E+06-1.73140E+05 3.56508E+05
 -1        22-8.84715E+06-4.79387E+06-2.30866E+04 6.83170E+05 3.14040E+05-2.58415E+04
 -1        23-1.22229E+07-6.53687E+06-1.08780E+05 4.70332E+06 1.62713E+05-1.84688E+05
 -1        24-1.62741E+07-9.25786E+06-8.09388E+05 9.01775E+06 1.69314E+05-3.88276E+05
 -1        25-1.64799E+07-1.27719E+07 1.19548E+06 1.42507E+07 5.70337E+05-3.96234E+05
 -1        26-1.63029E+07-1.80309E+07 1.87752E+06 2.30789E+07 7.59675E+05-1.37136E+06
 -1        27-1.24495E+07-3.50852E+07-2.86814E+06 2.30151E+07-6.31718E+04-1.98391E+06
 -1        28-7.37633E+06-5.18995E+07-1.76401E+06 1.80842E+07 2.54085E+06-5.67713E+06
 -1        29 1.11735E+06 7.99610E+04 1.45516E+05-9.62503E+05 1.87529E+06 2.22629E+05
 -1        30-2.28651E+05-1.40735E+06 2.00797E+05-3.72738E+06-2.77304E+05 4.32451E+05
 -1        31-4.91732E+06-3.74118E+06-2.51945E+04 1.17608E+05 7.34763E+04 1.27867E+05
 -1        32-1.11431E+07-9.25908E+06-5.43491E+05 6.08552E+06-1.53042E+05 5.48356E+04
 -1        33-1.10762E+07-1.70779E+07 1.21826E+06 1.43211E+07 4.41212E+03-8.07271E+05
 -1        34 5.06373E+05-2.40198E+07-3.77729E+05 6.47018E+06 4.54694E+06-2.07151E+06
 -1        35 4.98023E+05 5.34364E+06-1.94977E+05-1.54669E+06-1.28481E+06-7.24800E+05
 -1        36 1.54510E+06 4.90977E+06 5.37870E+05-3.33877E+06-1.44686E+06-1.31345E+05
 -1        37 1.55999E+06 3.03549E+06-3.19062E+05-4.27956E+06 1.86913E+05-3.02512E+05
 -1        38 4.87984E+05 8.50848E+05-1.94490E+05-2.59676E+06-1.61099E+05-1.52645E+05
 -1        39-1.04552E+06-1.41453E+06 6.85701E+04-8.23792E+05-3.39556E+05 2.89348E+05
 -1        40-3.84787E+06-4.07844E+06 7.64131E+04 1.57889E+06-3.41741E+05-5.31418E+04
 -1        41-6.30450E+06-7.01677E+06 3.62853E+05 3.98366E+06-2.17847E+05 4.14158E+04
 -1        42-7.90601E+06-1.07226E+07-5.92608E+05 6.41290E+06-7.38678E+04 2.48838E+05
 -1        43-7.62246E+06-1.47805E+07-9.72433E+05 9.48897E+06 5.20544E+05 5.01419E+04
 -1        44-2.91881E+06-1.72982E+07 1.38421E+06 7.61064E+06-2.04017E+06 6.86244E+05
 -1        45 5.63263E+05-1.64630E+07 1.39874E+06 4.07366E+06-2.19915E+06 9.17849E+05
 -1        46 4.77049E+05 1.16012E+07 2.75768E+05-2.75188E+06 5.91031E+05-3.85300E+04
 -1        47 4.47434E+06 8.42815E+06 6.94980E+04-6.91540E+06 2.92926E+05-1.07516E+05
 -1        48 2.90088E+06 2.68597E+06-5.02490E+04-2.49219E+06 7.88517E+04 2.22701E+05
 -1        49-2.28440E+06-3.04054E+06 4.34310E+04 2.29301E+06 7.68303E+04 2.17543E+05
 -1        50-4.13263E+06-8.75986E+06-6.07299E+04 6.45541E+06 3.09370E+05-7.24263E+04
 -1        51-5.32466E+05-1.20347E+07-3.82563E+05 2.44071E+06 5.02870E+05-2.40438E+04
 -1        52-4.85896E+05 1.58437E+07-1.37020E+06-4.46338E+06-1.89864E+06 8.70123E+05
 -1        53 3.21169E+06 1.67138E+07-1.27075E+06-8.09474E+06-1.90673E+06 7.17385E+05
 -1        54 8.05544E+06 1.42955E+07 9.07048E+05-1.00003E+07 4.67829E+05-2.27458E+04
 -1        55 8.50319E+06 1.02700E+07 5.85424E+05-6.72470E+06-1.00020E+05 2.19813E+05
 -1        56 7.03594E+06 6.56191E+06-3.65036E+05-4.17540E+06-1.86745E+05 7.34122E+04
 -1        57 4.47794E+06 3.72600E+06-7.04160E+04-1.74636E+06-3.33149E+05-4.96959E+04
 -1        58 1.57075E+06 1.15994E+06-6.68765E+04 6.46819E+05-3.61581E+05 3.17880E+05
 -1        59-7.61290E+04-1.09118E+06 1.92437E+05 2.33956E+06-1.77368E+05-1.80113E+05
 -1        60-1.31102E+06-3.24324E+06 3.23570E+05 3.89173E+06 1.63226E+05-3.08574E+05
 -1        61-1.46353E+06-4.98104E+06-5.57760E+05 2.99267E+06-1.47669E+06-1.23495E+05
 -1        62-4.80393E+05-5.33819E+06 2.91376E+05 1.29965E+06-1.42622E+06-7.19748E+05
 -1        63-2.70323E+05 2.33332E+07 4.48539E+05-6.93597E+06 4.41794E+06-2.09024E+06
 -1        64 1.18403E+07 1.62804E+07-1.20510E+06-1.47616E+07 1.90562E+05-7.40127E+05
 -1        65 1.19042E+07 8.90254E+06 5.59773E+05-6.17441E+06-1.88882E+05 2.15034E+04
 -1        66 5.43399E+06 3.54233E+06 2.81859E+04-1.99853E+05 1.00902E+05 1.46033E+05
 -1        67 3.70448E+05 1.39980E+06-2.06213E+05 3.45377E+06-3.33629E+05 4.62164E+05
 -1        68-1.18534E+06-5.17135E+04-1.53650E+05 7.53346E+05 1.91627E+06 2.41256E+05
 -1        69 6.29448E+06 4.76898E+07 9.69395E+05-1.80449E+07 2.92496E+06-6.15313E+06
 -1        70 1.27468E+07 3.38982E+07 2.78447E+06-2.31484E+07-4.35567E+05-2.40012E+06
 -1        71 1.73653E+07 1.72122E+07-1.89192E+06-2.34076E+07 9.77692E+05-1.19098E+06
 -1        72 1.75847E+07 1.22037E+07-1.22877E+06-1.43272E+07 6.56385E+05-2.20451E+05
 -1        73 1.71121E+07 9.00604E+06 8.89557E+05-8.96165E+06 9.89066E+04-4.67435E+05
 -1        74 1.28752E+07 6.34813E+06 1.00191E+05-4.64389E+06 1.32943E+05-2.15440E+05
 -1        75 9.35120E+06 4.68941E+06 1.76676E+04-6.46628E+05 3.30707E+05-1.00493E+04
 -1        76 5.19717E+06 4.33874E+06-2.61748E+05 1.75836E+06-1.94823E+05 3.97904E+05
 -1        77 2.28812E+06 4.44702E+06-3.62366E+05 4.31062E+06-6.60607E+05 1.06511E+06
 -1        78 2.37119E+06 8.05743E+06 8.89549E+05 4.91147E+06 7.49142E+05-6.94077E+05
 -1        79 4.36809E+06 1.96557E+07 2.75583E+06 4.16920E+06-1.02923E+06-4.19522E+03
 -1        80 1.29818E+07 4.16031E+07-9.84198E+05-2.90104E+07 6.10456E+06 3.11521E+06
 -1        81 3.42082E+07 1.26563E+07 2.71103E+06-2.30064E+07 2.61312E+06 5.42489E+05
 -1        82 2.04927E+07 3.89106E+06-1.22038E+06-7.26586E+06-7.03834E+05 1.55498E+06
 -1        83 1.22357E+07 2.86947E+06 8.23123E+04-3.55414E+05-1.46094E+05 8.23513E+05
 -1        84 5.14319E+06 2.56689E+06 1.66345E+05 3.67790E+06 1.64822E+06-9.16654E+05
 -1        85 2.15681E+06 2.81306E+07-2.96423E+06 6.41451E+06 9.47197E+05 6.60558E+05
 -1        86 2.48809E+07 2.86359E+07 1.57463E+07-3.06833E+07 1.90845E+07-1.75473E+07
 -1        87 3.80524E+07 1.30971E+07-4.37558E+05-2.88477E+07-3.38759E+06-6.13343E+06
 -1        88 4.63657E+07 5.73223E+06 4.39144E+05-1.78874E+07 6.35602E+06-3.33709E+06
 -1        89 2.57195E+07 3.12952E+04 5.08761E+05-6.91774E+06 2.15467E+06-4.10631E+06
 -1        90 1.97408E+07-3.63453E+05-1.57523E+06-4.06955E+06-6.82337E+05 1.67719E+06
 -1        91 1.75952E+07 7.39330E+05 4.67966E+05-1.79440E+06 4.50944E+04-3.75830E+05
 -1        92 1.23091E+07 3.36080E+05-8.10738E+05 1.49848E+05 4.25963E+05 6.77001E+05
 -1        93 9.58335E+06 1.14666E+06 3.44097E+05 1.74238E+06 5.82166E+05-3.04080E+05
 -1        94-1.48450E+06-2.04293E+06-2.49363E+06 2.57303E+06 2.41156E+06 2.18603E+06
 -1        95-1.27953E+07 2.86617E+06 2.69229E+06 4.58973E+06-1.90374E+06 1.36777E+06
 -1        96-1.46506E+07 2.48948E+07 3.01607E+06 5.86843E+06 1.18190E+07-4.75940E+06
 -1        97 1.43780E+07-2.80919E+07-4.40180E+06-6.31423E+06 1.87872E+07-3.95800E+06
 -1        98 1.34247E+06 2.28900E+06 2.19828E+06-1.07672E+06 1.18423E+06 4.79158E+06
 -1        99-9.23048E+06-3.54276E+04 5.30302E+05 1.96937E+05 7.10063E+05 8.70031E+05
 -1       100-1.55136E+07-5.30704E+04 7.80178E+05 2.48969E+06 6.61026E+05-7.92709E+04
 -1       101-3.04497E+07-9.28575E+05 2.39674E+06 1.06530E+07 2.84327E+06-4.89913E+06
 -1       102-2.55856E+07-4.49864E+07-2.27315E+07 3.25026E+07 4.35040E+07-3.29514E+07
 -1       103-3.16110E+06-1.47705E+07-1.59797E+06-3.19915E+06-3.60054E+06-2.02843E+05
 -1       104-1.87071E+06-4.11944E+06 5.48431E+04-3.63464E+06-4.45945E+05 5.44519E+05
 -1       105-7.14299E+06-3.66293E+06 2.12256E+02 4.21796E+05-1.09509E+05 5.94317E+05
 -1       106-1.27130E+07-6.96490E+06-4.96486E+05 7.36525E+06 6.44105E+04 3.79509E+05
 -1       107-1.47491E+07-1.64251E+07 2.89100E+05 1.88315E+07 2.28255E+05-3.74323E+05
 -1       108-3.51089E+06-3.91612E+07 7.16477E+05 1.16072E+07 1.47522E+06-2.19525E+06
 -1       109 2.43326E+04 3.67941E+06-2.87906E+05-1.14564E+06-1.04163E+06-5.52338E+05
 -1       110 1.22783E+06 2.63270E+06-2.26389E+05-3.34699E+06-8.03402E+05 1.26545E+05
 -1       111-8.85966E+05-1.12683E+06 3.08216E+04-6.63601E+05-1.02161E+06 7.14104E+05
 -1       112-5.16076E+06-5.73531E+06 1.66414E+05 3.20496E+06-9.64601E+05 6.03131E+05
 -1       113-5.73679E+06-1.14116E+07-6.68726E+05 7.69195E+06-6.40491E+05-4.63117E+04
 -1       114 7.45463E+04-1.39266E+07 6.95480E+05 2.42707E+06-7.13036E+05-2.20960E+05
 -1       115-9.96508E+01 1.33820E+07-6.52595E+05-2.69424E+06-4.05445E+05-3.63390E+05
 -1       116 6.05116E+06 1.10557E+07 5.85139E+05-8.11062E+06-6.45542E+05-1.02820E+05
 -1       117 5.75863E+06 5.36285E+06-1.66750E+05-3.35915E+06-9.51465E+05 6.13999E+05
 -1       118 1.30241E+06 9.28164E+05-2.94184E+04 5.20668E+05-1.04627E+06 7.44860E+05
 -1       119-1.00983E+06-2.80451E+06 2.45624E+05 3.03216E+06-8.26230E+05 1.53078E+05
 -1       120-3.09356E+04-3.70789E+06 3.50012E+05 9.81240E+05-1.27893E+06-5.77942E+05
 -1       121 2.48588E+06 3.56162E+07-1.37087E+06-1.13772E+07 2.73965E+06-2.46092E+06
 -1       122 1.57396E+07 1.56636E+07-2.91681E+05-1.90957E+07 2.05734E+05-4.26038E+05
 -1       123 1.33425E+07 6.78823E+06 5.87865E+05-7.31527E+06 1.89390E+04 3.62840E+05
 -1       124 7.55322E+06 3.56172E+06-1.86072E+04-3.88639E+05-1.22613E+05 6.19802E+05
 -1       125 1.87715E+06 4.23475E+06-5.44188E+04 3.51932E+06-4.57346E+05 5.71097E+05
 -1       126 3.38918E+06 1.55749E+07 1.74519E+06 3.21940E+06-3.95311E+06-2.48618E+05
 -1       127 3.33908E+07 3.77520E+07 2.29247E+07-3.27249E+07 3.96675E+07-3.73915E+07
 -1       128 3.45004E+07 1.96104E+06-1.77851E+06-1.11692E+07 2.59095E+06-3.76601E+06
 -1       129 1.63552E+07-2.24840E+04-8.41587E+05-2.36156E+06 5.30944E+05 1.36019E+05
 -1       130 9.50864E+06 3.53095E+04-6.04722E+05-1.40804E+05 7.46065E+05 1.03079E+06
 -1       131-2.03812E+06-2.53380E+06-2.35377E+06 9.88696E+05 1.23240E+06 5.11164E+06
 -1       132-1.61730E+07 2.98529E+07 4.39068E+06 6.29741E+06 1.97550E+07-4.93584E+06
 -1       133 1.22146E+07-3.78037E+07-1.41441E+07-7.41040E+06 5.16359E+07-7.04451E+06
 -1       134 1.26109E+07-4.62270E+06-6.98434E+06-3.39305E+06 4.09832E+06 5.97536E+06
 -1       135 3.08451E+06 4.10456E+06 4.72050E+06 2.40640E+04 2.34142E+06 7.41015E+06
 -1       136-5.34438E+06 3.55229E+05 6.03300E+04-1.09824E+06-1.81820E+06 3.00955E+06
 -1       137-6.42773E+06 5.13862E+05 1.61876E+06 5.63133E+05 2.64037E+06 9.77218E+05
 -1       138-9.12393E+06-7.10409E+05-1.66507E+06 9.34009E+05 1.85428E+06-1.77994E+06
 -1       139-1.50194E+07-3.18418E+06-6.37513E+06 7.34748E+05 4.11934E+06-3.82486E+06
 -1       140-8.18180E+06 5.80023E+06 6.94275E+06 2.40197E+06-2.31083E+06-6.21050E+06
 -1       141-2.20055E+07 1.89496E+06 1.87859E+06 4.82982E+06 6.57657E+06-1.41235E+07
 -1       142-3.01036E+07-1.52763E+07-3.75990E+06 2.25267E+07 9.49867E+06-2.30791E+07
 -1       143-5.43317E+07-7.71921E+07-7.29751E+07 3.80062E+07 1.28277E+08-1.01075E+08
 -1       144-1.01741E+06-2.80150E+07 6.75071E+06-5.55458E+06 2.65323E+06-8.93799E+05
 -1       145-4.85553E+06-2.24959E+06-4.94875E+05-9.33205E+05 4.66808E+06 3.35223E+05
 -1       146-7.12241E+06-1.54703E+06-3.28059E+05 2.36311E+05-2.56855E+03 1.31902E+06
 -1       147-1.27770E+07-2.79823E+06 8.91953E+05 3.89741E+06-6.93114E+05 1.87015E+06
 -1       148-2.13446E+07-9.82682E+06-9.13952E+06 1.08217E+07 8.97712E+06-6.29581E+06
 -1       149-1.37073E+07-4.92426E+07 2.48593E+06 2.35431E+07 2.16762E+07-7.13789E+06
 -1       150-4.14570E+06-1.32335E+07-4.88555E+06-2.04772E+06-2.76591E+06 3.96278E+04
 -1       151-1.43701E+06-3.40123E+06-3.29163E+06-3.44516E+06 2.39163E+06-1.78314E+06
 -1       152-5.43563E+05-2.96940E+06 1.99189E+06-2.82560E+06-3.58104E+06 6.99387E+05
 -1       153-3.33436E+06-2.88249E+06 7.75113E+05-9.24437E+05-1.26721E+06 8.58673E+05
 -1       154-5.20017E+06-2.45140E+06 3.80362E+05 1.56746E+05-5.43807E+05 1.61133E+06
 -1       155-7.60123E+06-3.91848E+06-9.39145E+05 2.82197E+06 5.70084E+05 4.43214E+05
 -1       156-9.58908E+06-5.29135E+06-1.31704E+06 5.77883E+06 8.48935E+05 1.58369E+05
 -1       157-9.85349E+06-8.00819E+06 1.73514E+06 9.20765E+06-1.47001E+06 2.40179E+06
 -1       158-8.37049E+06-9.97998E+06 1.02264E+07 1.46331E+07-8.11452E+06 6.54242E+06
 -1       159-9.25118E+06-2.15125E+07-1.03361E+07 1.19253E+07 7.78411E+06-5.81078E+06
 -1       160-2.11554E+06-3.06425E+07-2.82398E+06 5.79627E+06 1.00516E+07-5.54471E+06
 -1       161 2.04542E+06 2.55833E+06 2.90256E+06 3.36263E+05-1.02365E+06 1.16322E+06
 -1       162 4.93176E+04-4.18496E+05-1.78170E+05-2.70112E+06-1.96626E+06 7.67195E+05
 -1       163-3.00108E+06-2.15761E+06 2.73076E+04 1.76493E+05-1.06294E+06 1.23383E+06
 -1       164-6.38661E+06-5.08036E+06 6.79675E+04 3.67477E+06-1.07367E+06 1.32433E+06
 -1       165-6.75636E+06-9.94835E+06 1.35940E+06 9.53432E+06-3.24762E+06 1.01847E+06
 -1       166 6.62987E+06-6.64264E+06 8.43353E+06 1.58542E+06 4.26677E+06 9.34605E+05
 -1       167-1.90753E+06 7.83387E+05-4.58427E+06-8.69910E+05 4.00970E+05-1.40488E+06
 -1       168 5.82808E+05 2.50437E+06 7.39456E+05-1.75615E+06-2.26147E+06-2.58161E+05
 -1       169 5.65683E+05 1.79349E+06-9.58874E+05-2.43411E+06-1.82353E+06 8.78302E+05
 -1       170 3.95174E+05 6.95274E+05-1.27168E+04-1.69049E+06-1.88015E+06 7.01868E+05
 -1       171-7.57652E+05-8.97742E+05-8.39881E+04-4.97757E+05-1.63907E+06 1.09178E+06
 -1       172-2.48495E+06-2.58524E+06-8.73277E+04 9.57057E+05-1.80942E+06 9.60133E+05
 -1       173-4.25517E+06-4.69345E+06-4.42080E+05 2.39787E+06-1.67668E+06 1.13311E+06
 -1       174-4.24509E+06-6.04177E+06 3.64516E+04 3.95435E+06-1.92881E+06 7.86849E+05
 -1       175-4.48597E+06-8.58145E+06-1.56740E+06 5.95293E+06-7.69279E+05-9.31212E+05
 -1       176-2.30077E+06-1.17878E+07 1.07196E+06 3.95491E+06-2.91589E+06 7.33327E+05
 -1       177-3.88664E+06-1.47144E+07-8.54028E+06 8.55345E+05 3.69806E+06-2.41210E+06
 -1       178 4.92976E+05 6.32092E+06 1.16977E+06-1.37715E+06 2.60000E+06-1.23805E+06
 -1       179 2.69167E+06 5.24767E+06 6.38703E+05-4.13965E+06-6.22768E+05-3.82580E+05
 -1       180 1.83262E+06 1.72846E+06 6.00682E+04-1.51510E+06-1.41414E+06 1.21410E+06
 -1       181-1.44548E+06-1.93122E+06-5.42727E+04 1.39778E+06-1.41075E+06 1.22628E+06
 -1       182-2.51418E+06-5.47365E+06-6.44573E+05 3.84463E+06-5.83056E+05-2.87331E+05
 -1       183-5.36994E+05-6.61224E+06-1.27406E+06 1.29553E+06 2.38682E+06-1.11577E+06
 -1       184 3.75015E+06 1.40648E+07 7.94108E+06-9.88664E+05 3.77310E+06-3.06697E+06
 -1       185 2.40510E+06 1.12660E+07-1.09853E+06-4.25269E+06-2.68132E+06 7.38427E+05
 -1       186 4.72895E+06 8.37745E+06 1.58197E+06-6.28722E+06-8.04818E+05-1.08849E+06
 -1       187 4.61346E+06 5.79757E+06-5.30932E+04-4.11805E+06-1.93473E+06 7.47714E+05
 -1       188 4.71848E+06 4.40710E+06 4.45623E+05-2.51398E+06-1.67189E+06 1.13365E+06
 -1       189 2.85530E+06 2.36145E+06 8.40177E+04-1.06304E+06-1.81621E+06 9.58674E+05
 -1       190 1.06959E+06 7.51312E+05 8.50156E+04 3.89158E+05-1.66850E+06 1.12938E+06
 -1       191-1.48503E+05-8.41351E+05 3.10246E+04 1.54191E+06-1.91361E+06 6.94327E+05
 -1       192-3.86444E+05-1.92611E+06 9.77328E+05 2.18806E+06-1.87629E+06 8.79844E+05
 -1       193-5.29195E+05-2.53684E+06-7.84574E+05 1.55840E+06-2.34648E+06-2.00125E+05
 -1       194 1.93725E+06-7.87822E+05 4.82401E+06 7.78391E+05 8.58962E+04-1.58986E+06
 -1       195-6.34920E+06 6.65935E+06-7.85495E+06-1.98681E+06 5.15599E+06 1.48412E+06
 -1       196 7.31791E+06 9.54804E+06-1.49969E+06-9.69693E+06-3.06188E+06 1.04374E+06
 -1       197 6.80923E+06 4.84890E+06-5.30106E+04-3.75439E+06-1.10921E+06 1.31821E+06
 -1       198 3.31462E+06 2.03933E+06-4.44790E+04-2.35115E+05-1.05290E+06 1.28027E+06
 -1       199 2.06938E+04 3.90588E+05 2.15533E+05 2.56244E+06-2.03469E+06 8.19355E+05
 -1       200-2.13153E+06-2.66690E+06-3.01299E+06-4.75325E+05-1.36464E+06 1.28336E+06
 -1       201 4.73105E+05 2.70921E+07 9.12033E+05-5.49308E+06 1.16209E+07-5.93934E+06
 -1       202 9.60874E+06 2.13355E+07 9.97030E+06-1.16598E+07 7.08791E+06-7.14633E+06
 -1       203 9.24204E+06 9.25554E+06-1.02955E+07-1.48342E+07-7.65077E+06 7.06026E+06
 -1       204 1.04453E+07 7.57548E+06-1.61810E+06-9.37412E+06-1.43790E+06 2.61183E+06
 -1       205 9.99328E+06 5.15004E+06 1.31796E+06-5.72924E+06 7.23884E+05 1.04130E+05
 -1       206 8.02161E+06 3.83314E+06 9.52320E+05-2.77216E+06 5.00295E+05 3.96740E+05
 -1       207 5.50861E+06 2.35646E+06-4.07902E+05-1.24122E+05-5.31680E+05 1.67784E+06
 -1       208 3.50303E+06 2.90055E+06-8.13901E+05 8.73532E+05-1.29558E+06 9.32554E+05
 -1       209 5.17069E+05 3.09326E+06-1.98588E+06 2.73562E+06-3.71971E+06 8.69538E+05
 -1       210 1.44215E+06 3.43381E+06 3.41245E+06 3.47032E+06 2.51817E+06-2.08674E+06
 -1       211 4.48375E+06 1.39978E+07 5.28416E+06 2.09278E+06-3.17793E+06-5.19271E+03
 -1       212 1.44076E+07 4.19344E+07-6.67383E+04-2.33014E+07 2.23689E+07-8.19477E+06
 -1       213 2.18217E+07 9.59166E+06 9.65129E+06-1.13935E+07 7.72950E+06-7.08846E+06
 -1       214 1.35531E+07 2.75133E+06-8.77073E+05-3.79835E+06-6.92950E+05 2.09436E+06
 -1       215 7.35897E+06 1.53888E+06 3.84912E+05-1.87725E+05-5.24789E+04 1.39841E+06
 -1       216 4.91764E+06 2.27855E+06 3.67645E+05 7.90324E+05 4.96964E+06 2.18493E+05
 -1       217 8.69723E+05 2.97644E+07-7.32432E+06 5.62025E+06 2.46633E+06-1.07528E+06
 -1       218 6.37157E+07 6.88486E+07 7.35931E+07-3.82154E+07 1.18446E+08-1.12564E+08
 -1       219 3.79907E+07 1.48129E+07 1.35716E+06-2.30934E+07 8.67129E+06-2.27645E+07
 -1       220 2.58865E+07-2.82185E+05 4.22878E+04-5.29729E+06 6.16807E+06-1.28997E+07
 -1       221 8.27913E+06-6.18894E+06-7.63163E+06-2.09411E+06-1.79409E+06-5.58157E+06
 -1       222 1.59669E+07 3.37151E+06 7.06484E+06-6.80104E+05 3.52325E+06-3.95976E+06
 -1       223 9.63344E+06 7.63288E+05 1.79324E+06-9.30560E+05 1.76069E+06-1.74294E+06
 -1       224 6.60972E+06-5.61097E+05-1.88670E+06-5.38998E+05 2.83598E+06 1.15146E+06
 -1       225 5.58377E+06-2.85136E+05 4.52537E+04 1.18446E+06-1.92602E+06 3.24092E+06
 -1       226-3.78774E+06-4.46382E+06-5.11845E+06-1.09413E+05 2.37845E+06 7.76472E+06
 -1       227-1.43450E+07 4.77357E+06 7.56022E+06 3.28450E+06 4.32484E+06 6.08773E+06
 -1       228-1.43347E+07 3.98737E+07 1.41185E+07 7.38779E+06 5.41131E+07-9.57069E+06
 -1       229 2.60449E+06-8.96568E+07-2.99032E+07-2.11636E+07 8.74422E+07-7.60557E+06
 -1       230 4.84564E+06 1.13740E+07 7.11748E+06 1.81781E+06 2.39016E+06 8.11918E+06
 -1       231-5.12238E+06-1.28618E+06 1.70705E+06 1.34795E+06 3.94528E+06 1.93113E+06
 -1       232-1.25243E+07-1.01626E+07-1.08686E+07-1.85573E+05 9.55571E+06-8.02874E+06
 -1       233 1.03947E+05 2.01343E+07 6.51344E+05-7.49764E+06 4.25543E+06-1.44446E+07
 -1       234-2.02189E+08-2.44618E+08-1.54162E+08 1.08429E+08 2.27155E+08-1.83025E+08
 -1       235-5.09551E+06-5.87014E+06-8.32296E+06 1.06284E+06-3.49258E+06-9.81897E+05
 -1       236 3.34334E+05-5.50713E+06 3.18876E+06-2.91276E+06-6.25495E+06 1.91626E+06
 -1       237-3.75237E+06-1.35827E+06 6.77804E+05 2.08291E+05-6.32905E+05 1.85194E+06
 -1       238-6.18025E+06-2.59965E+06-2.31874E+06 3.58144E+06 7.50012E+05 2.58821E+05
 -1       239-1.18449E+07-1.49063E+07 1.63553E+07 1.50309E+07-1.27031E+07 9.42620E+06
 -1       240 1.21067E+07-5.72958E+06-6.95626E+06-7.12232E+06 9.71947E+06-2.88024E+06
 -1       241-2.49897E+06 5.70435E+05-6.54242E+06-1.46337E+06 1.09875E+06-7.10418E+05
 -1       242 3.81897E+05 1.61265E+06-1.69415E+06-1.60919E+06-2.12299E+06 8.82603E+05
 -1       243-4.53400E+05-5.94992E+05-6.89764E+04-3.06899E+05-2.07078E+06 1.48397E+06
 -1       244-2.69409E+06-3.01414E+06-3.83238E+05 1.46383E+06-1.87883E+06 1.16179E+06
 -1       245-2.33602E+06-5.26598E+06-2.70782E+06 3.62151E+06-8.52693E+05-6.89770E+05
 -1       246-9.48242E+06-1.14951E+07-1.37130E+07 9.05389E+05 8.11401E+06-7.22609E+06
 -1       247 1.01683E+07 1.15383E+07 1.29542E+07-5.49968E+05 8.04758E+06-8.25636E+06
 -1       248 2.34268E+06 5.19428E+06 2.77398E+06-3.90785E+06-9.72057E+05-9.56321E+05
 -1       249 3.01821E+06 2.81104E+06 3.85209E+05-1.54150E+06-1.86613E+06 1.16696E+06
 -1       250 6.53531E+05 5.05987E+05 6.96401E+04 2.33053E+05-2.10638E+06 1.53122E+06
 -1       251-1.56487E+05-1.71785E+06 1.73142E+06 1.43392E+06-2.20423E+06 8.34656E+05
 -1       252 2.19072E+06-7.56188E+05 6.80416E+06 1.45984E+06 7.34281E+05-9.86524E+05
 -1       253-1.55364E+07 3.10834E+06 3.86881E+06 7.27011E+06 1.15705E+07-3.32948E+06
 -1       254 1.32694E+07 1.36928E+07-1.64714E+07-1.51903E+07-1.16137E+07 1.05941E+07
 -1       255 6.37181E+06 2.63977E+06 2.28278E+06-3.48537E+06 5.17390E+05 1.17014E+05
 -1       256 3.97727E+06 1.19188E+06-7.34242E+05-1.78105E+05-5.67974E+05 1.94628E+06
 -1       257-5.49773E+05 5.79137E+06-3.17895E+06 2.84845E+06-6.54771E+06 2.24962E+06
 -1       258 5.85653E+06 6.37453E+06 8.97977E+06-1.02710E+06-3.96667E+06-1.02673E+06
 -1       259 2.20360E+08 2.29737E+08 1.55400E+08-1.09000E+08 2.11268E+08-2.01764E+08
 -1       260 2.37475E+06-1.70505E+07 2.48527E+06 7.33293E+06 3.71441E+06-1.30036E+07
 -1       261 1.27613E+07 9.63701E+06 1.17802E+07-2.15612E+05 8.65190E+06-8.39880E+06
 -1       262 5.41661E+06 1.55763E+06-2.00573E+06-1.38591E+06 4.22327E+06 2.12351E+06
 -1       263-5.34546E+06-1.21656E+07-7.76790E+06-1.86077E+06 2.42404E+06 8.52286E+06
 -1       264-6.55246E+06 9.35229E+07 2.98505E+07 2.11018E+07 9.14501E+07-1.17138E+07
 -1       265 3.61387E+07 9.29279E+07 3.61387E+07 5.93396E+06-1.02687E+07 2.94703E+01
 -1       266 4.43883E+07 1.14141E+08 4.43884E+07 2.16226E+06 7.60265E+06-3.60381E+01
 -1       267 4.98600E+07 1.28211E+08 4.98600E+07-1.06149E+06 7.82712E+06 5.70382E+01
 -1       268 4.85948E+07 1.24958E+08 4.85949E+07 3.98693E+05 1.27083E+07-5.15523E+01
 -1       269 4.45730E+07 1.14616E+08 4.45731E+07 8.62788E+05 9.39856E+06-5.78814E+01
 -1       270 4.69522E+07 1.20734E+08 4.69523E+07-9.85568E+05 1.11864E+07 1.14177E+02
 -1       271 5.20349E+07 1.33804E+08 5.20351E+07-6.86066E+05 3.29372E+07-7.24901E+01
 -1       272 6.95488E+07 1.78840E+08 6.95490E+07 5.01138E+06-1.54806E+07-1.27648E+02
 -1       273 1.01882E+08 2.61981E+08 1.01882E+08 7.61035E+06-1.06684E+06 1.13903E+02
 -1       274 1.39062E+08 3.57589E+08 1.39063E+08 3.77990E+06 2.91510E+07-1.59501E+02
 -1       275 1.67282E+08 4.30153E+08 1.67282E+08 1.27002E+06 8.98681E+06 5.98016E+01
 -1       276 1.82249E+08 4.68641E+08 1.82249E+08 2.18216E+06 3.84969E+07 1.20044E+01
 -1       277 1.88536E+08 4.84806E+08 1.88536E+08 1.91887E+06 3.38950E+07-1.35427E+02
 -1       278 1.73661E+08 4.46557E+08 1.73662E+08-8.34660E+06 2.83797E+07 1.67302E+02
 -1       279 1.51479E+08 3.89516E+08 1.51479E+08-2.03207E+07-3.60641E+07-1.50527E+02
 -1       280 1.92242E+07 8.54296E+07 1.83946E+07 1.35275E+07-2.15934E+06-4.18479E+06
 -1       281 3.15811E+07 1.03046E+08 2.05373E+07 2.50526E+06-4.43891E+05 2.26325E+06
 -1       282 3.18871E+07 1.01035E+08 2.06704E+07-5.56481E+06 3.49539E+06-5.16674E+06
 -1       283 5.25669E+07 9.93712E+07 1.64218E+07 1.36374E+07-4.45294E+06-5.34619E+06
 -1       284 7.39909E+07 2.44207E+08 3.02304E+07 6.41596E+07 8.67522E+05 5.79202E+06
 -1       285 1.13007E+08 3.66829E+08 6.97724E+07 2.79481E+07 2.14549E+06-3.54169E+06
 -1       286 1.16622E+08 3.98434E+08 8.09324E+07-3.63469E+06-2.03169E+06-2.49004E+06
 -1       287 8.53358E+07 3.51138E+08 6.82542E+07-3.86871E+07-1.02676E+07 1.39135E+07
 -1       288-7.27621E+06 5.04336E+07-9.73291E+06 1.73110E+07 1.15062E+07-1.32850E+06
 -1       289-4.46543E+06 5.47165E+07-1.39964E+07 1.06315E+07 8.11343E+06 2.48570E+06
 -1       290 3.27419E+06 6.18754E+07-1.60744E+07 4.05540E+06 7.18042E+06-3.63140E+06
 -1       291 2.40224E+06 6.35873E+07-1.52288E+07-3.62250E+06 6.50017E+06-4.14279E+06
 -1       292 1.49393E+07 6.75991E+07-9.98481E+06-1.00651E+07 6.91829E+06 4.93548E+06
 -1       293 3.57869E+07 5.60217E+07-1.69622E+07-4.84933E+06 1.24288E+07-4.49588E+06
 -1       294 5.99529E+07 5.28004E+07-2.06708E+07 1.45658E+07 5.84104E+06 1.41113E+06
 -1       295 1.03573E+08 1.50504E+08-1.38444E+07 8.92888E+07 3.29918E+07 3.06337E+07
 -1       296 4.08297E+07 2.52613E+08-3.55660E+07 1.09965E+08 2.21722E+07 4.76543E+06
 -1       297 6.26075E+06 2.46126E+08-5.27785E+07 7.74830E+07 1.21334E+07 9.27101E+06
 -1       298 1.93678E+07 2.51353E+08-5.33615E+07 5.24721E+07 2.06416E+07-6.51312E+05
 -1       299 2.07836E+07 2.56690E+08-5.01725E+07 2.20121E+07 2.44104E+07-1.72791E+06
 -1       300 7.79903E+06 2.42064E+08-5.66055E+07-5.38851E+06 3.21360E+07 9.99625E+06
 -1       301-3.56882E+06 2.32940E+08-5.30181E+07-2.69153E+07 3.05161E+07-6.34838E+06
 -1       302-1.50204E+07 2.20615E+08-5.03504E+07-4.74051E+07 2.81238E+07 7.86452E+06
 -1       303-2.47847E+07-4.74232E+06-7.03470E+06 3.16156E+07-1.59275E+07 5.99646E+06
 -1       304-2.01503E+07 5.20630E+07-3.98096E+06 1.34190E+07-2.97268E+06-2.29696E+06
 -1       305 1.08894E+07 3.48385E+07-3.25007E+06-1.72920E+07-7.90887E+06-9.89886E+06
 -1       306 1.26059E+07 1.00956E+07-1.69631E+07-1.67865E+07-7.75971E+06 8.27973E+06
 -1       307 1.29500E+07 2.15539E+08-4.18720E+06 7.33701E+07-3.29996E+07 7.03942E+06
 -1       308-2.38768E+07 2.16824E+08-1.08995E+07 5.01420E+07-3.99693E+06 1.72067E+06
 -1       309-4.40128E+07 1.54682E+08-3.28738E+07-2.82267E+07-1.05790E+07 9.72239E+05
 -1       310-5.78748E+07 8.50143E+07-1.25104E+07-6.89946E+07-3.03188E+07-1.10908E+07
 -1       311-1.28764E+06-3.46943E+07 3.51281E+06 1.04505E+07 2.46760E+06 1.41304E+07
 -1       312-9.11449E+06-3.62593E+07 6.23055E+06 2.26219E+07 1.32956E+07-1.19886E+07
 -1       313-3.58259E+07-4.90773E+07 5.09766E+05 4.37707E+07 1.20196E+07 1.84700E+06
 -1       314-4.87088E+07-2.36419E+07-3.87526E+06 5.58104E+07 7.61188E+06 3.71858E+05
 -1       315-5.44266E+07 3.17663E+07 2.13838E+06 4.52070E+07 2.45355E+07-1.15028E+07
 -1       316-4.43711E+07 2.71089E+07-9.78972E+04-1.52184E+07 8.23397E+06-5.93078E+06
 -1       317 1.40910E+07 2.30943E+07 1.13997E+07-2.84471E+07 1.34067E+07-6.36530E+06
 -1       318 3.30191E+07 3.01881E+07 2.09933E+07-1.91322E+07 7.76290E+06-8.15248E+06
 -1       319 1.98744E+07 1.82366E+07 1.62738E+07-1.60799E+07 1.97694E+06-6.83915E+06
 -1       320-1.28524E+07 1.22811E+08 1.21905E+07 7.65293E+07 3.13583E+07 2.94893E+07
 -1       321-3.39516E+07 1.56253E+08 2.46025E+07 7.88166E+07 5.98750E+07 1.47465E+07
 -1       322-8.06159E+07 1.93377E+08 3.08869E+07 3.33570E+07 2.14986E+07 1.10234E+07
 -1       323-9.43665E+07 1.28112E+08 8.52793E+06-1.98525E+07 2.01849E+07 4.24892E+06
 -1       324-1.01916E+08 7.00124E+07-1.00882E+07-6.62763E+07 2.05623E+07-9.92616E+06
 -1       325-1.05261E+08 2.04052E+07 9.51155E+06-8.30372E+07 2.79054E+07 6.54902E+06
 -1       326-1.32145E+08-4.71318E+07 1.75002E+07-1.06339E+08 2.06357E+07-1.26061E+07
 -1       327-1.47388E+08-1.10116E+08 2.00722E+06-8.80997E+07 3.50550E+07 3.96812E+07
 -1       328-8.86093E+07-1.19815E+08 2.21606E+07-6.71856E+07 1.94185E+07-5.27944E+07
 -1       329-4.75268E+06-4.83220E+07-7.05228E+06 8.27630E+06 8.22052E+05-5.57535E+06
 -1       330 4.15225E+06-5.11888E+07 3.57037E+06 3.71556E+07 2.63746E+06 5.91258E+06
 -1       331 3.20475E+06-1.61520E+07 2.47349E+07 1.07616E+08 1.63101E+07 1.10525E+07
 -1       332-1.09595E+08 9.31821E+07-1.01434E+07-2.74190E+07 8.65363E+06 4.55216E+07
 -1       333-1.53259E+08 6.50829E+06 4.28272E+07-1.10055E+08 4.92513E+06 1.09923E+07
 -1       334-1.67132E+08-1.17877E+08-1.07497E+07-1.45728E+08-2.70494E+06 3.16630E+06
 -1       335-1.20560E+08-1.68680E+08-5.83040E+06-9.48389E+07-2.62176E+07-1.98891E+07
 -1       336 5.42410E+07 2.10937E+07 2.10937E+07 2.09414E+06 3.24854E+01-4.50102E+06
 -1       337 4.77208E+07 1.03811E+07 7.04472E+06 1.45863E+06-1.63397E+06 6.57963E+03
 -1       338 3.38511E+07-5.03880E+06-1.03802E+07-1.14030E+06-5.22335E+06 2.04082E+06
 -1       339 3.33805E+07 1.58798E+06 1.58212E+06-8.70276E+05 4.99002E+06 9.68639E+03
 -1       340 2.22720E+07-1.89885E+07 2.94892E+06 4.05364E+06 5.15533E+06-9.14707E+06
 -1       341 1.60751E+07-5.64345E+07-5.68657E+06 1.85384E+07-8.00291E+06 7.19817E+06
 -1       342 2.91509E+07-9.30610E+07-8.69627E+06 3.09843E+07-2.25676E+07-5.22454E+06
 -1       343 3.59231E+07-1.04007E+08 9.65436E+06 7.36708E+07 4.12934E+07-1.46657E+07
 -1       344 9.36581E+06-1.59089E+08 6.31449E+06 1.24318E+08 4.49187E+07 1.17504E+07
 -1       345-1.20230E+08 4.11485E+07-3.25514E+07-4.69532E+07 3.76584E+07 5.35471E+07
 -1       346-2.22107E+08-5.24492E+06 1.56323E+07-7.92934E+07 1.78814E+07-3.88795E+07
 -1       347-2.41186E+08-2.15126E+08 4.12228E+07-1.57816E+08 3.24298E+07-1.26014E+07
 -1       348-2.11927E+08-1.90548E+08 7.00599E+06-1.74149E+08 9.04795E+07-1.83451E+07
 -1       349-1.96913E+08-2.12814E+08-4.43153E+07-1.73852E+08-7.33283E+07 4.05803E+07
 -1       350-1.04050E+08-1.48191E+08-5.26236E+05-1.52160E+08-4.24217E+06-2.23186E+07
 -1       351-8.49439E+07-1.38476E+08 7.23666E+06-1.27467E+08 9.58327E+06-6.44367E+06
 -1       352 5.90471E+07-6.38937E+07-2.10732E+07-7.14999E+07 2.02862E+07 4.09691E+07
 -1       353 2.24051E+08-3.10189E+07-5.51778E+07-3.26441E+07-1.13780E+07-4.39734E+07
 -1       354 3.63167E+08 8.39818E+07 7.05883E+07-3.64788E+07-1.13980E+07 6.62566E+06
 -1       355 3.98406E+08 1.54936E+08 1.54936E+08-2.11752E+07 1.97272E+02 4.08290E+07
 -1       356 5.44852E+07 2.11887E+07 2.11887E+07 8.35345E+05-1.55637E+01 3.10337E+06
 -1       357 3.46414E+07-2.95264E+05-6.77982E+06-4.18698E+06 1.57281E+06 1.65472E+06
 -1       358 3.15165E+07-1.25904E+07 5.76413E+06-6.91902E+06-5.77157E+06 7.30831E+06
 -1       359 4.05703E+07-7.04642E+07-3.68416E+06-1.53314E+07 2.88225E+07-7.76043E+06
 -1       360-3.29522E+06-4.23319E+08-5.75328E+07 6.77675E+05 2.38006E+07-9.04772E+06
 -1       361-6.30614E+08-1.00792E+09-1.79427E+08 2.49319E+08 7.18304E+06 8.95239E+07
 -1       362-1.94337E+08-1.11301E+08 2.53131E+07-1.33468E+08 6.55682E+07-8.69268E+07
 -1       363 1.66758E+07-1.40550E+08 2.94576E+06-1.36517E+08-1.31768E+07-4.32718E+07
 -1       364 2.32039E+08-1.51494E+07-5.33386E+07-7.99817E+06 8.20112E+06-2.54888E+07
 -1       365 4.52507E+08 1.75975E+08 1.75975E+08-8.47669E+06-1.89446E+02-2.90981E+07
 -1       366 5.08516E+07 1.97757E+07 1.97757E+07 2.62927E+05-5.09874E+00 2.94901E+06
 -1       367 4.30042E+07 1.19181E+07 8.20532E+06-3.84899E+06 3.38555E+05 8.34699E+05
 -1       368 3.33720E+07 2.30307E+06-4.35682E+06-7.83147E+06 1.52527E+06 4.43702E+06
 -1       369 2.59596E+07-1.00820E+07-3.27712E+06-1.23610E+07-7.89869E+05-2.19326E+06
 -1       370 1.51816E+07-2.28260E+07-3.24030E+06-1.37533E+07 1.13292E+07-5.53188E+06
 -1       371 1.15698E+07-1.23062E+07-6.69257E+05-2.69815E+07-1.37519E+07 8.92633E+06
 -1       372 3.23277E+07 5.85345E+05 9.38941E+06-5.79227E+07-3.69386E+06-1.56851E+07
 -1       373 6.27415E+07-2.24569E+08-7.42424E+06-1.29430E+08-2.34542E+07-3.76974E+07
 -1       374 1.15839E+07-2.70678E+08-2.15036E+07-7.75838E+07 5.38035E+07-3.65992E+06
 -1       375 1.86881E+07-1.84270E+07 1.03627E+07-1.34254E+07 4.76151E+06 1.83788E+07
 -1       376 6.03479E+05 1.32284E+07-5.68489E+06 3.32820E+06-1.50217E+06 7.13053E+06
 -1       377-1.25912E+06 8.30619E+06-3.73061E+06-1.54502E+06 1.81133E+06 2.46926E+06
 -1       378-5.58046E+06-4.63372E+06-1.94440E+06 2.20497E+06-4.25122E+05 3.17555E+06
 -1       379-4.54877E+06-5.14819E+06 4.00942E+06 2.34624E+06 1.07217E+06-2.01958E+06
 -1       380-5.09313E+04-8.04031E+06 9.19706E+06-1.13908E+06 5.84605E+05-3.93665E+06
 -1       381 2.17660E+06 1.81025E+07-9.95069E+06-4.93507E+06 4.31305E+06-1.06317E+07
 -1       382 1.53938E+06 2.11326E+07-4.89200E+07-1.94983E+07-4.67583E+06-1.88973E+07
 -1       383-7.75847E+07-6.09033E+07 5.38031E+07 6.01154E+07 6.50846E+06-1.94453E+07
 -1       384-5.94250E+08-7.13738E+08-1.03415E+08 3.76647E+08 1.41719E+08-1.07849E+08
 -1       385-8.66067E+08-6.42317E+08-1.51791E+08 3.42324E+08-7.31945E+07 1.67087E+07
 -1       386-3.58653E+08-1.68916E+07 4.62231E+07-8.16283E+07 6.00077E+06-1.41668E+07
 -1       387-7.35888E+07-3.89566E+07 4.69084E+07-1.74953E+08-5.13552E+07-5.77298E+07
 -1       388 1.27475E+08-1.84587E+08-1.05248E+07-1.03717E+08 7.94042E+06-3.49399E+07
 -1       389 2.14524E+08-7.12656E+07-1.66083E+07-1.51877E+07-2.09290E+06 3.60121E+06
 -1       390 2.41087E+08-4.55178E+06-5.26786E+07 1.87330E+07-6.77240E+06-2.87986E+07
 -1       391 3.84496E+08 1.08936E+08 7.87070E+07 9.12119E+06 9.24223E+06 4.98003E+06
 -1       392 4.79489E+08 1.86468E+08 1.86468E+08 1.65957E+06 9.72599E+01-2.75810E+07
 -1       393 4.35122E+07 1.69214E+07 1.69215E+07-1.06972E+06 2.23629E+01 4.66163E+06
 -1       394 2.33807E+07-2.45517E+06-4.97254E+06-1.44397E+07-1.54394E+06-4.96214E+05
 -1       395 2.42280E+07-7.90505E+06 3.27253E+06-1.31226E+07 4.43167E+05 1.51985E+06
 -1       396 1.83203E+07 1.86912E+07 5.94714E+06-1.75365E+07 9.17942E+05 4.06395E+06
 -1       397-4.17236E+06-5.57509E+07 1.04890E+07-9.68644E+06-1.38104E+07-3.01347E+06
 -1       398-9.78030E+06-8.58684E+06-8.88457E+06 4.33427E+06-4.32312E+06 3.82554E+06
 -1       399-2.68441E+06-2.02421E+06-1.03692E+06-7.70815E+04-2.52555E+05 2.00944E+06
 -1       400-4.47498E+06-2.15972E+06 6.14776E+06 1.71080E+06 1.11039E+06 3.18479E+05
 -1       401-2.85755E+06-1.62483E+07-3.12573E+07-4.69876E+06-8.97341E+06 5.07742E+06
 -1       402-5.44396E+07-1.12014E+08 5.41011E+07 5.83044E+07 4.86219E+06-2.78631E+06
 -1       403 1.44232E+08-1.36440E+08 1.07158E+07 4.12819E+07-5.35446E+06-6.08016E+07
 -1       404 2.59891E+08-2.33996E+07-5.74368E+07 5.87920E+07-1.03179E+07-1.62556E+07
 -1       405 4.16203E+08 1.61857E+08 1.61857E+08 4.57157E+06 8.07966E+01-4.92708E+07
 -1       406 3.00696E+07 1.16938E+07 1.16937E+07-2.50965E+06 1.93678E+01-4.02212E+06
 -1       407 2.07925E+07 3.65238E+06 3.18582E+06-1.13640E+07 6.68698E+06-2.27324E+06
 -1       408 1.25545E+07-1.35390E+07-7.59316E+06-1.98634E+07-2.00414E+06 5.35353E+06
 -1       409 2.71272E+07-9.33763E+06 5.74366E+05-1.85946E+07 1.72878E+06 2.41475E+05
 -1       410 3.23034E+07-6.34290E+06 5.77301E+06-1.42228E+07-9.25973E+06-3.18581E+06
 -1       411 1.22463E+07-8.26610E+06-4.13647E+06-8.17824E+06 5.54121E+06 3.83200E+06
 -1       412 8.52618E+06 9.55197E+06-3.94407E+06-7.21621E+06-1.02522E+07 5.47160E+06
 -1       413-6.84953E+06-6.84293E+04-1.39939E+07 4.37497E+06-4.14727E+05-2.24979E+05
 -1       414 3.38269E+06 1.05031E+07-2.61496E+06-3.14316E+06-6.63116E+06 1.28228E+06
 -1       415 7.02279E+05-8.50946E+06 2.65512E+06-2.89791E+06 2.25092E+06 5.73904E+05
 -1       416-2.06436E+06-3.37540E+06 1.39412E+06 9.79847E+05 1.80472E+05 8.91291E+04
 -1       417-2.39586E+06-4.47865E+05 5.30891E+05 1.80928E+05-6.02801E+05 1.69347E+06
 -1       418-3.47407E+06-1.78156E+05-2.39523E+06 7.51686E+05-1.12657E+06 1.58210E+06
 -1       419-3.42982E+06-5.97053E+05-4.32430E+06 1.57762E+06-1.09549E+06 2.71951E+06
 -1       420 2.81592E+06-3.60503E+06 8.01552E+06 2.48750E+06 1.18475E+06 6.07291E+05
 -1       421-1.78233E+07-2.23052E+07 1.36454E+07 1.49081E+07 8.10162E+06-6.53565E+06
 -1       422-1.05839E+07 6.21155E+06-2.79778E+07-1.28458E+06-9.15425E+06 6.57962E+06
 -1       423 1.15571E+07 9.56471E+05-5.24478E+07-1.99439E+07 1.61358E+07 4.10723E+06
 -1       424 1.31432E+08-6.15141E+07 3.11778E+07 6.46035E+07-3.70084E+07-4.54455E+07
 -1       425 2.44189E+08-1.29106E+07 6.35828E+06 5.81294E+07-2.91585E+07 3.77355E+07
 -1       426 2.82836E+08 3.79127E+06-4.81447E+07 1.14707E+08-3.13935E+06-3.27702E+07
 -1       427 2.87662E+08 7.55584E+07 3.75015E+07 7.37567E+07-2.04381E+06-2.42207E+06
 -1       428 3.13451E+08 1.21898E+08 1.21898E+08 1.09098E+07-6.67791E+01 9.13643E+06
 -1       429-1.01055E+07-3.92983E+06-3.92990E+06-9.45578E+05-2.20047E+01-4.88304E+06
 -1       430 2.01358E+07-2.52944E+07 2.75387E+06-2.87580E+07 3.35085E+06-7.09758E+06
 -1       431 1.63413E+07-1.44705E+07-9.09490E+06-1.45110E+07 3.90667E+06 1.30868E+07
 -1       432-2.00355E+06 2.37751E+06 1.86621E+05 3.94838E+06 1.53536E+06-2.93382E+05
 -1       433 2.47060E+06 3.62531E+06 1.80142E+06-2.21288E+06-2.31455E+05 1.65300E+05
 -1       434-1.01667E+06-6.35389E+05 3.05634E+05 8.19074E+04-1.67417E+06 1.98613E+06
 -1       435-3.07067E+06-2.66170E+06-1.61650E+06 1.55365E+06-1.74792E+06 1.65277E+06
 -1       436-9.25744E+05 5.16298E+06 8.59294E+06 3.82390E+06-1.23579E+05-6.57945E+05
 -1       437 1.38656E+07 3.27912E+06-8.62179E+06-7.27647E+06 1.02319E+07-3.45445E+06
 -1       438 1.50953E+08 6.33253E+07-2.96333E+07 1.33232E+08-4.38943E+07-2.94558E+07
 -1       439 1.95049E+08 7.58524E+07 7.58525E+07 7.90263E+06 1.85741E+02 7.55422E+06
 -1       440-6.09337E+07-2.36964E+07-2.36965E+07-1.33570E+06 2.13167E+01-3.45371E+07
 -1       441-2.85925E+07-2.84172E+07-8.10571E+06-3.57207E+07 3.98003E+06 4.62219E+06
 -1       442 2.25072E+07-3.94257E+07 1.09769E+07-5.49168E+07-5.38591E+06-1.29345E+06
 -1       443 5.22690E+07-2.85534E+06 1.28221E+07-1.02681E+07-2.88844E+06-1.94267E+06
 -1       444 2.45853E+07-4.95386E+06-1.22447E+07-3.78745E+06-3.29644E+06 3.35635E+05
 -1       445 2.50099E+06 6.55388E+06 6.06222E+06-2.12247E+06-2.15192E+06 8.26230E+05
 -1       446 1.41243E+06 1.03681E+06 3.65037E+06-6.23778E+05-2.36559E+06 6.74316E+05
 -1       447 9.02756E+04 1.23149E+06-2.41794E+06-7.74982E+05-3.00068E+06 1.97212E+05
 -1       448-3.05790E+05-1.07045E+05-9.89919E+05-7.22836E+05-2.84048E+06 1.11861E+06
 -1       449-2.33118E+04-1.76247E+05 2.34540E+05-1.06220E+05-2.41142E+06 1.54006E+06
 -1       450-9.06209E+05-7.94550E+05 5.85694E+05 3.68550E+05-2.48800E+06 1.46267E+06
 -1       451-5.23611E+05-7.24770E+05 1.13292E+06 4.78877E+05-2.58698E+06 1.85192E+06
 -1       452-2.34600E+06-2.96026E+06-1.85883E+06 1.73098E+06-2.67243E+06 1.17974E+06
 -1       453-9.66817E+05-2.76070E+06-5.02400E+06 1.45730E+06-3.89903E+06 9.86955E+05
 -1       454-1.05113E+06-4.15807E+06 7.01025E+06 1.85366E+06-1.25192E+06-1.11432E+06
 -1       455-3.77822E+06 4.11749E+06 1.12083E+07 9.66063E+05 1.57043E+06-1.41107E+06
 -1       456 4.77266E+07 5.82338E+07-2.11935E+07 9.71557E+07-1.47638E+07-9.15694E+06
 -1       457 7.22758E+07 4.04751E+07 6.13911E+06 4.83429E+07 1.54056E+06 5.43696E+06
 -1       458 1.03669E+08 4.03158E+07 4.03159E+07 1.01588E+06-1.91771E+01-2.94898E+07
 -1       459-1.33626E+08-5.19658E+07-5.19659E+07-6.16164E+06 1.67324E+02 1.02892E+07
 -1       460-1.10470E+08-7.35317E+07 1.04520E+07-1.20864E+08-3.97778E+07-2.43397E+07
 -1       461 3.34678E+06 3.12660E+06-2.88624E+06-3.53135E+06 2.75930E+06-7.44452E+05
 -1       462 2.16985E+05 2.46565E+06 1.71286E+06-1.01887E+06-2.41040E+06 7.43662E+05
 -1       463 5.53752E+05 6.15291E+05-4.11451E+05-5.88307E+05-2.14684E+06 1.67422E+06
 -1       464-4.10669E+05-6.81193E+05 4.07301E+05 5.51612E+05-2.12160E+06 1.71394E+06
 -1       465-3.34890E+05-2.69078E+06-1.75398E+06 8.01668E+05-2.50248E+06 7.90080E+05
 -1       466-3.18134E+06-3.50743E+06 2.57007E+06 3.54622E+06 2.16304E+06-7.25318E+05
 -1       467 1.63198E+07 4.96560E+07-4.34117E+06 5.64919E+07-4.46486E+06-1.46107E+07
 -1       468 3.82228E+07 1.48643E+07 1.48644E+07 1.34685E+06-2.02927E+01-2.57674E+06
 -1       469-2.33133E+08-9.06630E+07-9.06631E+07-7.57809E+06-1.00884E+02 1.07611E+07
 -1       470-2.25073E+08-6.31626E+07-2.65905E+07-7.08936E+07-3.42625E+06-2.26304E+06
 -1       471-2.46251E+08-2.82950E+07 3.13579E+07-1.20177E+08-6.24293E+06-2.08176E+07
 -1       472-2.19175E+08-1.27157E+07 6.03104E+05-7.29229E+07-7.07511E+06 3.19065E+07
 -1       473-1.24370E+08 1.19139E+07-8.65378E+06-7.30342E+07-2.81998E+07-2.96251E+07
 -1       474 5.59875E+06-3.03746E+06-1.14032E+07-1.11614E+05 2.55515E+06-1.04227E+06
 -1       475 1.31392E+06 3.86351E+06-7.24591E+06-1.86174E+06-1.19016E+06-1.25088E+06
 -1       476 7.14331E+05 2.78238E+06 5.08717E+06-1.70354E+06-3.72742E+06 9.30108E+05
 -1       477 2.58243E+06 2.93435E+06 1.91841E+06-1.75579E+06-2.62101E+06 1.19691E+06
 -1       478 6.91082E+05 5.90534E+05-1.17211E+06-5.17376E+05-2.61328E+06 1.82229E+06
 -1       479 1.02325E+06 7.00433E+05-6.07758E+05-4.11179E+05-2.51990E+06 1.43892E+06
 -1       480 1.19005E+05 1.48464E+05-2.21507E+05 6.69049E+04-2.43175E+06 1.57260E+06
 -1       481 3.40083E+05 2.79886E+04 9.94554E+05 6.64163E+05-2.87852E+06 1.16642E+06
 -1       482 1.87075E+05-1.29782E+06 2.48762E+06 6.68467E+05-3.09018E+06 2.86393E+05
 -1       483-1.44331E+06-9.62729E+05-3.63858E+06 6.06668E+05-2.50274E+06 6.31724E+05
 -1       484-3.31263E+06-7.09339E+06-6.17584E+06 2.20432E+06-2.64284E+06 1.01711E+06
 -1       485-1.67780E+07-3.95729E+06 4.61647E+05 4.79261E+06-2.31015E+06-2.18000E+04
 -1       486-2.75065E+07-2.41593E+06-2.62771E+06 8.20808E+06 7.99976E+05-3.20696E+06
 -1       487-1.71449E+07 1.79421E+07 5.45678E+06 2.03851E+07-6.55774E+06 5.77967E+06
 -1       488-1.21459E+07 2.86099E+06 1.70208E+04 1.44877E+07 8.43564E+06-1.46408E+06
 -1       489-1.09346E+07-4.25242E+06-4.25232E+06 2.86656E+06 5.45559E+01-1.30975E+07
 -1       490-3.38911E+08-1.31799E+08-1.31799E+08-3.93845E+06 1.45989E+02-2.59340E+07
 -1       491-2.39772E+08-4.72245E+05 4.95868E+07-8.27854E+07-7.78649E+06-1.00222E+07
 -1       492-1.52210E+08 3.40817E+07-2.12798E+07-7.85893E+07-1.31137E+07-6.04954E+07
 -1       493-1.52468E+07-2.78884E+06 9.72501E+06 6.44234E+06 1.04968E+07-3.79184E+06
 -1       494 1.94951E+06-4.40860E+06-8.48192E+06-3.39769E+06-4.82285E+05-1.04125E+06
 -1       495 3.19637E+06 2.51485E+06 1.66407E+06-1.61677E+06-1.73288E+06 1.70088E+06
 -1       496 1.15418E+06 6.43221E+05-3.09480E+05-9.78226E+04-1.71528E+06 2.04183E+06
 -1       497-2.61565E+06-3.84481E+06-1.90042E+06 2.30075E+06-1.50039E+05 1.62002E+05
 -1       498 2.35501E+06-2.34791E+06-1.18277E+04-4.18014E+06 1.29158E+06-3.04680E+05
 -1       499-1.59816E+07-2.35477E+06-3.28928E+05 1.19341E+07-1.09213E+06 8.26405E+06
 -1       500-2.29920E+07 2.79793E+06 3.33560E+06 1.39737E+07-4.72487E+05 4.22780E+05
 -1       501-2.90986E+07-1.13161E+07-1.13161E+07 1.45163E+06 2.68643E+01-7.35099E+05
 -1       502-4.20301E+08-1.63451E+08-1.63451E+08-2.06990E+06-5.36920E+01-8.23622E+06
 -1       503-3.57036E+08-1.09639E+08-6.79293E+07-3.08401E+07 5.31232E+06-1.45535E+06
 -1       504-2.42867E+08-1.58323E+07 5.30440E+07-5.72770E+07 2.21195E+04-2.18724E+07
 -1       505-2.11763E+08 2.32976E+07 1.03486E+07-5.39488E+07-1.25525E+06 4.28079E+06
 -1       506-1.88359E+08 7.46342E+07-3.10846E+07-3.65173E+07-1.36368E+07-1.84215E+07
 -1       507-8.61713E+07 1.05688E+08 1.19522E+07 2.26959E+07-3.98726E+07-1.16691E+07
 -1       508-4.10825E+07 1.07713E+08 3.08727E+07 4.42607E+07-5.38108E+07-3.66122E+07
 -1       509-1.49463E+07-7.92564E+05 5.31927E+07 1.98436E+07 1.72365E+07 4.33211E+06
 -1       510 1.31308E+07-2.56747E+06 3.01975E+07 2.60131E+06-7.79638E+06 7.50876E+06
 -1       511 1.96260E+07 2.04582E+07-1.42059E+07-1.50226E+07 7.30597E+06-7.43628E+06
 -1       512-3.70533E+06 2.51530E+06-8.58027E+06-3.03453E+06 8.33638E+05 2.24384E+05
 -1       513 3.54764E+06 9.40497E+05 4.55216E+06-1.43099E+06-1.13497E+06 2.89511E+06
 -1       514 3.82334E+06 3.64521E+05 2.58164E+06-6.19013E+05-1.14816E+06 1.67889E+06
 -1       515 2.52624E+06 2.05063E+05-6.24721E+05-1.50870E+05-6.59850E+05 1.79334E+06
 -1       516 2.29814E+06 3.51765E+06-1.41010E+06-1.13337E+06 2.13350E+05 1.41279E+04
 -1       517-1.14801E+06 8.90508E+06-2.75944E+06 2.85855E+06 2.40697E+06 4.39317E+05
 -1       518-3.81420E+06-1.12736E+07 2.46247E+06 3.43622E+06-6.99206E+06 1.51758E+06
 -1       519 7.98323E+06 2.64119E+05 1.47120E+07-4.37105E+06-7.74960E+05-1.53922E+05
 -1       520-5.39054E+06-1.09011E+07 4.22362E+06 8.49576E+06-8.77932E+06 3.89212E+06
 -1       521-5.49926E+06 4.06018E+06 5.66120E+06 9.86794E+06 6.69996E+06 4.36763E+06
 -1       522-2.37735E+07-5.96798E+06-4.98466E+06 1.31200E+07-7.31127E+06-7.30512E+05
 -1       523-2.45586E+07-2.31645E+06 5.19616E+05 1.32136E+07 1.44259E+04-2.06189E+06
 -1       524-2.49451E+07-1.23502E+06 5.41589E+06 1.21649E+07 5.32519E+05 3.88082E+06
 -1       525-3.62506E+07-1.04653E+07-6.70730E+06 6.48560E+06 1.23232E+06 3.07701E+05
 -1       526-4.36766E+07-1.69854E+07-1.69854E+07 7.03187E+05-1.98676E+01 2.50251E+06
 -1       527-4.63276E+08-1.80163E+08-1.80163E+08-2.49143E+06 8.44785E-02-3.86566E+07
 -1       528-2.50723E+08-1.98513E+07 5.00921E+07-2.76985E+07 1.14369E+06-2.37438E+07
 -1       529-1.24129E+08 8.83228E+07-1.02586E+07 1.32261E+07-3.02052E+06-2.09177E+07
 -1       530 6.10398E+06 2.00422E+08-1.74748E+07 7.28332E+07 3.81006E+07-1.66165E+07
 -1       531 5.64743E+07 9.82165E+07-5.66515E+07-5.93472E+07 1.08129E+07-4.33089E+06
 -1       532-3.99299E+05 1.42788E+07 3.06940E+07 3.36841E+06-8.15007E+06 6.45252E+06
 -1       533 4.75752E+06 1.81119E+06-6.31846E+06-1.78240E+06 1.00630E+06 3.39334E+05
 -1       534 2.68310E+06 2.07476E+06 1.05450E+06 4.97366E+04-2.06221E+05 2.13625E+06
 -1       535 1.06917E+07 9.13201E+06 9.35067E+06-4.66679E+06-4.54837E+06 4.22113E+06
 -1       536 3.33785E+06 5.86079E+07-1.12040E+07 9.46741E+06-1.51660E+07-3.33424E+06
 -1       537-1.32250E+07-2.31028E+07-7.25690E+06 1.56968E+07 1.25532E+06 2.50106E+06
 -1       538-2.02057E+07-6.49316E+05-3.49430E+06 1.24158E+07 2.31952E+06 3.10651E+06
 -1       539-2.95522E+07-2.87076E+06 6.19585E+06 9.66314E+06-5.13765E+05 9.45881E+05
 -1       540-5.37798E+07-2.09144E+07-2.09144E+07 3.20886E+05 1.53311E+01 5.21687E+06
 -1       541-4.83789E+08-1.88140E+08-1.88140E+08-1.85792E+06 1.23794E+02-3.45820E+07
 -1       542-3.97602E+08-1.17171E+08-8.10236E+07 4.40017E+05 2.51380E+06 1.95485E+06
 -1       543-2.40550E+08-9.58416E+06 5.61883E+07-4.87303E+05-8.96968E+06-3.30769E+07
 -1       544-1.50819E+08 4.44255E+07 3.27106E+07 1.96151E+07-1.29204E+06 1.04752E+07
 -1       545-6.37846E+07 1.04879E+08 1.02825E+07 5.62497E+07 1.55765E+07-1.85946E+07
 -1       546 4.40722E+06 1.48685E+08-3.91561E+07 9.48080E+07-1.83935E+07-7.33446E+06
 -1       547 2.18267E+08 2.25988E+08-3.84287E+07 1.23535E+08 6.76706E+06-1.38430E+07
 -1       548 9.17229E+08 6.97208E+08 1.69357E+08-2.73476E+08-8.83198E+07-6.04830E+06
 -1       549 6.32859E+08 6.67359E+08 9.27100E+07-3.63270E+08 1.25281E+08-1.22612E+08
 -1       550 9.07316E+07 5.79579E+07-5.67205E+07-5.96968E+07 5.05874E+06-1.41828E+07
 -1       551-7.48812E+05-1.68762E+07 5.22469E+07 1.97263E+07-4.48047E+06-1.83019E+07
 -1       552-2.19562E+06-1.64598E+07 1.02856E+07 5.81184E+06 4.02455E+06-1.06663E+07
 -1       553-1.24486E+06 6.02400E+06-9.99577E+06 2.68129E+05 9.74855E+05-3.22086E+06
 -1       554 4.85889E+06 4.86198E+06-4.18209E+06-2.41236E+06 1.07613E+06-1.69712E+06
 -1       555 6.19695E+06 5.42073E+06 2.09499E+06-2.30360E+06-5.97509E+05 3.46413E+06
 -1       556 1.44405E+06-8.50439E+06 4.01868E+06 1.77271E+06 1.84567E+06 2.53549E+06
 -1       557-5.25546E+05-1.40756E+07 5.81751E+06-3.30819E+06-1.53776E+06 7.40853E+06
 -1       558-2.21127E+07 1.87679E+07-1.09754E+07 1.35672E+07 5.10587E+06 1.97470E+07
 -1       559-2.46108E+07 2.77477E+08 1.79201E+07 7.15762E+07 5.51814E+07-7.82274E+06
 -1       560-5.94217E+07 2.37591E+08 9.23902E+06 1.30552E+08-1.95163E+07-3.12120E+07
 -1       561-1.64441E+07-5.60961E+06-9.13050E+06 5.99795E+07-6.27406E+06-2.06806E+07
 -1       562-2.68765E+06 8.21196E+06 7.42713E+05 2.54242E+07-1.59587E+07 7.74573E+06
 -1       563-1.25013E+07 1.89317E+07 3.14779E+06 1.23311E+07 1.08621E+07-4.37860E+06
 -1       564-2.69467E+07 5.06086E+06 3.44670E+06 1.08426E+07-6.88378E+05-1.69189E+06
 -1       565-3.61559E+07-5.00937E+06 6.27592E+06 6.19912E+06-3.83122E+04 4.74629E+06
 -1       566-5.08846E+07-1.57622E+07-9.76003E+06 3.14853E+06-8.49032E+04 1.21147E+04
 -1       567-6.05918E+07-2.35635E+07-2.35635E+07-7.93160E+04 2.57191E+00 3.19712E+06
 -1       568-4.52545E+08-1.75990E+08-1.75990E+08 7.90278E+06-1.59545E+02-2.98676E+07
 -1       569-2.32946E+08 2.56745E+06 5.34441E+07 2.02026E+07 6.74908E+06-3.16645E+07
 -1       570-1.89683E+07 1.05716E+08-8.86434E+06 7.52178E+07-1.02162E+07-3.03329E+07
 -1       571 1.86605E+08 2.28351E+08-1.29673E+07 1.57237E+08 3.85849E+07-8.78850E+07
 -1       572 6.54704E+08 1.00132E+09 1.76082E+08-2.61688E+08 1.30497E+07 7.87090E+07
 -1       573 2.38959E+07 4.33958E+08 5.80915E+07-2.20736E+07 3.33211E+07-1.33596E+07
 -1       574-2.89337E+07 7.02877E+07 1.15745E+06 1.62519E+07 3.46629E+07-5.04847E+06
 -1       575-2.70078E+07 1.08848E+07-5.09710E+06 5.31850E+06-6.69927E+06 8.25766E+06
 -1       576-3.75288E+07-8.74884E+05 8.04135E+06 3.64015E+06 1.78078E+06 2.93212E+06
 -1       577-6.25925E+07-2.43415E+07-2.43416E+07-6.94816E+05-1.34851E+01 3.44041E+06
 -1       578-4.02807E+08-1.56647E+08-1.56647E+08 1.97106E+07 1.53240E+02 3.19516E+07
 -1       579-3.60185E+08-8.84167E+07-7.07716E+07 3.46307E+07-1.45818E+07 9.76423E+06
 -1       580-2.20839E+08 1.61334E+07 5.23564E+07 3.94500E+07-1.05391E+07-3.03484E+07
 -1       581-8.28049E+07 5.41503E+07 1.42719E+07 6.20600E+07 1.33799E+07 2.75258E+07
 -1       582 5.26390E+07 1.32094E+08-1.33580E+07 1.03640E+08 1.01620E+07-1.89275E+07
 -1       583 1.20184E+08 1.89697E+08 6.48019E+06 1.46891E+08-5.81250E+06 1.64741E+06
 -1       584 2.14124E+08 2.48011E+08 3.39082E+07 1.81526E+08-4.67025E+07 4.84981E+07
 -1       585 1.86753E+08 2.32501E+08-1.66823E+07 1.69812E+08 9.54619E+07-3.88470E+07
 -1       586 1.94020E+08 2.85201E+08-3.84752E+07 1.53828E+08 2.35462E+07-1.37267E+07
 -1       587 1.73218E+08 3.86062E+07-3.39422E+07 9.70684E+07-8.40928E+06-3.44496E+07
 -1       588 1.05329E+08 1.27886E+07 1.92245E+07 4.52683E+07 3.13777E+07 3.22272E+07
 -1       589 5.15114E+07 5.15362E+06 5.22646E+06-2.36654E+07 7.93242E+06-5.81048E+06
 -1       590 8.95465E+07 2.36065E+07-4.57394E+06-4.88836E+07-2.86473E+06 1.13886E+07
 -1       591 8.20031E+07 1.17230E+08-6.08844E+06-1.12899E+08 2.84722E+07 1.11902E+07
 -1       592 7.60392E+06 1.10496E+08-6.81298E+06-7.83628E+07 4.06676E+07-1.96482E+07
 -1       593-1.75806E+07 1.05212E+08 6.64881E+06-3.49483E+07-2.15302E+07 2.31035E+06
 -1       594-9.49699E+06 6.00189E+07 3.94589E+06-2.08153E+07-8.70952E+06 6.18396E+06
 -1       595-1.58023E+07 1.69896E+07-2.18014E+06-6.55315E+06 3.75378E+06-7.53835E+06
 -1       596-3.18987E+07-3.53275E+06-1.28383E+06 9.33780E+05 5.21703E+06 2.94249E+05
 -1       597-3.70435E+07 4.42024E+06 1.06521E+07 1.90460E+06-5.84756E+06 2.58622E+06
 -1       598-5.44378E+07-1.23041E+07-8.79449E+06-1.48073E+06-2.60055E+06-2.80423E+05
 -1       599-6.17958E+07-2.40317E+07-2.40317E+07-2.17522E+06 3.12332E+01-3.36703E+06
 -1       600 1.18358E+08 1.67806E+08 3.18237E+06 9.80078E+07-3.56395E+07-3.18406E+07
 -1       601 1.66040E+08 1.39931E+08 1.97777E+06 1.55194E+08-1.97624E+06 4.52798E+06
 -1       602 1.24289E+08 4.84836E+07-3.26100E+07 1.32057E+08-1.01367E+06 1.89235E+07
 -1       603 9.48140E+07 1.90045E+07 2.96783E+07 5.06165E+07 1.43061E+07 4.04867E+07
 -1       604 3.07289E+07 1.86535E+06 4.25813E+06-2.40565E+07 7.32846E+05-2.14622E+07
 -1       605 4.06437E+07 1.52197E+07-1.39697E+07-7.10955E+07-7.12985E+06 7.92580E+06
 -1       606 7.01201E+06 5.83045E+07-2.61981E+06-3.80173E+07-6.39001E+06 6.73046E+06
 -1       607 1.15088E+07 5.30752E+07 8.31120E+06-1.37496E+07 2.00786E+06-5.16866E+06
 -1       608 1.10496E+08 1.14283E+08-2.58654E+07 7.98281E+07 3.09371E+07-3.01515E+07
 -1       609 1.63874E+08 1.30136E+08 1.97169E+06 1.05575E+08 3.51340E+07 3.69124E+07
 -1       610 1.24988E+08 7.55266E+07-1.57547E+07 1.18356E+08 2.25002E+07-8.79088E+06
 -1       611 9.34090E+07-8.65333E+06-6.87551E+06 1.05883E+08 3.43602E+07 1.12860E+07
 -1       612 7.81574E+07-7.68002E+07 1.10644E+07 1.01237E+08 1.58994E+07-6.85198E+06
 -1       613 4.24679E+07-1.06819E+08-7.94308E+06 7.92575E+07 4.51077E+07-6.74160E+06
 -1       614 3.92798E+07-1.10707E+08-1.05333E+07 7.25777E+07 4.41321E+07 5.75879E+05
 -1       615 1.95306E+07-2.76541E+07-1.37142E+06-2.87561E+07 1.60631E+07 7.40612E+06
 -1       616 1.67069E+07-2.45170E+07-4.09901E+05-3.58665E+07 1.14778E+07-4.23541E+05
 -1       617 1.29038E+07-1.77822E+07 1.28476E+06-4.64389E+07 1.10471E+07-7.73516E+06
 -1       618 2.64111E+07 2.01307E+07 2.39259E+06-4.26282E+07 4.57616E+06 2.36998E+06
 -1       619 3.19507E+07 3.98143E+07-3.83474E+06-3.72682E+07 1.52462E+07-1.95320E+05
 -1       620 1.11391E+07 3.60235E+07-7.27499E+06-2.53289E+07 1.80245E+07-1.57775E+07
 -1       621 9.04168E+05 4.26790E+07-4.82880E+06-1.49800E+07-6.38671E+06 1.82606E+07
 -1       622 6.08663E+07-6.85726E+07 1.90868E+07 6.69562E+07-3.50838E+07-6.16421E+06
 -1       623 3.49351E+07-1.76393E+08 2.77152E+07 4.63300E+07 4.46412E+06 1.92906E+06
 -1       624-1.48465E+07-3.46044E+08-1.56637E+07 3.46291E+07 7.57142E+06-2.95585E+06
 -1       625-4.79891E+05-9.43016E+07-3.16382E+06-1.94566E+07 8.38016E+06 1.49847E+06
 -1       626 8.52102E+06-3.99473E+07 7.87904E+06-2.61300E+07 2.58083E+06-2.68227E+05
 -1       627 2.56004E+07 9.40488E+05 7.68692E+06-2.66024E+07-1.31762E+07-2.12121E+06
 -1       628 1.81931E+07-2.33717E+08 5.40415E+07 4.50125E+07 3.78173E+07 5.09258E+06
 -1       629 6.01383E+06-2.38741E+08 5.40116E+07 2.40100E+07 3.12041E+07-5.47087E+06
 -1       630 6.47561E+06-2.40051E+08 5.85615E+07 1.02821E+06 3.65012E+07 6.32743E+06
 -1       631 1.88522E+07-3.01904E+08 6.33792E+07-2.95236E+07 2.14146E+07 5.56624E+05
 -1       632-1.42667E+06-3.53187E+08 6.20134E+07-9.33692E+07 3.49393E+07 1.14834E+07
 -1       633-4.69175E+07-1.81781E+08 5.14815E+07-1.46544E+08 3.69095E+07 5.36782E+07
 -1       634-8.45134E+07-7.48018E+07 2.51205E+07-1.10670E+08 1.47112E+07 1.46961E+07
 -1       635-9.26815E+07-5.24416E+07 1.11178E+07-4.37461E+07 3.13216E+07 2.60521E+06
 -1       636-6.42161E+07-4.41233E+07 3.44072E+06 1.48430E+07-2.93915E+06 6.63341E+06
 -1       637-2.22515E+07-5.75682E+07 1.74618E+07 3.36166E+07 1.14684E+07-1.48771E+07
 -1       638 5.94611E+05-1.01231E+08 1.76687E+07 1.94329E+07 9.54857E+06-3.20115E+06
 -1       639 7.27983E+06-8.22419E+07 1.72871E+07 3.48145E+05 7.49546E+06 1.68069E+05
 -1       640 5.30782E+06-5.71530E+07 1.61895E+07-7.26025E+06 9.21524E+06-2.30045E+06
 -1       641 2.43106E+06-5.52954E+07 1.27710E+07-1.32827E+07 8.88247E+06 5.51086E+05
 -1       642 2.24593E+06-5.36163E+07 1.00563E+07-1.95291E+07 1.06555E+07 3.01463E+06
 -1       643-9.02609E+07-3.72662E+08-7.24243E+07 4.15313E+07-8.52606E+06 1.22868E+07
 -1       644-1.21466E+08-4.19004E+08-8.93504E+07 1.19668E+06-1.08419E+07-9.70197E+06
 -1       645-8.55249E+07-3.51963E+08-4.18442E+07-6.81034E+07-3.55726E+06 5.62502E+06
 -1       646-6.26030E+07-1.14850E+08-1.48226E+07-5.45309E+07-1.01482E+07 6.74965E+06
 -1       647-3.15247E+07-4.94375E+07-5.78161E+06 4.25624E+06-1.51758E+06-1.23459E+07
 -1       648-2.49428E+07-1.02582E+08-1.27835E+07 1.64151E+07-1.97479E+06-3.45869E+06
 -1       649-3.13004E+07-1.09747E+08-2.41403E+07-4.14318E+06-3.44552E+06 3.22256E+06
 -1       650-2.19953E+07-8.78378E+07-1.85333E+07-1.44999E+07-2.86230E+06-2.49864E+06
 -1       651-1.57657E+08-4.05403E+08-1.57657E+08 2.16200E+07-4.23945E+07-2.09705E+02
 -1       652-1.83709E+08-4.72395E+08-1.83709E+08 9.20418E+06 2.78194E+07 2.34870E+02
 -1       653-2.02162E+08-5.19845E+08-2.02162E+08-1.10912E+06 3.18463E+07-1.14475E+02
 -1       654-1.81545E+08-4.66829E+08-1.81545E+08-3.84262E+06 5.07483E+07-8.65383E+01
 -1       655-1.49610E+08-3.84710E+08-1.49610E+08-1.00973E+07-1.52306E+07 4.84338E+00
 -1       656-1.00768E+08-2.59117E+08-1.00768E+08-9.81410E+06 3.68188E+06-2.01430E+02
 -1       657-6.37212E+07-1.63854E+08-6.37213E+07-1.05395E+06 4.42473E+07 3.62621E+01
 -1       658-3.80268E+07-9.77838E+07-3.80271E+07-1.15788E+06 1.93175E+06 1.93659E+01
 -1       659-2.52940E+07-6.50419E+07-2.52942E+07-2.48378E+06 2.68183E+07-7.50108E+01
 -1       660-3.16794E+07-8.14613E+07-3.16795E+07 1.98621E+06 3.22470E+06 5.15360E+01
 -1       661-4.35645E+07-1.12023E+08-4.35646E+07 2.59431E+06-5.01897E+06 1.39681E+01
 -1       662-5.00308E+07-1.28650E+08-5.00308E+07 9.01897E+05 1.42869E+07 1.00870E+01
 -1       663-5.36909E+07-1.38062E+08-5.36910E+07 4.09676E+05 9.54552E+06 4.12191E+01
 -1       664-4.58608E+07-1.17928E+08-4.58608E+07-2.82358E+06 7.10672E+06-7.11793E+01
 -1       665-3.61885E+07-9.30559E+07-3.61885E+07-6.07736E+06-1.28575E+07 4.67992E+01
 -1       666-6.64797E-05-1.70875E-04-6.65063E-05-1.88602E-05-1.06361E+07-4.99513E+01
 -1       667-2.35834E-05-6.04307E-05-2.37932E-05 1.05693E-06 7.24928E+06-1.62353E+01
 -1       668-3.97419E-06-1.00173E-05-4.19180E-06 2.45700E-06 8.84133E+06-4.32103E+01
 -1       669 1.12692E-05 2.92235E-05 1.10099E-05 1.03022E-06 3.20574E+07-1.86089E+01
 -1       670 1.16429E-05 3.26596E-05 8.92297E-06-1.43936E-06-3.04974E+06-3.42131E+01
 -1       671-9.04570E-06-2.11410E-05-1.12656E-05-3.62581E-06 6.81166E+06-6.18362E+01
 -1       672-3.66319E-05-9.22270E-05-3.86347E-05 4.47103E-06 3.17637E+07 7.16143E+01
 -1       673-7.58804E-05-1.95518E-04-7.51417E-05 2.90438E-05-3.78813E+07 1.99304E+02
 -1       674-3.05008E-08-1.37375E-04-6.78908E-06 3.60573E-06 1.17109E+07-1.53908E+06
 -1       675 8.48010E-06-6.20443E-05 4.28405E-06-3.65806E-06 7.25210E+06-3.72650E+06
 -1       676-1.64151E-06-8.85990E-06-2.94335E-06-1.35098E-05 6.92684E+06 4.78438E+06
 -1       677 2.56507E-05 2.29881E-05-1.16371E-05-1.79997E-05 5.57934E+06 8.28371E+05
 -1       678 2.87648E-05 3.40827E-05-2.22883E-05 1.91359E-05 2.14072E+07 4.26940E+06
 -1       679 7.30169E-06-2.67997E-05 7.62752E-06 9.81473E-06 2.06366E+07-7.25690E+05
 -1       680-1.14976E-05-9.96215E-05-4.45526E-05 2.01615E-05 3.21270E+07 1.01753E+07
 -1       681 2.77483E-05-1.31546E-04 8.49190E-05-6.32787E-06 2.86948E+07 8.17890E+06
 -1       682 3.22431E-05 1.13845E-05 1.55031E-05-9.73931E-06 2.27305E+06 1.43106E+07
 -1       683 5.62011E-05-3.92888E-05-1.11688E-05-3.23619E-05 1.21094E+07 1.72960E+06
 -1       684 1.60298E-05-1.43274E-04-2.75255E-05 1.36672E-05 2.52398E+07-1.17225E+07
 -1       685 3.72605E-05 1.32479E-05-1.55166E-05-1.66313E-05 1.39810E+07-6.38980E+06
 -1       686-6.68038E-06 2.33296E-06 1.79382E-05 8.81962E-07 2.95148E+06-6.76154E+06
 -1       687-3.17581E-06 1.43833E-05-5.91576E-06 7.74954E-06 3.30291E+07 2.97916E+07
 -1       688-7.96405E-06-2.29197E-05 4.20647E-05-5.37808E-06 2.28877E+07 1.11192E+07
 -1       689 2.14137E-05-1.22846E-04-9.88590E-05-7.16653E-07 2.30525E+07-9.34991E+06
 -1       690 6.95338E-05-6.58253E-05-3.72001E-05 2.99936E-05 2.16529E+07-1.17610E+07
 -1       691 6.09905E-05 9.17520E-05 1.50320E-04 1.00993E-05 1.92382E+07-5.25791E+07
 -1       692-9.33283E-05-3.64229E-05-3.67513E-05-1.28691E-05-1.76628E+01-4.81169E+06
 -1       693-8.32070E-05-7.21187E-06-8.93243E-06 3.51988E-06-5.15426E+06 2.05797E+06
 -1       694-4.00878E-05 3.29760E-05 1.83954E-06 2.76230E-06 5.05534E+06-8.95156E+06
 -1       695-9.02037E-05-4.27918E-05-1.02786E-05-3.26721E-05-2.27702E+07-4.83544E+06
 -1       696-3.57605E-06-3.42211E-04-4.59631E-05-1.02250E-05 4.54848E+07 1.24079E+07
 -1       697-6.19069E-05 8.73348E-06-3.58561E-04 2.29441E-05 3.74957E+07 5.65702E+07
 -1       698 2.00818E-05-2.99023E-04 2.53915E-04-5.51642E-05 3.55814E+07-1.27013E+07
 -1       699-1.05717E-04-4.51771E-05-8.10914E-06 4.46613E-05-7.26228E+07 3.97438E+07
 -1       700-4.85534E-05 6.14429E-05-1.98552E-05 8.62587E-06 8.80071E+06-7.45680E+06
 -1       701-1.27391E-04-8.54209E-06-2.63797E-06-7.91099E-06-1.15412E+07-4.45620E+07
 -1       702-1.84044E-04-9.85935E-05-1.67651E-04 1.27758E-05-2.19942E+02 4.26683E+07
 -1       703-2.73394E-05-1.06329E-05-1.06449E-05-1.79338E-06-1.04277E+01 2.70741E+06
 -1       704-2.19033E-05-2.48387E-06-3.24260E-07-4.08923E-06 1.61903E+06 4.42781E+06
 -1       705-2.15440E-05 1.08594E-06-1.33725E-05-8.31910E-06 1.12995E+07-5.40953E+06
 -1       706 2.15515E-05 4.95274E-05-5.73552E-05 2.50506E-05-3.84649E+06-1.52473E+07
 -1       707-1.59419E-04-5.05755E-04-1.22668E-04-2.06745E-04 3.12965E+07-3.04221E+06
 -1       708-4.53866E-05-6.65795E-06-1.41627E-04 3.38069E-05-2.79747E+06 4.82678E+06
 -1       709-1.95475E-04-2.09658E-04-6.80273E-04 1.14321E-06-4.44554E+06 3.61877E+06
 -1       710 2.66637E-05 4.77506E-05-1.28194E-04-1.33264E-05-1.20647E+07 1.45434E+06
 -1       711 1.12035E-04 1.72798E-04 3.84631E-04-1.65406E-05-1.91760E+06-2.84658E+07
 -1       712-3.22830E-05-5.55701E-04 2.55277E-04 2.74644E-04 7.96025E+07-5.28740E+07
 -1       713-7.01433E-05-2.89632E-05-2.39574E-04-9.27951E-05 7.36568E+06-1.74050E+07
 -1       714-4.16053E-06 6.54339E-05 1.04700E-04 9.43705E-06 7.25211E+06-3.71571E+07
 -1       715-3.77744E-05 1.70898E-07-1.68567E-05 1.00652E-06-6.93409E+06-2.88454E+07
 -1       716-7.53477E-05-4.37861E-05-8.10809E-05-6.12327E-06 1.24139E+01-2.55786E+07
 -1       717 9.17007E-06 3.44249E-06 3.15133E-06-6.12263E-06 6.77784E+01-4.14542E+06
 -1       718 1.32088E-05 6.17831E-07 3.82184E-06-1.22892E-05-1.75092E+06 5.34095E+06
 -1       719 4.37555E-05 4.24221E-05 3.11391E-06-2.77563E-05-9.35540E+06-3.16250E+06
 -1       720 1.01691E-05 1.20245E-05 2.72681E-05 6.23334E-06-1.04069E+07 5.34529E+06
 -1       721 3.14802E-05-4.63912E-05 2.43437E-05 5.18386E-06 6.45086E+06 2.39738E+06
 -1       722 1.27281E-05 1.66565E-06 1.30932E-04-2.24297E-05 1.02380E+07-1.24014E+06
 -1       723-4.58973E-07-1.56541E-05 2.96419E-05 5.50576E-06-5.11193E+05 1.65031E+06
 -1       724 1.82659E-06-3.50362E-05 4.47682E-05 2.02464E-05-2.12771E+06 4.32265E+06
 -1       725-1.02583E-04-9.77272E-05-5.05622E-06 3.95195E-05 2.62802E+07-2.00476E+07
 -1       726-9.14142E-05-1.80940E-04-5.39076E-04-3.56387E-05 3.00156E+07-8.22185E+04
 -1       727 7.82572E-05 7.45440E-05 1.58906E-04 5.41750E-06-3.69059E+07-4.78050E+07
 -1       728 3.41410E-05 2.35400E-05 5.78615E-06 1.63460E-05-2.81077E+06-3.21151E+07
 -1       729-8.23289E-06-1.27300E-05-3.75374E-05 2.59804E-06 6.22842E+01 1.12989E+07
 -1       730 1.01640E-05 3.69013E-06 2.94484E-06-2.03473E-05 5.72664E+01-3.42726E+07
 -1       731 3.24695E-05 1.50792E-05-6.30979E-06-1.66404E-05-4.60772E+06-1.30490E+06
 -1       732-2.30689E-06 1.28220E-06 4.79980E-06 8.57306E-06-3.57009E+06-2.27865E+05
 -1       733 1.29450E-05 1.15049E-06 5.55477E-05 8.62557E-06-5.03041E+06 4.56471E+05
 -1       734-9.93713E-05-9.41031E-05-2.72704E-04-7.84894E-06-3.65663E+06-2.23105E+05
 -1       735-7.99615E-05-4.40999E-05-2.27211E-04-9.50357E-06-2.33180E+06 1.23103E+06
 -1       736-1.02993E-04-6.04527E-05-2.42838E-04 8.85773E-06-3.07707E+06 2.47253E+06
 -1       737-2.16843E-04-2.07901E-04-7.05118E-04 1.23560E-05-6.06267E+06 1.81466E+06
 -1       738-1.30307E-04-5.72755E-05-1.60286E-04 1.51627E-05-5.94822E+06 8.61354E+06
 -1       739 5.01514E-06 4.91700E-06 1.80444E-05-5.21884E-06-1.36382E+07-8.30034E+06
 -1       740-3.82977E-06-5.71305E-06-1.66224E-05 1.27479E-05-1.30442E+01-2.86332E+07
 -1       741-3.04580E-05-1.16467E-05-1.12313E-05-1.84230E-05 6.05815E+01 1.25840E+07
 -1       742-6.01554E-05-4.12102E-05 2.24503E-06-2.88052E-05-5.52980E+06-2.00821E+07
 -1       743 1.13994E-05 4.73554E-05 4.75128E-05 1.19368E-05-2.85722E+07-3.10645E+07
 -1       744 1.22874E-04 1.31748E-04 4.84827E-04 5.72635E-06-3.97366E+06 1.03592E+07
 -1       745-2.99768E-05-6.87243E-05-1.91727E-04-2.30100E-05-5.60191E+06 1.96643E+06
 -1       746 5.53258E-05 5.78331E-05 2.12131E-04-2.23791E-06-3.13986E+06 2.41168E+06
 -1       747 3.16376E-05 1.52376E-05 9.75247E-05 6.88455E-06-2.33256E+06 1.24457E+06
 -1       748 3.32681E-05 2.21120E-05 5.20765E-05 1.71678E-05-3.76058E+06-2.81923E+03
 -1       749 1.31937E-04 1.29798E-04 4.12584E-04 1.92783E-05-5.56953E+06 1.08074E+06
 -1       750 6.87689E-06 3.11578E-06 4.39584E-07-8.57085E-06-2.35943E+06-3.91746E+04
 -1       751-3.22650E-05-2.95986E-05-3.19012E-06 1.92540E-05-6.15835E+06 5.71506E+06
 -1       752-2.45298E-05-9.21002E-06-8.26202E-06 9.41004E-06 9.29520E+01-1.31857E+07
 -1       753 2.02656E-06 3.53670E-07-9.22344E-07-8.68581E-06 8.08004E+01-6.12309E+06
 -1       754 6.33718E-06-7.29004E-06-1.56000E-05-2.06203E-05 1.73649E+05-2.18667E+07
 -1       755 3.14413E-05 4.29970E-05 2.06269E-04-3.20251E-05-1.37835E+07-1.97587E+07
 -1       756 4.24543E-06 8.79988E-05 2.57814E-04-1.03004E-05-5.67603E+07-3.64203E+07
 -1       757 3.88880E-05 1.25040E-04-1.00789E-04 2.17183E-05 2.94127E+07 4.39546E+05
 -1       758 2.73873E-05-5.96515E-06-1.25831E-04-1.75597E-05 2.37136E+07-2.29032E+07
 -1       759 1.19934E-04 1.56594E-04 5.92540E-04-1.01582E-05-1.97651E+06 4.81023E+06
 -1       760 2.40806E-05-6.50913E-06-1.22477E-04 2.09157E-06-6.89415E+05 1.75710E+06
 -1       761-3.49826E-05-2.42963E-05-1.36202E-04 2.81606E-05 1.08263E+07-1.82051E+06
 -1       762 4.00597E-05 1.32408E-04 1.37707E-04-4.77140E-06 6.41215E+06 2.54280E+06
 -1       763-1.08371E-06-1.55796E-05-1.83284E-05-1.11469E-05-8.97712E+06 3.80063E+06
 -1       764-4.50122E-05-4.24691E-05-3.15182E-06 2.85283E-05-7.35011E+06-6.55363E+05
 -1       765-1.65782E-05-5.99824E-06-1.23321E-05 1.38358E-05 6.38402E+05 3.85271E+06
 -1       766-5.16092E-06-1.99885E-07 4.45975E-06 4.27881E-06 3.03919E+01 2.28783E+06
 -1       767 6.35237E-05 2.51678E-05 2.64395E-05-8.97888E-06-7.00086E+01-3.24565E+07
 -1       768 5.71872E-05-7.66129E-07-3.85952E-06-1.59716E-05-9.10289E+06-3.30880E+07
 -1       769 7.50764E-05-1.88083E-05 2.28650E-05-1.47549E-05 1.50217E+07-2.10300E+07
 -1       770 1.48294E-04 7.03906E-05 1.26225E-04 5.45355E-05 6.54067E+06-1.70052E+07
 -1       771 2.82683E-04 5.84333E-04 4.17500E-04-2.64213E-04 6.34609E+07-6.46709E+07
 -1       772-4.11032E-04-4.79615E-04-1.21282E-03 3.44737E-05-1.10862E+06-2.95874E+07
 -1       773-2.19104E-04-1.36528E-04-5.59214E-04 2.21145E-05-1.04793E+07 3.20216E+06
 -1       774-4.96355E-05-2.47813E-05 1.65736E-05-9.47237E-06-5.02160E+06 3.95750E+06
 -1       775 1.69358E-05 3.61878E-05 1.66582E-04-2.11669E-05-2.84582E+06 4.73875E+06
 -1       776 3.88699E-06 6.06334E-04 5.99268E-05 2.05225E-04 3.10726E+07-7.08574E+06
 -1       777-1.02053E-04-8.21739E-05-3.72533E-05-4.78722E-05-6.50737E+06-2.02090E+07
 -1       778 1.06593E-05-1.42708E-05-1.07628E-05 6.82801E-06 1.08127E+07-4.20369E+06
 -1       779 1.38732E-05-6.35890E-06-1.72939E-05 5.47369E-06 2.09814E+04 4.73503E+06
 -1       780 2.85669E-05 1.33456E-05 1.91027E-05 1.54840E-06-1.13716E+01 2.89733E+06
 -1       781 1.91361E-04 7.42958E-05 7.36860E-05-2.90917E-05-1.94987E+02 3.37984E+07
 -1       782 1.51096E-04 1.30413E-05 4.36819E-05 3.36627E-06-1.08181E+07-3.08975E+07
 -1       783 9.69165E-05-1.45895E-05 9.55163E-05-1.42331E-05 9.31178E+06-2.02510E+07
 -1       784 2.15335E-04 2.12059E-04 3.48743E-04-4.30229E-05-4.59360E+07 4.75914E+07
 -1       785 1.16617E-04 3.42753E-04 7.00170E-05 6.81107E-05 2.68973E+07-1.37020E+07
 -1       786-1.77268E-05 3.24682E-06 1.29832E-04-1.42874E-05 3.17713E+07 3.49031E+07
 -1       787 4.27575E-05-5.33473E-06 1.63060E-04 2.89427E-05 8.12705E+06-6.67381E+06
 -1       788 6.79637E-05 3.44473E-04-5.84452E-05-4.18612E-05 2.92898E+07 1.13963E+07
 -1       789 9.21330E-05 2.13655E-05-1.49610E-05 4.34420E-05-2.17065E+07 2.81027E+06
 -1       790 3.58227E-05-3.82763E-05 2.05019E-05-2.63334E-06 3.62894E+06-7.24043E+06
 -1       791 7.37645E-05 4.87140E-07-6.40238E-06-4.77933E-06-5.81416E+06 2.60746E+06
 -1       792 9.49372E-05 3.81041E-05 4.11021E-05 1.21149E-05-2.20413E+01-3.70025E+06
 -1       793-5.94743E-05-5.06770E-05-1.27332E-04-2.75467E-05 3.05380E+07-2.98672E+07
 -1       794 3.40313E-05 1.54273E-04 2.80721E-04-1.63198E-05 2.38119E+07-7.76859E+06
 -1       795 2.91303E-06 1.49912E-04 1.61040E-04-1.40283E-06 1.83988E+07-6.16641E+06
 -1       796-3.34196E-05-1.09463E-05-1.51543E-04 1.70362E-06 4.56086E+07 5.55763E+05
 -1       797 5.46442E-05 5.11458E-05 8.07582E-05-2.83609E-05 1.65392E+07 7.43541E+06
 -1       798-2.84737E-05 9.41748E-05 1.26331E-05-5.48299E-06 1.18272E+07-7.94443E+06
 -1       799-5.87718E-05 4.72838E-05 1.72904E-06 3.03906E-05 1.54502E+07-4.55097E+05
 -1       800-1.68337E-05-1.85650E-05 1.34484E-05 6.53137E-06-6.63122E+06 1.83769E+07
 -1       801 1.33133E-05 1.95870E-04 2.59313E-05 1.40666E-05 3.84237E+07 5.25412E+06
 -1       802 1.12682E-05 1.13843E-04 2.61361E-05-1.86370E-05 3.64122E+07 6.72269E+06
 -1       803-1.22122E-05 2.86692E-05 3.29505E-05-7.79012E-06 3.39813E+07 1.13886E+07
 -1       804-1.75236E-05-8.91183E-06-1.15681E-05-2.34337E-06 1.35370E+07 1.36221E+07
 -1       805-8.27026E-06-1.34995E-06-1.02120E-06 2.67787E-06-3.50794E+06 6.43219E+06
 -1       806-5.68829E-06 1.61058E-05 1.48804E-05 1.95170E-06 9.28635E+06-3.30343E+06
 -1       807-2.86003E-06 6.90711E-05 4.86634E-06 8.88494E-06 9.19320E+06-2.48079E+06
 -1       808-1.43168E-06 1.21957E-04-1.07219E-06-5.42420E-06 1.08573E+07 2.90900E+06
 -1       809 1.14987E-04 2.53409E-04 1.57464E-04-3.21203E-05-4.43209E+07 2.80636E+02
 -1       810 3.08435E-05 8.33608E-05 2.66163E-05 8.96049E-07 2.97587E+07-1.76512E+01
 -1       811 1.96975E-07 1.47559E-05-1.41617E-05 6.51227E-06-1.79472E+07-4.87779E+01
 -1       812-3.41877E-06-4.97606E-06-7.27153E-06-2.63395E-06 4.30730E+07 1.26081E+02
 -1       813 9.74163E-07-8.53091E-07 4.45195E-06 4.92379E-07 2.62495E+07-1.42293E+02
 -1       814 5.36488E-06 1.44923E-05 4.63892E-06-4.07797E-06-5.79108E+06-1.47460E+01
 -1       815 2.33178E-05 6.12903E-05 2.19734E-05-5.92074E-07 9.02843E+06 1.11318E+01
 -1       816 5.65257E-05 1.53087E-04 4.87585E-05 2.03967E-05-1.32691E+07-8.06987E+01
 -1       817-3.61387E+07-9.29279E+07-3.61387E+07-5.93396E+06-1.02687E+07 2.94703E+01
 -1       818-4.43883E+07-1.14141E+08-4.43884E+07-2.16226E+06 7.60265E+06-3.60381E+01
 -1       819-4.98600E+07-1.28211E+08-4.98600E+07 1.06149E+06 7.82712E+06 5.70382E+01
 -1       820-4.85948E+07-1.24958E+08-4.85949E+07-3.98693E+05 1.27083E+07-5.15523E+01
 -1       821-4.45730E+07-1.14616E+08-4.45731E+07-8.62788E+05 9.39856E+06-5.78814E+01
 -1       822-4.69522E+07-1.20734E+08-4.69523E+07 9.85568E+05 1.11864E+07 1.14177E+02
 -1       823-5.20349E+07-1.33804E+08-5.20351E+07 6.86066E+05 3.29372E+07-7.24901E+01
 -1       824-6.95488E+07-1.78840E+08-6.95490E+07-5.01138E+06-1.54806E+07-1.27648E+02
 -1       825-1.01882E+08-2.61981E+08-1.01882E+08-7.61035E+06-1.06684E+06 1.13903E+02
 -1       826-1.39062E+08-3.57589E+08-1.39063E+08-3.77990E+06 2.91510E+07-1.59501E+02
 -1       827-1.67282E+08-4.30153E+08-1.67282E+08-1.27002E+06 8.98681E+06 5.98016E+01
 -1       828-1.82249E+08-4.68641E+08-1.82249E+08-2.18216E+06 3.84969E+07 1.20044E+01
 -1       829-1.88536E+08-4.84806E+08-1.88536E+08-1.91887E+06 3.38950E+07-1.35427E+02
 -1       830-1.73661E+08-4.46557E+08-1.73662E+08 8.34660E+06 2.83797E+07 1.67302E+02
 -1       831-1.51479E+08-3.89516E+08-1.51479E+08 2.03207E+07-3.60641E+07-1.50527E+02
 -1       832-1.92242E+07-8.54296E+07-1.83946E+07-1.35275E+07-2.15934E+06-4.18479E+06
 -1       833-3.15811E+07-1.03046E+08-2.05373E+07-2.50526E+06-4.43891E+05 2.26325E+06
 -1       834-3.18871E+07-1.01035E+08-2.06704E+07 5.56481E+06 3.49539E+06-5.16674E+06
 -1       835-5.25669E+07-9.93712E+07-1.64218E+07-1.36374E+07-4.45294E+06-5.34619E+06
 -1       836-7.39909E+07-2.44207E+08-3.02304E+07-6.41596E+07 8.67522E+05 5.79202E+06
 -1       837-1.13007E+08-3.66829E+08-6.97724E+07-2.79481E+07 2.14549E+06-3.54169E+06
 -1       838-1.16622E+08-3.98434E+08-8.09324E+07 3.63469E+06-2.03169E+06-2.49004E+06
 -1       839-8.53358E+07-3.51138E+08-6.82542E+07 3.86871E+07-1.02676E+07 1.39135E+07
 -1       840 7.27621E+06-5.04336E+07 9.73291E+06-1.73110E+07 1.15062E+07-1.32850E+06
 -1       841 4.46543E+06-5.47165E+07 1.39964E+07-1.06315E+07 8.11343E+06 2.48570E+06
 -1       842-3.27419E+06-6.18754E+07 1.60744E+07-4.05540E+06 7.18042E+06-3.63140E+06
 -1       843-2.40224E+06-6.35873E+07 1.52288E+07 3.62250E+06 6.50017E+06-4.14279E+06
 -1       844-1.49393E+07-6.75991E+07 9.98481E+06 1.00651E+07 6.91829E+06 4.93548E+06
 -1       845-3.57869E+07-5.60217E+07 1.69622E+07 4.84933E+06 1.24288E+07-4.49588E+06
 -1       846-5.99529E+07-5.28004E+07 2.06708E+07-1.45658E+07 5.84104E+06 1.41113E+06
 -1       847-1.03573E+08-1.50504E+08 1.38444E+07-8.92888E+07 3.29918E+07 3.06337E+07
 -1       848-4.08297E+07-2.52613E+08 3.55660E+07-1.09965E+08 2.21722E+07 4.76543E+06
 -1       849-6.26075E+06-2.46126E+08 5.27785E+07-7.74830E+07 1.21334E+07 9.27101E+06
 -1       850-1.93678E+07-2.51353E+08 5.33615E+07-5.24721E+07 2.06416E+07-6.51312E+05
 -1       851-2.07836E+07-2.56690E+08 5.01725E+07-2.20121E+07 2.44104E+07-1.72791E+06
 -1       852-7.79903E+06-2.42064E+08 5.66055E+07 5.38851E+06 3.21360E+07 9.99625E+06
 -1       853 3.56882E+06-2.32940E+08 5.30181E+07 2.69153E+07 3.05161E+07-6.34838E+06
 -1       854 1.50204E+07-2.20615E+08 5.03504E+07 4.74051E+07 2.81238E+07 7.86452E+06
 -1       855 2.47847E+07 4.74232E+06 7.03470E+06-3.16156E+07-1.59275E+07 5.99646E+06
 -1       856 2.01503E+07-5.20630E+07 3.98096E+06-1.34190E+07-2.97268E+06-2.29696E+06
 -1       857-1.08894E+07-3.48385E+07 3.25007E+06 1.72920E+07-7.90887E+06-9.89886E+06
 -1       858-1.26059E+07-1.00956E+07 1.69631E+07 1.67865E+07-7.75971E+06 8.27973E+06
 -1       859-1.29500E+07-2.15539E+08 4.18720E+06-7.33701E+07-3.29996E+07 7.03942E+06
 -1       860 2.38768E+07-2.16824E+08 1.08995E+07-5.01420E+07-3.99693E+06 1.72067E+06
 -1       861 4.40128E+07-1.54682E+08 3.28738E+07 2.82267E+07-1.05790E+07 9.72239E+05
 -1       862 5.78748E+07-8.50143E+07 1.25104E+07 6.89946E+07-3.03188E+07-1.10908E+07
 -1       863 1.28764E+06 3.46943E+07-3.51281E+06-1.04505E+07 2.46760E+06 1.41304E+07
 -1       864 9.11449E+06 3.62593E+07-6.23055E+06-2.26219E+07 1.32956E+07-1.19886E+07
 -1       865 3.58259E+07 4.90773E+07-5.09766E+05-4.37707E+07 1.20196E+07 1.84700E+06
 -1       866 4.87088E+07 2.36419E+07 3.87526E+06-5.58104E+07 7.61188E+06 3.71858E+05
 -1       867 5.44266E+07-3.17663E+07-2.13838E+06-4.52070E+07 2.45355E+07-1.15028E+07
 -1       868 4.43711E+07-2.71089E+07 9.78972E+04 1.52184E+07 8.23397E+06-5.93078E+06
 -1       869-1.40910E+07-2.30943E+07-1.13997E+07 2.84471E+07 1.34067E+07-6.36530E+06
 -1       870-3.30191E+07-3.01881E+07-2.09933E+07 1.91322E+07 7.76290E+06-8.15248E+06
 -1       871-1.98744E+07-1.82366E+07-1.62738E+07 1.60799E+07 1.97694E+06-6.83915E+06
 -1       872 1.28524E+07-1.22811E+08-1.21905E+07-7.65293E+07 3.13583E+07 2.94893E+07
 -1       873 3.39516E+07-1.56253E+08-2.46025E+07-7.88166E+07 5.98750E+07 1.47465E+07
 -1       874 8.06159E+07-1.93377E+08-3.08869E+07-3.33570E+07 2.14986E+07 1.10234E+07
 -1       875 9.43665E+07-1.28112E+08-8.52793E+06 1.98525E+07 2.01849E+07 4.24892E+06
 -1       876 1.01916E+08-7.00124E+07 1.00882E+07 6.62763E+07 2.05623E+07-9.92616E+06
 -1       877 1.05261E+08-2.04052E+07-9.51155E+06 8.30372E+07 2.79054E+07 6.54902E+06
 -1       878 1.32145E+08 4.71318E+07-1.75002E+07 1.06339E+08 2.06357E+07-1.26061E+07
 -1       879 1.47388E+08 1.10116E+08-2.00722E+06 8.80997E+07 3.50550E+07 3.96812E+07
 -1       880 8.86093E+07 1.19815E+08-2.21606E+07 6.71856E+07 1.94185E+07-5.27944E+07
 -1       881 4.75268E+06 4.83220E+07 7.05228E+06-8.27630E+06 8.22052E+05-5.57535E+06
 -1       882-4.15225E+06 5.11888E+07-3.57037E+06-3.71556E+07 2.63746E+06 5.91258E+06
 -1       883-3.20475E+06 1.61520E+07-2.47349E+07-1.07616E+08 1.63101E+07 1.10525E+07
 -1       884 1.09595E+08-9.31821E+07 1.01434E+07 2.74190E+07 8.65363E+06 4.55216E+07
 -1       885 1.53259E+08-6.50829E+06-4.28272E+07 1.10055E+08 4.92513E+06 1.09923E+07
 -1       886 1.67132E+08 1.17877E+08 1.07497E+07 1.45728E+08-2.70494E+06 3.16630E+06
 -1       887 1.20560E+08 1.68680E+08 5.83040E+06 9.48389E+07-2.62176E+07-1.98891E+07
 -1       888-5.42410E+07-2.10937E+07-2.10937E+07-2.09414E+06 3.24854E+01-4.50102E+06
 -1       889-4.77208E+07-1.03811E+07-7.04472E+06-1.45863E+06-1.63397E+06 6.57963E+03
 -1       890-3.38511E+07 5.03880E+06 1.03802E+07 1.14030E+06-5.22335E+06 2.04082E+06
 -1       891-3.33805E+07-1.58798E+06-1.58212E+06 8.70276E+05 4.99002E+06 9.68639E+03
 -1       892-2.22720E+07 1.89885E+07-2.94892E+06-4.05364E+06 5.15533E+06-9.14707E+06
 -1       893-1.60751E+07 5.64345E+07 5.68657E+06-1.85384E+07-8.00291E+06 7.19817E+06
 -1       894-2.91509E+07 9.30610E+07 8.69627E+06-3.09843E+07-2.25676E+07-5.22454E+06
 -1       895-3.59231E+07 1.04007E+08-9.65436E+06-7.36708E+07 4.12934E+07-1.46657E+07
 -1       896-9.36581E+06 1.59089E+08-6.31449E+06-1.24318E+08 4.49187E+07 1.17504E+07
 -1       897 1.20230E+08-4.11485E+07 3.25514E+07 4.69532E+07 3.76584E+07 5.35471E+07
 -1       898 2.22107E+08 5.24492E+06-1.56323E+07 7.92934E+07 1.78814E+07-3.88795E+07
 -1       899 2.41186E+08 2.15126E+08-4.12228E+07 1.57816E+08 3.24298E+07-1.26014E+07
 -1       900 2.11927E+08 1.90548E+08-7.00599E+06 1.74149E+08 9.04795E+07-1.83451E+07
 -1       901 1.96913E+08 2.12814E+08 4.43153E+07 1.73852E+08-7.33283E+07 4.05803E+07
 -1       902 1.04050E+08 1.48191E+08 5.26236E+05 1.52160E+08-4.24217E+06-2.23186E+07
 -1       903 8.49439E+07 1.38476E+08-7.23666E+06 1.27467E+08 9.58327E+06-6.44367E+06
 -1       904-5.90471E+07 6.38937E+07 2.10732E+07 7.14999E+07 2.02862E+07 4.09691E+07
 -1       905-2.24051E+08 3.10189E+07 5.51778E+07 3.26441E+07-1.13780E+07-4.39734E+07
 -1       906-3.63167E+08-8.39818E+07-7.05883E+07 3.64788E+07-1.13980E+07 6.62566E+06
 -1       907-3.98406E+08-1.54936E+08-1.54936E+08 2.11752E+07 1.97272E+02 4.08290E+07
 -1       908-5.44852E+07-2.11887E+07-2.11887E+07-8.35345E+05-1.55637E+01 3.10337E+06
 -1       909-3.46414E+07 2.95264E+05 6.77982E+06 4.18698E+06 1.57281E+06 1.65472E+06
 -1       910-3.15165E+07 1.25904E+07-5.76413E+06 6.91902E+06-5.77157E+06 7.30831E+06
 -1       911-4.05703E+07 7.04642E+07 3.68416E+06 1.53314E+07 2.88225E+07-7.76043E+06
 -1       912 3.29522E+06 4.23319E+08 5.75328E+07-6.77675E+05 2.38006E+07-9.04772E+06
 -1       913 6.30614E+08 1.00792E+09 1.79427E+08-2.49319E+08 7.18304E+06 8.95239E+07
 -1       914 1.94337E+08 1.11301E+08-2.53131E+07 1.33468E+08 6.55682E+07-8.69268E+07
 -1       915-1.66758E+07 1.40550E+08-2.94576E+06 1.36517E+08-1.31768E+07-4.32718E+07
 -1       916-2.32039E+08 1.51494E+07 5.33386E+07 7.99817E+06 8.20112E+06-2.54888E+07
 -1       917-4.52507E+08-1.75975E+08-1.75975E+08 8.47669E+06-1.89446E+02-2.90981E+07
 -1       918-5.08516E+07-1.97757E+07-1.97757E+07-2.62927E+05-5.09874E+00 2.94901E+06
 -1       919-4.30042E+07-1.19181E+07-8.20532E+06 3.84899E+06 3.38555E+05 8.34699E+05
 -1       920-3.33720E+07-2.30307E+06 4.35682E+06 7.83147E+06 1.52527E+06 4.43702E+06
 -1       921-2.59596E+07 1.00820E+07 3.27712E+06 1.23610E+07-7.89869E+05-2.19326E+06
 -1       922-1.51816E+07 2.28260E+07 3.24030E+06 1.37533E+07 1.13292E+07-5.53188E+06
 -1       923-1.15698E+07 1.23062E+07 6.69257E+05 2.69815E+07-1.37519E+07 8.92633E+06
 -1       924-3.23277E+07-5.85345E+05-9.38941E+06 5.79227E+07-3.69386E+06-1.56851E+07
 -1       925-6.27415E+07 2.24569E+08 7.42424E+06 1.29430E+08-2.34542E+07-3.76974E+07
 -1       926-1.15839E+07 2.70678E+08 2.15036E+07 7.75838E+07 5.38035E+07-3.65992E+06
 -1       927-1.86881E+07 1.84270E+07-1.03627E+07 1.34254E+07 4.76151E+06 1.83788E+07
 -1       928-6.03479E+05-1.32284E+07 5.68489E+06-3.32820E+06-1.50217E+06 7.13053E+06
 -1       929 1.25912E+06-8.30619E+06 3.73061E+06 1.54502E+06 1.81133E+06 2.46926E+06
 -1       930 5.58046E+06 4.63372E+06 1.94440E+06-2.20497E+06-4.25122E+05 3.17555E+06
 -1       931 4.54877E+06 5.14819E+06-4.00942E+06-2.34624E+06 1.07217E+06-2.01958E+06
 -1       932 5.09313E+04 8.04031E+06-9.19706E+06 1.13908E+06 5.84605E+05-3.93665E+06
 -1       933-2.17660E+06-1.81025E+07 9.95069E+06 4.93507E+06 4.31305E+06-1.06317E+07
 -1       934-1.53938E+06-2.11326E+07 4.89200E+07 1.94983E+07-4.67583E+06-1.88973E+07
 -1       935 7.75847E+07 6.09033E+07-5.38031E+07-6.01154E+07 6.50846E+06-1.94453E+07
 -1       936 5.94250E+08 7.13738E+08 1.03415E+08-3.76647E+08 1.41719E+08-1.07849E+08
 -1       937 8.66067E+08 6.42317E+08 1.51791E+08-3.42324E+08-7.31945E+07 1.67087E+07
 -1       938 3.58653E+08 1.68916E+07-4.62231E+07 8.16283E+07 6.00077E+06-1.41668E+07
 -1       939 7.35888E+07 3.89566E+07-4.69084E+07 1.74953E+08-5.13552E+07-5.77298E+07
 -1       940-1.27475E+08 1.84587E+08 1.05248E+07 1.03717E+08 7.94042E+06-3.49399E+07
 -1       941-2.14524E+08 7.12656E+07 1.66083E+07 1.51877E+07-2.09290E+06 3.60121E+06
 -1       942-2.41087E+08 4.55178E+06 5.26786E+07-1.87330E+07-6.77240E+06-2.87986E+07
 -1       943-3.84496E+08-1.08936E+08-7.87070E+07-9.12119E+06 9.24223E+06 4.98003E+06
 -1       944-4.79489E+08-1.86468E+08-1.86468E+08-1.65957E+06 9.72599E+01-2.75810E+07
 -1       945-4.35122E+07-1.69214E+07-1.69215E+07 1.06972E+06 2.23629E+01 4.66163E+06
 -1       946-2.33807E+07 2.45517E+06 4.97254E+06 1.44397E+07-1.54394E+06-4.96214E+05
 -1       947-2.42280E+07 7.90505E+06-3.27253E+06 1.31226E+07 4.43167E+05 1.51985E+06
 -1       948-1.83203E+07-1.86912E+07-5.94714E+06 1.75365E+07 9.17942E+05 4.06395E+06
 -1       949 4.17236E+06 5.57509E+07-1.04890E+07 9.68644E+06-1.38104E+07-3.01347E+06
 -1       950 9.78030E+06 8.58684E+06 8.88457E+06-4.33427E+06-4.32312E+06 3.82554E+06
 -1       951 2.68441E+06 2.02421E+06 1.03692E+06 7.70815E+04-2.52555E+05 2.00944E+06
 -1       952 4.47498E+06 2.15972E+06-6.14776E+06-1.71080E+06 1.11039E+06 3.18479E+05
 -1       953 2.85755E+06 1.62483E+07 3.12573E+07 4.69876E+06-8.97341E+06 5.07742E+06
 -1       954 5.44396E+07 1.12014E+08-5.41011E+07-5.83044E+07 4.86219E+06-2.78631E+06
 -1       955-1.44232E+08 1.36440E+08-1.07158E+07-4.12819E+07-5.35446E+06-6.08016E+07
 -1       956-2.59891E+08 2.33996E+07 5.74368E+07-5.87920E+07-1.03179E+07-1.62556E+07
 -1       957-4.16203E+08-1.61857E+08-1.61857E+08-4.57157E+06 8.07966E+01-4.92708E+07
 -1       958-3.00696E+07-1.16938E+07-1.16937E+07 2.50965E+06 1.93678E+01-4.02212E+06
 -1       959-2.07925E+07-3.65238E+06-3.18582E+06 1.13640E+07 6.68698E+06-2.27324E+06
 -1       960-1.25545E+07 1.35390E+07 7.59316E+06 1.98634E+07-2.00414E+06 5.35353E+06
 -1       961-2.71272E+07 9.33763E+06-5.74366E+05 1.85946E+07 1.72878E+06 2.41475E+05
 -1       962-3.23034E+07 6.34290E+06-5.77301E+06 1.42228E+07-9.25973E+06-3.18581E+06
 -1       963-1.22463E+07 8.26610E+06 4.13647E+06 8.17824E+06 5.54121E+06 3.83200E+06
 -1       964-8.52618E+06-9.55197E+06 3.94407E+06 7.21621E+06-1.02522E+07 5.47160E+06
 -1       965 6.84953E+06 6.84293E+04 1.39939E+07-4.37497E+06-4.14727E+05-2.24979E+05
 -1       966-3.38269E+06-1.05031E+07 2.61496E+06 3.14316E+06-6.63116E+06 1.28228E+06
 -1       967-7.02279E+05 8.50946E+06-2.65512E+06 2.89791E+06 2.25092E+06 5.73904E+05
 -1       968 2.06436E+06 3.37540E+06-1.39412E+06-9.79847E+05 1.80472E+05 8.91291E+04
 -1       969 2.39586E+06 4.47865E+05-5.30891E+05-1.80928E+05-6.02801E+05 1.69347E+06
 -1       970 3.47407E+06 1.78156E+05 2.39523E+06-7.51686E+05-1.12657E+06 1.58210E+06
 -1       971 3.42982E+06 5.97053E+05 4.32430E+06-1.57762E+06-1.09549E+06 2.71951E+06
 -1       972-2.81592E+06 3.60503E+06-8.01552E+06-2.48750E+06 1.18475E+06 6.07291E+05
 -1       973 1.78233E+07 2.23052E+07-1.36454E+07-1.49081E+07 8.10162E+06-6.53565E+06
 -1       974 1.05839E+07-6.21155E+06 2.79778E+07 1.28458E+06-9.15425E+06 6.57962E+06
 -1       975-1.15571E+07-9.56471E+05 5.24478E+07 1.99439E+07 1.61358E+07 4.10723E+06
 -1       976-1.31432E+08 6.15141E+07-3.11778E+07-6.46035E+07-3.70084E+07-4.54455E+07
 -1       977-2.44189E+08 1.29106E+07-6.35828E+06-5.81294E+07-2.91585E+07 3.77355E+07
 -1       978-2.82836E+08-3.79127E+06 4.81447E+07-1.14707E+08-3.13935E+06-3.27702E+07
 -1       979-2.87662E+08-7.55584E+07-3.75015E+07-7.37567E+07-2.04381E+06-2.42207E+06
 -1       980-3.13451E+08-1.21898E+08-1.21898E+08-1.09098E+07-6.67791E+01 9.13643E+06
 -1       981 1.01055E+07 3.92983E+06 3.92990E+06 9.45578E+05-2.20047E+01-4.88304E+06
 -1       982-2.01358E+07 2.52944E+07-2.75387E+06 2.87580E+07 3.35085E+06-7.09758E+06
 -1       983-1.63413E+07 1.44705E+07 9.09490E+06 1.45110E+07 3.90667E+06 1.30868E+07
 -1       984 2.00355E+06-2.37751E+06-1.86621E+05-3.94838E+06 1.53536E+06-2.93382E+05
 -1       985-2.47060E+06-3.62531E+06-1.80142E+06 2.21288E+06-2.31455E+05 1.65300E+05
 -1       986 1.01667E+06 6.35389E+05-3.05634E+05-8.19074E+04-1.67417E+06 1.98613E+06
 -1       987 3.07067E+06 2.66170E+06 1.61650E+06-1.55365E+06-1.74792E+06 1.65277E+06
 -1       988 9.25744E+05-5.16298E+06-8.59294E+06-3.82390E+06-1.23579E+05-6.57945E+05
 -1       989-1.38656E+07-3.27912E+06 8.62179E+06 7.27647E+06 1.02319E+07-3.45445E+06
 -1       990-1.50953E+08-6.33253E+07 2.96333E+07-1.33232E+08-4.38943E+07-2.94558E+07
 -1       991-1.95049E+08-7.58524E+07-7.58525E+07-7.90263E+06 1.85741E+02 7.55422E+06
 -1       992 6.09337E+07 2.36964E+07 2.36965E+07 1.33570E+06 2.13167E+01-3.45371E+07
 -1       993 2.85925E+07 2.84172E+07 8.10571E+06 3.57207E+07 3.98003E+06 4.62219E+06
 -1       994-2.25072E+07 3.94257E+07-1.09769E+07 5.49168E+07-5.38591E+06-1.29345E+06
 -1       995-5.22690E+07 2.85534E+06-1.28221E+07 1.02681E+07-2.88844E+06-1.94267E+06
 -1       996-2.45853E+07 4.95386E+06 1.22447E+07 3.78745E+06-3.29644E+06 3.35635E+05
 -1       997-2.50099E+06-6.55388E+06-6.06222E+06 2.12247E+06-2.15192E+06 8.26230E+05
 -1       998-1.41243E+06-1.03681E+06-3.65037E+06 6.23778E+05-2.36559E+06 6.74316E+05
 -1       999-9.02756E+04-1.23149E+06 2.41794E+06 7.74982E+05-3.00068E+06 1.97212E+05
 -1      1000 3.05790E+05 1.07045E+05 9.89919E+05 7.22836E+05-2.84048E+06 1.11861E+06
 -1      1001 2.33118E+04 1.76247E+05-2.34540E+05 1.06220E+05-2.41142E+06 1.54006E+06
 -1      1002 9.06209E+05 7.94550E+05-5.85694E+05-3.68550E+05-2.48800E+06 1.46267E+06
 -1      1003 5.23611E+05 7.24770E+05-1.13292E+06-4.78877E+05-2.58698E+06 1.85192E+06
 -1      1004 2.34600E+06 2.96026E+06 1.85883E+06-1.73098E+06-2.67243E+06 1.17974E+06
 -1      1005 9.66817E+05 2.76070E+06 5.02400E+06-1.45730E+06-3.89903E+06 9.86955E+05
 -1      1006 1.05113E+06 4.15807E+06-7.01025E+06-1.85366E+06-1.25192E+06-1.11432E+06
 -1      1007 3.77822E+06-4.11749E+06-1.12083E+07-9.66063E+05 1.57043E+06-1.41107E+06
 -1      1008-4.77266E+07-5.82338E+07 2.11935E+07-9.71557E+07-1.47638E+07-9.15694E+06
 -1      1009-7.22758E+07-4.04751E+07-6.13911E+06-4.83429E+07 1.54056E+06 5.43696E+06
 -1      1010-1.03669E+08-4.03158E+07-4.03159E+07-1.01588E+06-1.91771E+01-2.94898E+07
 -1      1011 1.33626E+08 5.19658E+07 5.19659E+07 6.16164E+06 1.67324E+02 1.02892E+07
 -1      1012 1.10470E+08 7.35317E+07-1.04520E+07 1.20864E+08-3.97778E+07-2.43397E+07
 -1      1013-3.34678E+06-3.12660E+06 2.88624E+06 3.53135E+06 2.75930E+06-7.44452E+05
 -1      1014-2.16985E+05-2.46565E+06-1.71286E+06 1.01887E+06-2.41040E+06 7.43662E+05
 -1      1015-5.53752E+05-6.15291E+05 4.11451E+05 5.88307E+05-2.14684E+06 1.67422E+06
 -1      1016 4.10669E+05 6.81193E+05-4.07301E+05-5.51612E+05-2.12160E+06 1.71394E+06
 -1      1017 3.34890E+05 2.69078E+06 1.75398E+06-8.01668E+05-2.50248E+06 7.90080E+05
 -1      1018 3.18134E+06 3.50743E+06-2.57007E+06-3.54622E+06 2.16304E+06-7.25318E+05
 -1      1019-1.63198E+07-4.96560E+07 4.34117E+06-5.64919E+07-4.46486E+06-1.46107E+07
 -1      1020-3.82228E+07-1.48643E+07-1.48644E+07-1.34685E+06-2.02927E+01-2.57674E+06
 -1      1021 2.33133E+08 9.06630E+07 9.06631E+07 7.57809E+06-1.00884E+02 1.07611E+07
 -1      1022 2.25073E+08 6.31626E+07 2.65905E+07 7.08936E+07-3.42625E+06-2.26304E+06
 -1      1023 2.46251E+08 2.82950E+07-3.13579E+07 1.20177E+08-6.24293E+06-2.08176E+07
 -1      1024 2.19175E+08 1.27157E+07-6.03104E+05 7.29229E+07-7.07511E+06 3.19065E+07
 -1      1025 1.24370E+08-1.19139E+07 8.65378E+06 7.30342E+07-2.81998E+07-2.96251E+07
 -1      1026-5.59875E+06 3.03746E+06 1.14032E+07 1.11614E+05 2.55515E+06-1.04227E+06
 -1      1027-1.31392E+06-3.86351E+06 7.24591E+06 1.86174E+06-1.19016E+06-1.25088E+06
 -1      1028-7.14331E+05-2.78238E+06-5.08717E+06 1.70354E+06-3.72742E+06 9.30108E+05
 -1      1029-2.58243E+06-2.93435E+06-1.91841E+06 1.75579E+06-2.62101E+06 1.19691E+06
 -1      1030-6.91082E+05-5.90534E+05 1.17211E+06 5.17376E+05-2.61328E+06 1.82229E+06
 -1      1031-1.02325E+06-7.00433E+05 6.07758E+05 4.11179E+05-2.51990E+06 1.43892E+06
 -1      1032-1.19005E+05-1.48464E+05 2.21507E+05-6.69049E+04-2.43175E+06 1.57260E+06
 -1      1033-3.40083E+05-2.79886E+04-9.94554E+05-6.64163E+05-2.87852E+06 1.16642E+06
 -1      1034-1.87075E+05 1.29782E+06-2.48762E+06-6.68467E+05-3.09018E+06 2.86393E+05
 -1      1035 1.44331E+06 9.62729E+05 3.63858E+06-6.06668E+05-2.50274E+06 6.31724E+05
 -1      1036 3.31263E+06 7.09339E+06 6.17584E+06-2.20432E+06-2.64284E+06 1.01711E+06
 -1      1037 1.67780E+07 3.95729E+06-4.61647E+05-4.79261E+06-2.31015E+06-2.18000E+04
 -1      1038 2.75065E+07 2.41593E+06 2.62771E+06-8.20808E+06 7.99976E+05-3.20696E+06
 -1      1039 1.71449E+07-1.79421E+07-5.45678E+06-2.03851E+07-6.55774E+06 5.77967E+06
 -1      1040 1.21459E+07-2.86099E+06-1.70208E+04-1.44877E+07 8.43564E+06-1.46408E+06
 -1      1041 1.09346E+07 4.25242E+06 4.25232E+06-2.86656E+06 5.45559E+01-1.30975E+07
 -1      1042 3.38911E+08 1.31799E+08 1.31799E+08 3.93845E+06 1.45989E+02-2.59340E+07
 -1      1043 2.39772E+08 4.72245E+05-4.95868E+07 8.27854E+07-7.78649E+06-1.00222E+07
 -1      1044 1.52210E+08-3.40817E+07 2.12798E+07 7.85893E+07-1.31137E+07-6.04954E+07
 -1      1045 1.52468E+07 2.78884E+06-9.72501E+06-6.44234E+06 1.04968E+07-3.79184E+06
 -1      1046-1.94951E+06 4.40860E+06 8.48192E+06 3.39769E+06-4.82285E+05-1.04125E+06
 -1      1047-3.19637E+06-2.51485E+06-1.66407E+06 1.61677E+06-1.73288E+06 1.70088E+06
 -1      1048-1.15418E+06-6.43221E+05 3.09480E+05 9.78226E+04-1.71528E+06 2.04183E+06
 -1      1049 2.61565E+06 3.84481E+06 1.90042E+06-2.30075E+06-1.50039E+05 1.62002E+05
 -1      1050-2.35501E+06 2.34791E+06 1.18277E+04 4.18014E+06 1.29158E+06-3.04680E+05
 -1      1051 1.59816E+07 2.35477E+06 3.28928E+05-1.19341E+07-1.09213E+06 8.26405E+06
 -1      1052 2.29920E+07-2.79793E+06-3.33560E+06-1.39737E+07-4.72487E+05 4.22780E+05
 -1      1053 2.90986E+07 1.13161E+07 1.13161E+07-1.45163E+06 2.68643E+01-7.35099E+05
 -1      1054 4.20301E+08 1.63451E+08 1.63451E+08 2.06990E+06-5.36920E+01-8.23622E+06
 -1      1055 3.57036E+08 1.09639E+08 6.79293E+07 3.08401E+07 5.31232E+06-1.45535E+06
 -1      1056 2.42867E+08 1.58323E+07-5.30440E+07 5.72770E+07 2.21195E+04-2.18724E+07
 -1      1057 2.11763E+08-2.32976E+07-1.03486E+07 5.39488E+07-1.25525E+06 4.28079E+06
 -1      1058 1.88359E+08-7.46342E+07 3.10846E+07 3.65173E+07-1.36368E+07-1.84215E+07
 -1      1059 8.61713E+07-1.05688E+08-1.19522E+07-2.26959E+07-3.98726E+07-1.16691E+07
 -1      1060 4.10825E+07-1.07713E+08-3.08727E+07-4.42607E+07-5.38108E+07-3.66122E+07
 -1      1061 1.49463E+07 7.92564E+05-5.31927E+07-1.98436E+07 1.72365E+07 4.33211E+06
 -1      1062-1.31308E+07 2.56747E+06-3.01975E+07-2.60131E+06-7.79638E+06 7.50876E+06
 -1      1063-1.96260E+07-2.04582E+07 1.42059E+07 1.50226E+07 7.30597E+06-7.43628E+06
 -1      1064 3.70533E+06-2.51530E+06 8.58027E+06 3.03453E+06 8.33638E+05 2.24384E+05
 -1      1065-3.54764E+06-9.40497E+05-4.55216E+06 1.43099E+06-1.13497E+06 2.89511E+06
 -1      1066-3.82334E+06-3.64521E+05-2.58164E+06 6.19013E+05-1.14816E+06 1.67889E+06
 -1      1067-2.52624E+06-2.05063E+05 6.24721E+05 1.50870E+05-6.59850E+05 1.79334E+06
 -1      1068-2.29814E+06-3.51765E+06 1.41010E+06 1.13337E+06 2.13350E+05 1.41279E+04
 -1      1069 1.14801E+06-8.90508E+06 2.75944E+06-2.85855E+06 2.40697E+06 4.39317E+05
 -1      1070 3.81420E+06 1.12736E+07-2.46247E+06-3.43622E+06-6.99206E+06 1.51758E+06
 -1      1071-7.98323E+06-2.64119E+05-1.47120E+07 4.37105E+06-7.74960E+05-1.53922E+05
 -1      1072 5.39054E+06 1.09011E+07-4.22362E+06-8.49576E+06-8.77932E+06 3.89212E+06
 -1      1073 5.49926E+06-4.06018E+06-5.66120E+06-9.86794E+06 6.69996E+06 4.36763E+06
 -1      1074 2.37735E+07 5.96798E+06 4.98466E+06-1.31200E+07-7.31127E+06-7.30512E+05
 -1      1075 2.45586E+07 2.31645E+06-5.19616E+05-1.32136E+07 1.44259E+04-2.06189E+06
 -1      1076 2.49451E+07 1.23502E+06-5.41589E+06-1.21649E+07 5.32519E+05 3.88082E+06
 -1      1077 3.62506E+07 1.04653E+07 6.70730E+06-6.48560E+06 1.23232E+06 3.07701E+05
 -1      1078 4.36766E+07 1.69854E+07 1.69854E+07-7.03187E+05-1.98676E+01 2.50251E+06
 -1      1079 4.63276E+08 1.80163E+08 1.80163E+08 2.49143E+06 8.44785E-02-3.86566E+07
 -1      1080 2.50723E+08 1.98513E+07-5.00921E+07 2.76985E+07 1.14369E+06-2.37438E+07
 -1      1081 1.24129E+08-8.83228E+07 1.02586E+07-1.32261E+07-3.02052E+06-2.09177E+07
 -1      1082-6.10398E+06-2.00422E+08 1.74748E+07-7.28332E+07 3.81006E+07-1.66165E+07
 -1      1083-5.64743E+07-9.82165E+07 5.66515E+07 5.93472E+07 1.08129E+07-4.33089E+06
 -1      1084 3.99299E+05-1.42788E+07-3.06940E+07-3.36841E+06-8.15007E+06 6.45252E+06
 -1      1085-4.75752E+06-1.81119E+06 6.31846E+06 1.78240E+06 1.00630E+06 3.39334E+05
 -1      1086-2.68310E+06-2.07476E+06-1.05450E+06-4.97366E+04-2.06221E+05 2.13625E+06
 -1      1087-1.06917E+07-9.13201E+06-9.35067E+06 4.66679E+06-4.54837E+06 4.22113E+06
 -1      1088-3.33785E+06-5.86079E+07 1.12040E+07-9.46741E+06-1.51660E+07-3.33424E+06
 -1      1089 1.32250E+07 2.31028E+07 7.25690E+06-1.56968E+07 1.25532E+06 2.50106E+06
 -1      1090 2.02057E+07 6.49316E+05 3.49430E+06-1.24158E+07 2.31952E+06 3.10651E+06
 -1      1091 2.95522E+07 2.87076E+06-6.19585E+06-9.66314E+06-5.13765E+05 9.45881E+05
 -1      1092 5.37798E+07 2.09144E+07 2.09144E+07-3.20886E+05 1.53311E+01 5.21687E+06
 -1      1093 4.83789E+08 1.88140E+08 1.88140E+08 1.85792E+06 1.23794E+02-3.45820E+07
 -1      1094 3.97602E+08 1.17171E+08 8.10236E+07-4.40017E+05 2.51380E+06 1.95485E+06
 -1      1095 2.40550E+08 9.58416E+06-5.61883E+07 4.87303E+05-8.96968E+06-3.30769E+07
 -1      1096 1.50819E+08-4.44255E+07-3.27106E+07-1.96151E+07-1.29204E+06 1.04752E+07
 -1      1097 6.37846E+07-1.04879E+08-1.02825E+07-5.62497E+07 1.55765E+07-1.85946E+07
 -1      1098-4.40722E+06-1.48685E+08 3.91561E+07-9.48080E+07-1.83935E+07-7.33446E+06
 -1      1099-2.18267E+08-2.25988E+08 3.84287E+07-1.23535E+08 6.76706E+06-1.38430E+07
 -1      1100-9.17229E+08-6.97208E+08-1.69357E+08 2.73476E+08-8.83198E+07-6.04830E+06
 -1      1101-6.32859E+08-6.67359E+08-9.27100E+07 3.63270E+08 1.25281E+08-1.22612E+08
 -1      1102-9.07316E+07-5.79579E+07 5.67205E+07 5.96968E+07 5.05874E+06-1.41828E+07
 -1      1103 7.48812E+05 1.68762E+07-5.22469E+07-1.97263E+07-4.48047E+06-1.83019E+07
 -1      1104 2.19562E+06 1.64598E+07-1.02856E+07-5.81184E+06 4.02455E+06-1.06663E+07
 -1      1105 1.24486E+06-6.02400E+06 9.99577E+06-2.68129E+05 9.74855E+05-3.22086E+06
 -1      1106-4.85889E+06-4.86198E+06 4.18209E+06 2.41236E+06 1.07613E+06-1.69712E+06
 -1      1107-6.19695E+06-5.42073E+06-2.09499E+06 2.30360E+06-5.97509E+05 3.46413E+06
 -1      1108-1.44405E+06 8.50439E+06-4.01868E+06-1.77271E+06 1.84567E+06 2.53549E+06
 -1      1109 5.25546E+05 1.40756E+07-5.81751E+06 3.30819E+06-1.53776E+06 7.40853E+06
 -1      1110 2.21127E+07-1.87679E+07 1.09754E+07-1.35672E+07 5.10587E+06 1.97470E+07
 -1      1111 2.46108E+07-2.77477E+08-1.79201E+07-7.15762E+07 5.51814E+07-7.82274E+06
 -1      1112 5.94217E+07-2.37591E+08-9.23902E+06-1.30552E+08-1.95163E+07-3.12120E+07
 -1      1113 1.64441E+07 5.60961E+06 9.13050E+06-5.99795E+07-6.27406E+06-2.06806E+07
 -1      1114 2.68765E+06-8.21196E+06-7.42713E+05-2.54242E+07-1.59587E+07 7.74573E+06
 -1      1115 1.25013E+07-1.89317E+07-3.14779E+06-1.23311E+07 1.08621E+07-4.37860E+06
 -1      1116 2.69467E+07-5.06086E+06-3.44670E+06-1.08426E+07-6.88378E+05-1.69189E+06
 -1      1117 3.61559E+07 5.00937E+06-6.27592E+06-6.19912E+06-3.83122E+04 4.74629E+06
 -1      1118 5.08846E+07 1.57622E+07 9.76003E+06-3.14853E+06-8.49032E+04 1.21147E+04
 -1      1119 6.05918E+07 2.35635E+07 2.35635E+07 7.93160E+04 2.57191E+00 3.19712E+06
 -1      1120 4.52545E+08 1.75990E+08 1.75990E+08-7.90278E+06-1.59545E+02-2.98676E+07
 -1      1121 2.32946E+08-2.56745E+06-5.34441E+07-2.02026E+07 6.74908E+06-3.16645E+07
 -1      1122 1.89683E+07-1.05716E+08 8.86434E+06-7.52178E+07-1.02162E+07-3.03329E+07
 -1      1123-1.86605E+08-2.28351E+08 1.29673E+07-1.57237E+08 3.85849E+07-8.78850E+07
 -1      1124-6.54704E+08-1.00132E+09-1.76082E+08 2.61688E+08 1.30497E+07 7.87090E+07
 -1      1125-2.38959E+07-4.33958E+08-5.80915E+07 2.20736E+07 3.33211E+07-1.33596E+07
 -1      1126 2.89337E+07-7.02877E+07-1.15745E+06-1.62519E+07 3.46629E+07-5.04847E+06
 -1      1127 2.70078E+07-1.08848E+07 5.09710E+06-5.31850E+06-6.69927E+06 8.25766E+06
 -1      1128 3.75288E+07 8.74884E+05-8.04135E+06-3.64015E+06 1.78078E+06 2.93212E+06
 -1      1129 6.25925E+07 2.43415E+07 2.43416E+07 6.94816E+05-1.34851E+01 3.44041E+06
 -1      1130 4.02807E+08 1.56647E+08 1.56647E+08-1.97106E+07 1.53240E+02 3.19516E+07
 -1      1131 3.60185E+08 8.84167E+07 7.07716E+07-3.46307E+07-1.45818E+07 9.76423E+06
 -1      1132 2.20839E+08-1.61334E+07-5.23564E+07-3.94500E+07-1.05391E+07-3.03484E+07
 -1      1133 8.28049E+07-5.41503E+07-1.42719E+07-6.20600E+07 1.33799E+07 2.75258E+07
 -1      1134-5.26390E+07-1.32094E+08 1.33580E+07-1.03640E+08 1.01620E+07-1.89275E+07
 -1      1135-1.20184E+08-1.89697E+08-6.48019E+06-1.46891E+08-5.81250E+06 1.64741E+06
 -1      1136-2.14124E+08-2.48011E+08-3.39082E+07-1.81526E+08-4.67025E+07 4.84981E+07
 -1      1137-1.86753E+08-2.32501E+08 1.66823E+07-1.69812E+08 9.54619E+07-3.88470E+07
 -1      1138-1.94020E+08-2.85201E+08 3.84752E+07-1.53828E+08 2.35462E+07-1.37267E+07
 -1      1139-1.73218E+08-3.86062E+07 3.39422E+07-9.70684E+07-8.40928E+06-3.44496E+07
 -1      1140-1.05329E+08-1.27886E+07-1.92245E+07-4.52683E+07 3.13777E+07 3.22272E+07
 -1      1141-5.15114E+07-5.15362E+06-5.22646E+06 2.36654E+07 7.93242E+06-5.81048E+06
 -1      1142-8.95465E+07-2.36065E+07 4.57394E+06 4.88836E+07-2.86473E+06 1.13886E+07
 -1      1143-8.20031E+07-1.17230E+08 6.08844E+06 1.12899E+08 2.84722E+07 1.11902E+07
 -1      1144-7.60392E+06-1.10496E+08 6.81298E+06 7.83628E+07 4.06676E+07-1.96482E+07
 -1      1145 1.75806E+07-1.05212E+08-6.64881E+06 3.49483E+07-2.15302E+07 2.31035E+06
 -1      1146 9.49699E+06-6.00189E+07-3.94589E+06 2.08153E+07-8.70952E+06 6.18396E+06
 -1      1147 1.58023E+07-1.69896E+07 2.18014E+06 6.55315E+06 3.75378E+06-7.53835E+06
 -1      1148 3.18987E+07 3.53275E+06 1.28383E+06-9.33780E+05 5.21703E+06 2.94249E+05
 -1      1149 3.70435E+07-4.42024E+06-1.06521E+07-1.90460E+06-5.84756E+06 2.58622E+06
 -1      1150 5.44378E+07 1.23041E+07 8.79449E+06 1.48073E+06-2.60055E+06-2.80423E+05
 -1      1151 6.17958E+07 2.40317E+07 2.40317E+07 2.17522E+06 3.12332E+01-3.36703E+06
 -1      1152-1.18358E+08-1.67806E+08-3.18237E+06-9.80078E+07-3.56395E+07-3.18406E+07
 -1      1153-1.66040E+08-1.39931E+08-1.97777E+06-1.55194E+08-1.97624E+06 4.52798E+06
 -1      1154-1.24289E+08-4.84836E+07 3.26100E+07-1.32057E+08-1.01367E+06 1.89235E+07
 -1      1155-9.48140E+07-1.90045E+07-2.96783E+07-5.06165E+07 1.43061E+07 4.04867E+07
 -1      1156-3.07289E+07-1.86535E+06-4.25813E+06 2.40565E+07 7.32846E+05-2.14622E+07
 -1      1157-4.06437E+07-1.52197E+07 1.39697E+07 7.10955E+07-7.12985E+06 7.92580E+06
 -1      1158-7.01201E+06-5.83045E+07 2.61981E+06 3.80173E+07-6.39001E+06 6.73046E+06
 -1      1159-1.15088E+07-5.30752E+07-8.31120E+06 1.37496E+07 2.00786E+06-5.16866E+06
 -1      1160-1.10496E+08-1.14283E+08 2.58654E+07-7.98281E+07 3.09371E+07-3.01515E+07
 -1      1161-1.63874E+08-1.30136E+08-1.97169E+06-1.05575E+08 3.51340E+07 3.69124E+07
 -1      1162-1.24988E+08-7.55266E+07 1.57547E+07-1.18356E+08 2.25002E+07-8.79088E+06
 -1      1163-9.34090E+07 8.65333E+06 6.87551E+06-1.05883E+08 3.43602E+07 1.12860E+07
 -1      1164-7.81574E+07 7.68002E+07-1.10644E+07-1.01237E+08 1.58994E+07-6.85198E+06
 -1      1165-4.24679E+07 1.06819E+08 7.94308E+06-7.92575E+07 4.51077E+07-6.74160E+06
 -1      1166-3.92798E+07 1.10707E+08 1.05333E+07-7.25777E+07 4.41321E+07 5.75879E+05
 -1      1167-1.95306E+07 2.76541E+07 1.37142E+06 2.87561E+07 1.60631E+07 7.40612E+06
 -1      1168-1.67069E+07 2.45170E+07 4.09901E+05 3.58665E+07 1.14778E+07-4.23541E+05
 -1      1169-1.29038E+07 1.77822E+07-1.28476E+06 4.64389E+07 1.10471E+07-7.73516E+06
 -1      1170-2.64111E+07-2.01307E+07-2.39259E+06 4.26282E+07 4.57616E+06 2.36998E+06
 -1      1171-3.19507E+07-3.98143E+07 3.83474E+06 3.72682E+07 1.52462E+07-1.95320E+05
 -1      1172-1.11391E+07-3.60235E+07 7.27499E+06 2.53289E+07 1.80245E+07-1.57775E+07
 -1      1173-9.04168E+05-4.26790E+07 4.82880E+06 1.49800E+07-6.38671E+06 1.82606E+07
 -1      1174-6.08663E+07 6.85726E+07-1.90868E+07-6.69562E+07-3.50838E+07-6.16421E+06
 -1      1175-3.49351E+07 1.76393E+08-2.77152E+07-4.63300E+07 4.46412E+06 1.92906E+06
 -1      1176 1.48465E+07 3.46044E+08 1.56637E+07-3.46291E+07 7.57142E+06-2.95585E+06
 -1      1177 4.79891E+05 9.43016E+07 3.16382E+06 1.94566E+07 8.38016E+06 1.49847E+06
 -1      1178-8.52102E+06 3.99473E+07-7.87904E+06 2.61300E+07 2.58083E+06-2.68227E+05
 -1      1179-2.56004E+07-9.40488E+05-7.68692E+06 2.66024E+07-1.31762E+07-2.12121E+06
 -1      1180-1.81931E+07 2.33717E+08-5.40415E+07-4.50125E+07 3.78173E+07 5.09258E+06
 -1      1181-6.01383E+06 2.38741E+08-5.40116E+07-2.40100E+07 3.12041E+07-5.47087E+06
 -1      1182-6.47561E+06 2.40051E+08-5.85615E+07-1.02821E+06 3.65012E+07 6.32743E+06
 -1      1183-1.88522E+07 3.01904E+08-6.33792E+07 2.95236E+07 2.14146E+07 5.56624E+05
 -1      1184 1.42667E+06 3.53187E+08-6.20134E+07 9.33692E+07 3.49393E+07 1.14834E+07
 -1      1185 4.69175E+07 1.81781E+08-5.14815E+07 1.46544E+08 3.69095E+07 5.36782E+07
 -1      1186 8.45134E+07 7.48018E+07-2.51205E+07 1.10670E+08 1.47112E+07 1.46961E+07
 -1      1187 9.26815E+07 5.24416E+07-1.11178E+07 4.37461E+07 3.13216E+07 2.60521E+06
 -1      1188 6.42161E+07 4.41233E+07-3.44072E+06-1.48430E+07-2.93915E+06 6.63341E+06
 -1      1189 2.22515E+07 5.75682E+07-1.74618E+07-3.36166E+07 1.14684E+07-1.48771E+07
 -1      1190-5.94611E+05 1.01231E+08-1.76687E+07-1.94329E+07 9.54857E+06-3.20115E+06
 -1      1191-7.27983E+06 8.22419E+07-1.72871E+07-3.48145E+05 7.49546E+06 1.68069E+05
 -1      1192-5.30782E+06 5.71530E+07-1.61895E+07 7.26025E+06 9.21524E+06-2.30045E+06
 -1      1193-2.43106E+06 5.52954E+07-1.27710E+07 1.32827E+07 8.88247E+06 5.51086E+05
 -1      1194-2.24593E+06 5.36163E+07-1.00563E+07 1.95291E+07 1.06555E+07 3.01463E+06
 -1      1195 9.02609E+07 3.72662E+08 7.24243E+07-4.15313E+07-8.52606E+06 1.22868E+07
 -1      1196 1.21466E+08 4.19004E+08 8.93504E+07-1.19668E+06-1.08419E+07-9.70197E+06
 -1      1197 8.55249E+07 3.51963E+08 4.18442E+07 6.81034E+07-3.55726E+06 5.62502E+06
 -1      1198 6.26030E+07 1.14850E+08 1.48226E+07 5.45309E+07-1.01482E+07 6.74965E+06
 -1      1199 3.15247E+07 4.94375E+07 5.78161E+06-4.25624E+06-1.51758E+06-1.23459E+07
 -1      1200 2.49428E+07 1.02582E+08 1.27835E+07-1.64151E+07-1.97479E+06-3.45869E+06
 -1      1201 3.13004E+07 1.09747E+08 2.41403E+07 4.14318E+06-3.44552E+06 3.22256E+06
 -1      1202 2.19953E+07 8.78378E+07 1.85333E+07 1.44999E+07-2.86230E+06-2.49864E+06
 -1      1203 1.57657E+08 4.05403E+08 1.57657E+08-2.16200E+07-4.23945E+07-2.09705E+02
 -1      1204 1.83709E+08 4.72395E+08 1.83709E+08-9.20418E+06 2.78194E+07 2.34870E+02
 -1      1205 2.02162E+08 5.19845E+08 2.02162E+08 1.10912E+06 3.18463E+07-1.14475E+02
 -1      1206 1.81545E+08 4.66829E+08 1.81545E+08 3.84262E+06 5.07483E+07-8.65383E+01
 -1      1207 1.49610E+08 3.84710E+08 1.49610E+08 1.00973E+07-1.52306E+07 4.84338E+00
 -1      1208 1.00768E+08 2.59117E+08 1.00768E+08 9.81410E+06 3.68188E+06-2.01430E+02
 -1      1209 6.37212E+07 1.63854E+08 6.37213E+07 1.05395E+06 4.42473E+07 3.62621E+01
 -1      1210 3.80268E+07 9.77838E+07 3.80271E+07 1.15788E+06 1.93175E+06 1.93659E+01
 -1      1211 2.52940E+07 6.50419E+07 2.52942E+07 2.48378E+06 2.68183E+07-7.50108E+01
 -1      1212 3.16794E+07 8.14613E+07 3.16795E+07-1.98621E+06 3.22470E+06 5.15360E+01
 -1      1213 4.35645E+07 1.12023E+08 4.35646E+07-2.59431E+06-5.01897E+06 1.39681E+01
 -1      1214 5.00308E+07 1.28650E+08 5.00308E+07-9.01897E+05 1.42869E+07 1.00870E+01
 -1      1215 5.36909E+07 1.38062E+08 5.36910E+07-4.09676E+05 9.54552E+06 4.12191E+01
 -1      1216 4.58608E+07 1.17928E+08 4.58608E+07 2.82358E+06 7.10672E+06-7.11793E+01
 -1      1217 3.61885E+07 9.30559E+07 3.61885E+07 6.07736E+06-1.28575E+07 4.67992E+01
 -1      1218-2.60449E+06 8.96568E+07 2.99032E+07 2.11636E+07 8.74422E+07-7.60557E+06
 -1      1219-4.84564E+06-1.13740E+07-7.11748E+06-1.81781E+06 2.39016E+06 8.11918E+06
 -1      1220 5.12238E+06 1.28618E+06-1.70705E+06-1.34795E+06 3.94528E+06 1.93113E+06
 -1      1221 1.25243E+07 1.01626E+07 1.08686E+07 1.85573E+05 9.55571E+06-8.02874E+06
 -1      1222-1.03947E+05-2.01343E+07-6.51344E+05 7.49764E+06 4.25543E+06-1.44446E+07
 -1      1223 2.02189E+08 2.44618E+08 1.54162E+08-1.08429E+08 2.27155E+08-1.83025E+08
 -1      1224 5.09551E+06 5.87014E+06 8.32296E+06-1.06284E+06-3.49258E+06-9.81897E+05
 -1      1225-3.34334E+05 5.50713E+06-3.18876E+06 2.91276E+06-6.25495E+06 1.91626E+06
 -1      1226 3.75237E+06 1.35827E+06-6.77804E+05-2.08291E+05-6.32905E+05 1.85194E+06
 -1      1227 6.18025E+06 2.59965E+06 2.31874E+06-3.58144E+06 7.50012E+05 2.58821E+05
 -1      1228 1.18449E+07 1.49063E+07-1.63553E+07-1.50309E+07-1.27031E+07 9.42620E+06
 -1      1229-1.21067E+07 5.72958E+06 6.95626E+06 7.12232E+06 9.71947E+06-2.88024E+06
 -1      1230 2.49897E+06-5.70435E+05 6.54242E+06 1.46337E+06 1.09875E+06-7.10418E+05
 -1      1231-3.81897E+05-1.61265E+06 1.69415E+06 1.60919E+06-2.12299E+06 8.82603E+05
 -1      1232 4.53400E+05 5.94992E+05 6.89764E+04 3.06899E+05-2.07078E+06 1.48397E+06
 -1      1233 2.69409E+06 3.01414E+06 3.83238E+05-1.46383E+06-1.87883E+06 1.16179E+06
 -1      1234 2.33602E+06 5.26598E+06 2.70782E+06-3.62151E+06-8.52693E+05-6.89770E+05
 -1      1235 9.48242E+06 1.14951E+07 1.37130E+07-9.05389E+05 8.11401E+06-7.22609E+06
 -1      1236-1.01683E+07-1.15383E+07-1.29542E+07 5.49968E+05 8.04758E+06-8.25636E+06
 -1      1237-2.34268E+06-5.19428E+06-2.77398E+06 3.90785E+06-9.72057E+05-9.56321E+05
 -1      1238-3.01821E+06-2.81104E+06-3.85209E+05 1.54150E+06-1.86613E+06 1.16696E+06
 -1      1239-6.53531E+05-5.05987E+05-6.96401E+04-2.33053E+05-2.10638E+06 1.53122E+06
 -1      1240 1.56487E+05 1.71785E+06-1.73142E+06-1.43392E+06-2.20423E+06 8.34656E+05
 -1      1241-2.19072E+06 7.56188E+05-6.80416E+06-1.45984E+06 7.34281E+05-9.86524E+05
 -1      1242 1.55364E+07-3.10834E+06-3.86881E+06-7.27011E+06 1.15705E+07-3.32948E+06
 -1      1243-1.32694E+07-1.36928E+07 1.64714E+07 1.51903E+07-1.16137E+07 1.05941E+07
 -1      1244-6.37181E+06-2.63977E+06-2.28278E+06 3.48537E+06 5.17390E+05 1.17014E+05
 -1      1245-3.97727E+06-1.19188E+06 7.34242E+05 1.78105E+05-5.67974E+05 1.94628E+06
 -1      1246 5.49773E+05-5.79137E+06 3.17895E+06-2.84845E+06-6.54771E+06 2.24962E+06
 -1      1247-5.85653E+06-6.37453E+06-8.97977E+06 1.02710E+06-3.96667E+06-1.02673E+06
 -1      1248-2.20360E+08-2.29737E+08-1.55400E+08 1.09000E+08 2.11268E+08-2.01764E+08
 -1      1249-2.37475E+06 1.70505E+07-2.48527E+06-7.33293E+06 3.71441E+06-1.30036E+07
 -1      1250-1.27613E+07-9.63701E+06-1.17802E+07 2.15612E+05 8.65190E+06-8.39880E+06
 -1      1251-5.41661E+06-1.55763E+06 2.00573E+06 1.38591E+06 4.22327E+06 2.12351E+06
 -1      1252 5.34546E+06 1.21656E+07 7.76790E+06 1.86077E+06 2.42404E+06 8.52286E+06
 -1      1253 6.55246E+06-9.35229E+07-2.98505E+07-2.11018E+07 9.14501E+07-1.17138E+07
 -1      1254-1.22146E+07 3.78037E+07 1.41441E+07 7.41040E+06 5.16359E+07-7.04451E+06
 -1      1255-1.26109E+07 4.62270E+06 6.98434E+06 3.39305E+06 4.09832E+06 5.97536E+06
 -1      1256-3.08451E+06-4.10456E+06-4.72050E+06-2.40640E+04 2.34142E+06 7.41015E+06
 -1      1257 5.34438E+06-3.55229E+05-6.03300E+04 1.09824E+06-1.81820E+06 3.00955E+06
 -1      1258 6.42773E+06-5.13862E+05-1.61876E+06-5.63133E+05 2.64037E+06 9.77218E+05
 -1      1259 9.12393E+06 7.10409E+05 1.66507E+06-9.34009E+05 1.85428E+06-1.77994E+06
 -1      1260 1.50194E+07 3.18418E+06 6.37513E+06-7.34748E+05 4.11934E+06-3.82486E+06
 -1      1261 8.18180E+06-5.80023E+06-6.94275E+06-2.40197E+06-2.31083E+06-6.21050E+06
 -1      1262 2.20055E+07-1.89496E+06-1.87859E+06-4.82982E+06 6.57657E+06-1.41235E+07
 -1      1263 3.01036E+07 1.52763E+07 3.75990E+06-2.25267E+07 9.49867E+06-2.30791E+07
 -1      1264 5.43317E+07 7.71921E+07 7.29751E+07-3.80062E+07 1.28277E+08-1.01075E+08
 -1      1265 1.01741E+06 2.80150E+07-6.75071E+06 5.55458E+06 2.65323E+06-8.93799E+05
 -1      1266 4.85553E+06 2.24959E+06 4.94875E+05 9.33205E+05 4.66808E+06 3.35223E+05
 -1      1267 7.12241E+06 1.54703E+06 3.28059E+05-2.36311E+05-2.56855E+03 1.31902E+06
 -1      1268 1.27770E+07 2.79823E+06-8.91953E+05-3.89741E+06-6.93114E+05 1.87015E+06
 -1      1269 2.13446E+07 9.82682E+06 9.13952E+06-1.08217E+07 8.97712E+06-6.29581E+06
 -1      1270 1.37073E+07 4.92426E+07-2.48593E+06-2.35431E+07 2.16762E+07-7.13789E+06
 -1      1271 4.14570E+06 1.32335E+07 4.88555E+06 2.04772E+06-2.76591E+06 3.96278E+04
 -1      1272 1.43701E+06 3.40123E+06 3.29163E+06 3.44516E+06 2.39163E+06-1.78314E+06
 -1      1273 5.43563E+05 2.96940E+06-1.99189E+06 2.82560E+06-3.58104E+06 6.99387E+05
 -1      1274 3.33436E+06 2.88249E+06-7.75113E+05 9.24437E+05-1.26721E+06 8.58673E+05
 -1      1275 5.20017E+06 2.45140E+06-3.80362E+05-1.56746E+05-5.43807E+05 1.61133E+06
 -1      1276 7.60123E+06 3.91848E+06 9.39145E+05-2.82197E+06 5.70084E+05 4.43214E+05
 -1      1277 9.58908E+06 5.29135E+06 1.31704E+06-5.77883E+06 8.48935E+05 1.58369E+05
 -1      1278 9.85349E+06 8.00819E+06-1.73514E+06-9.20765E+06-1.47001E+06 2.40179E+06
 -1      1279 8.37049E+06 9.97998E+06-1.02264E+07-1.46331E+07-8.11452E+06 6.54242E+06
 -1      1280 9.25118E+06 2.15125E+07 1.03361E+07-1.19253E+07 7.78411E+06-5.81078E+06
 -1      1281 2.11554E+06 3.06425E+07 2.82398E+06-5.79627E+06 1.00516E+07-5.54471E+06
 -1      1282-2.04542E+06-2.55833E+06-2.90256E+06-3.36263E+05-1.02365E+06 1.16322E+06
 -1      1283-4.93176E+04 4.18496E+05 1.78170E+05 2.70112E+06-1.96626E+06 7.67195E+05
 -1      1284 3.00108E+06 2.15761E+06-2.73076E+04-1.76493E+05-1.06294E+06 1.23383E+06
 -1      1285 6.38661E+06 5.08036E+06-6.79675E+04-3.67477E+06-1.07367E+06 1.32433E+06
 -1      1286 6.75636E+06 9.94835E+06-1.35940E+06-9.53432E+06-3.24762E+06 1.01847E+06
 -1      1287-6.62987E+06 6.64264E+06-8.43353E+06-1.58542E+06 4.26677E+06 9.34605E+05
 -1      1288 1.90753E+06-7.83387E+05 4.58427E+06 8.69910E+05 4.00970E+05-1.40488E+06
 -1      1289-5.82808E+05-2.50437E+06-7.39456E+05 1.75615E+06-2.26147E+06-2.58161E+05
 -1      1290-5.65683E+05-1.79349E+06 9.58874E+05 2.43411E+06-1.82353E+06 8.78302E+05
 -1      1291-3.95174E+05-6.95274E+05 1.27168E+04 1.69049E+06-1.88015E+06 7.01868E+05
 -1      1292 7.57652E+05 8.97742E+05 8.39881E+04 4.97757E+05-1.63907E+06 1.09178E+06
 -1      1293 2.48495E+06 2.58524E+06 8.73277E+04-9.57057E+05-1.80942E+06 9.60133E+05
 -1      1294 4.25517E+06 4.69345E+06 4.42080E+05-2.39787E+06-1.67668E+06 1.13311E+06
 -1      1295 4.24509E+06 6.04177E+06-3.64516E+04-3.95435E+06-1.92881E+06 7.86849E+05
 -1      1296 4.48597E+06 8.58145E+06 1.56740E+06-5.95293E+06-7.69279E+05-9.31212E+05
 -1      1297 2.30077E+06 1.17878E+07-1.07196E+06-3.95491E+06-2.91589E+06 7.33327E+05
 -1      1298 3.88664E+06 1.47144E+07 8.54028E+06-8.55345E+05 3.69806E+06-2.41210E+06
 -1      1299-4.92976E+05-6.32092E+06-1.16977E+06 1.37715E+06 2.60000E+06-1.23805E+06
 -1      1300-2.69167E+06-5.24767E+06-6.38703E+05 4.13965E+06-6.22768E+05-3.82580E+05
 -1      1301-1.83262E+06-1.72846E+06-6.00682E+04 1.51510E+06-1.41414E+06 1.21410E+06
 -1      1302 1.44548E+06 1.93122E+06 5.42727E+04-1.39778E+06-1.41075E+06 1.22628E+06
 -1      1303 2.51418E+06 5.47365E+06 6.44573E+05-3.84463E+06-5.83056E+05-2.87331E+05
 -1      1304 5.36994E+05 6.61224E+06 1.27406E+06-1.29553E+06 2.38682E+06-1.11577E+06
 -1      1305-3.75015E+06-1.40648E+07-7.94108E+06 9.88664E+05 3.77310E+06-3.06697E+06
 -1      1306-2.40510E+06-1.12660E+07 1.09853E+06 4.25269E+06-2.68132E+06 7.38427E+05
 -1      1307-4.72895E+06-8.37745E+06-1.58197E+06 6.28722E+06-8.04818E+05-1.08849E+06
 -1      1308-4.61346E+06-5.79757E+06 5.30932E+04 4.11805E+06-1.93473E+06 7.47714E+05
 -1      1309-4.71848E+06-4.40710E+06-4.45623E+05 2.51398E+06-1.67189E+06 1.13365E+06
 -1      1310-2.85530E+06-2.36145E+06-8.40177E+04 1.06304E+06-1.81621E+06 9.58674E+05
 -1      1311-1.06959E+06-7.51312E+05-8.50156E+04-3.89158E+05-1.66850E+06 1.12938E+06
 -1      1312 1.48503E+05 8.41351E+05-3.10246E+04-1.54191E+06-1.91361E+06 6.94327E+05
 -1      1313 3.86444E+05 1.92611E+06-9.77328E+05-2.18806E+06-1.87629E+06 8.79844E+05
 -1      1314 5.29195E+05 2.53684E+06 7.84574E+05-1.55840E+06-2.34648E+06-2.00125E+05
 -1      1315-1.93725E+06 7.87822E+05-4.82401E+06-7.78391E+05 8.58962E+04-1.58986E+06
 -1      1316 6.34920E+06-6.65935E+06 7.85495E+06 1.98681E+06 5.15599E+06 1.48412E+06
 -1      1317-7.31791E+06-9.54804E+06 1.49969E+06 9.69693E+06-3.06188E+06 1.04374E+06
 -1      1318-6.80923E+06-4.84890E+06 5.30106E+04 3.75439E+06-1.10921E+06 1.31821E+06
 -1      1319-3.31462E+06-2.03933E+06 4.44790E+04 2.35115E+05-1.05290E+06 1.28027E+06
 -1      1320-2.06938E+04-3.90588E+05-2.15533E+05-2.56244E+06-2.03469E+06 8.19355E+05
 -1      1321 2.13153E+06 2.66690E+06 3.01299E+06 4.75325E+05-1.36464E+06 1.28336E+06
 -1      1322-4.73105E+05-2.70921E+07-9.12033E+05 5.49308E+06 1.16209E+07-5.93934E+06
 -1      1323-9.60874E+06-2.13355E+07-9.97030E+06 1.16598E+07 7.08791E+06-7.14633E+06
 -1      1324-9.24204E+06-9.25554E+06 1.02955E+07 1.48342E+07-7.65077E+06 7.06026E+06
 -1      1325-1.04453E+07-7.57548E+06 1.61810E+06 9.37412E+06-1.43790E+06 2.61183E+06
 -1      1326-9.99328E+06-5.15004E+06-1.31796E+06 5.72924E+06 7.23884E+05 1.04130E+05
 -1      1327-8.02161E+06-3.83314E+06-9.52320E+05 2.77216E+06 5.00295E+05 3.96740E+05
 -1      1328-5.50861E+06-2.35646E+06 4.07902E+05 1.24122E+05-5.31680E+05 1.67784E+06
 -1      1329-3.50303E+06-2.90055E+06 8.13901E+05-8.73532E+05-1.29558E+06 9.32554E+05
 -1      1330-5.17069E+05-3.09326E+06 1.98588E+06-2.73562E+06-3.71971E+06 8.69538E+05
 -1      1331-1.44215E+06-3.43381E+06-3.41245E+06-3.47032E+06 2.51817E+06-2.08674E+06
 -1      1332-4.48375E+06-1.39978E+07-5.28416E+06-2.09278E+06-3.17793E+06-5.19271E+03
 -1      1333-1.44076E+07-4.19344E+07 6.67383E+04 2.33014E+07 2.23689E+07-8.19477E+06
 -1      1334-2.18217E+07-9.59166E+06-9.65129E+06 1.13935E+07 7.72950E+06-7.08846E+06
 -1      1335-1.35531E+07-2.75133E+06 8.77073E+05 3.79835E+06-6.92950E+05 2.09436E+06
 -1      1336-7.35897E+06-1.53888E+06-3.84912E+05 1.87725E+05-5.24789E+04 1.39841E+06
 -1      1337-4.91764E+06-2.27855E+06-3.67645E+05-7.90324E+05 4.96964E+06 2.18493E+05
 -1      1338-8.69723E+05-2.97644E+07 7.32432E+06-5.62025E+06 2.46633E+06-1.07528E+06
 -1      1339-6.37157E+07-6.88486E+07-7.35931E+07 3.82154E+07 1.18446E+08-1.12564E+08
 -1      1340-3.79907E+07-1.48129E+07-1.35716E+06 2.30934E+07 8.67129E+06-2.27645E+07
 -1      1341-2.58865E+07 2.82185E+05-4.22878E+04 5.29729E+06 6.16807E+06-1.28997E+07
 -1      1342-8.27913E+06 6.18894E+06 7.63163E+06 2.09411E+06-1.79409E+06-5.58157E+06
 -1      1343-1.59669E+07-3.37151E+06-7.06484E+06 6.80104E+05 3.52325E+06-3.95976E+06
 -1      1344-9.63344E+06-7.63288E+05-1.79324E+06 9.30560E+05 1.76069E+06-1.74294E+06
 -1      1345-6.60972E+06 5.61097E+05 1.88670E+06 5.38998E+05 2.83598E+06 1.15146E+06
 -1      1346-5.58377E+06 2.85136E+05-4.52537E+04-1.18446E+06-1.92602E+06 3.24092E+06
 -1      1347 3.78774E+06 4.46382E+06 5.11845E+06 1.09413E+05 2.37845E+06 7.76472E+06
 -1      1348 1.43450E+07-4.77357E+06-7.56022E+06-3.28450E+06 4.32484E+06 6.08773E+06
 -1      1349 1.43347E+07-3.98737E+07-1.41185E+07-7.38779E+06 5.41131E+07-9.57069E+06
 -1      1350-1.43780E+07 2.80919E+07 4.40180E+06 6.31423E+06 1.87872E+07-3.95800E+06
 -1      1351-1.34247E+06-2.28900E+06-2.19828E+06 1.07672E+06 1.18423E+06 4.79158E+06
 -1      1352 9.23048E+06 3.54276E+04-5.30302E+05-1.96937E+05 7.10063E+05 8.70031E+05
 -1      1353 1.55136E+07 5.30704E+04-7.80178E+05-2.48969E+06 6.61026E+05-7.92709E+04
 -1      1354 3.04497E+07 9.28575E+05-2.39674E+06-1.06530E+07 2.84327E+06-4.89913E+06
 -1      1355 2.55856E+07 4.49864E+07 2.27315E+07-3.25026E+07 4.35040E+07-3.29514E+07
 -1      1356 3.16110E+06 1.47705E+07 1.59797E+06 3.19915E+06-3.60054E+06-2.02843E+05
 -1      1357 1.87071E+06 4.11944E+06-5.48431E+04 3.63464E+06-4.45945E+05 5.44519E+05
 -1      1358 7.14299E+06 3.66293E+06-2.12256E+02-4.21796E+05-1.09509E+05 5.94317E+05
 -1      1359 1.27130E+07 6.96490E+06 4.96486E+05-7.36525E+06 6.44105E+04 3.79509E+05
 -1      1360 1.47491E+07 1.64251E+07-2.89100E+05-1.88315E+07 2.28255E+05-3.74323E+05
 -1      1361 3.51089E+06 3.91612E+07-7.16477E+05-1.16072E+07 1.47522E+06-2.19525E+06
 -1      1362-2.43326E+04-3.67941E+06 2.87906E+05 1.14564E+06-1.04163E+06-5.52338E+05
 -1      1363-1.22783E+06-2.63270E+06 2.26389E+05 3.34699E+06-8.03402E+05 1.26545E+05
 -1      1364 8.85966E+05 1.12683E+06-3.08216E+04 6.63601E+05-1.02161E+06 7.14104E+05
 -1      1365 5.16076E+06 5.73531E+06-1.66414E+05-3.20496E+06-9.64601E+05 6.03131E+05
 -1      1366 5.73679E+06 1.14116E+07 6.68726E+05-7.69195E+06-6.40491E+05-4.63117E+04
 -1      1367-7.45463E+04 1.39266E+07-6.95480E+05-2.42707E+06-7.13036E+05-2.20960E+05
 -1      1368 9.96509E+01-1.33820E+07 6.52595E+05 2.69424E+06-4.05445E+05-3.63390E+05
 -1      1369-6.05116E+06-1.10557E+07-5.85139E+05 8.11062E+06-6.45542E+05-1.02820E+05
 -1      1370-5.75863E+06-5.36285E+06 1.66750E+05 3.35915E+06-9.51465E+05 6.13999E+05
 -1      1371-1.30241E+06-9.28164E+05 2.94184E+04-5.20668E+05-1.04627E+06 7.44860E+05
 -1      1372 1.00983E+06 2.80451E+06-2.45624E+05-3.03216E+06-8.26230E+05 1.53078E+05
 -1      1373 3.09356E+04 3.70789E+06-3.50012E+05-9.81240E+05-1.27893E+06-5.77942E+05
 -1      1374-2.48588E+06-3.56162E+07 1.37087E+06 1.13772E+07 2.73965E+06-2.46092E+06
 -1      1375-1.57396E+07-1.56636E+07 2.91681E+05 1.90957E+07 2.05734E+05-4.26038E+05
 -1      1376-1.33425E+07-6.78823E+06-5.87865E+05 7.31527E+06 1.89390E+04 3.62840E+05
 -1      1377-7.55322E+06-3.56172E+06 1.86072E+04 3.88639E+05-1.22613E+05 6.19802E+05
 -1      1378-1.87715E+06-4.23475E+06 5.44188E+04-3.51932E+06-4.57346E+05 5.71097E+05
 -1      1379-3.38918E+06-1.55749E+07-1.74519E+06-3.21940E+06-3.95311E+06-2.48618E+05
 -1      1380-3.33908E+07-3.77520E+07-2.29247E+07 3.27249E+07 3.96675E+07-3.73915E+07
 -1      1381-3.45004E+07-1.96104E+06 1.77851E+06 1.11692E+07 2.59095E+06-3.76601E+06
 -1      1382-1.63552E+07 2.24840E+04 8.41587E+05 2.36156E+06 5.30944E+05 1.36019E+05
 -1      1383-9.50864E+06-3.53095E+04 6.04722E+05 1.40804E+05 7.46065E+05 1.03079E+06
 -1      1384 2.03812E+06 2.53380E+06 2.35377E+06-9.88696E+05 1.23240E+06 5.11164E+06
 -1      1385 1.61730E+07-2.98529E+07-4.39068E+06-6.29741E+06 1.97550E+07-4.93584E+06
 -1      1386-1.31146E+07 2.33782E+07 3.02234E+06 5.88031E+06 1.11685E+07-4.10367E+06
 -1      1387-1.11996E+07 2.83407E+06 2.46618E+06 4.67476E+06-1.81828E+06 1.35187E+06
 -1      1388-6.46347E+05-1.76957E+06-2.29639E+06 2.64008E+06 2.31825E+06 2.07064E+06
 -1      1389 9.35930E+06 1.08361E+06 3.36427E+05 1.65890E+06 5.92234E+05-2.25786E+05
 -1      1390 1.19929E+07 3.54869E+05-7.02544E+05 5.63888E+04 4.18528E+05 5.72356E+05
 -1      1391 1.67885E+07 6.73077E+05 3.50816E+05-1.92382E+06 5.57184E+04-4.23689E+05
 -1      1392 1.87870E+07-2.72120E+05-1.51339E+06-4.25452E+06-6.25646E+05 1.38400E+06
 -1      1393 2.46429E+07 2.90141E+05 5.69778E+05-7.15410E+06 2.14341E+06-3.87488E+06
 -1      1394 4.14174E+07 4.57286E+06-3.68615E+05-1.74241E+07 6.75306E+06-3.62761E+06
 -1      1395 3.04951E+07 1.30288E+07 4.72245E+05-2.82511E+07-3.74353E+06-6.16290E+06
 -1      1396 1.82039E+07 3.48553E+07 1.56106E+07-3.04193E+07 2.17092E+07-1.46491E+07
 -1      1397 2.17744E+06 2.64642E+07-2.73905E+06 6.38979E+06 9.86600E+05 5.53768E+05
 -1      1398 5.24516E+06 2.57854E+06 2.04348E+05 3.78927E+06 1.55380E+06-8.54766E+05
 -1      1399 1.18349E+07 2.88179E+06 6.14506E+04-4.35462E+05-1.38337E+05 7.73835E+05
 -1      1400 1.95402E+07 4.11119E+06-1.08577E+06-7.39724E+06-7.23523E+05 1.38572E+06
 -1      1401 3.25100E+07 1.27876E+07 2.58352E+06-2.25530E+07 2.98927E+06 8.89837E+05
 -1      1402 1.28453E+07 4.85131E+07-1.87985E+06-2.90454E+07 5.96595E+06 2.73060E+06
 -1      1403 4.10332E+06 1.86537E+07 2.56493E+06 4.20055E+06-9.06280E+05 9.32985E+04
 -1      1404 2.29662E+06 7.78044E+06 8.54361E+05 4.99904E+06 6.69937E+05-5.89000E+05
 -1      1405 2.24238E+06 4.34276E+06-3.63073E+05 4.45238E+06-5.97446E+05 1.00048E+06
 -1      1406 4.95850E+06 4.33769E+06-2.65889E+05 1.79363E+06-1.73140E+05 3.56508E+05
 -1      1407 8.84715E+06 4.79387E+06 2.30866E+04-6.83170E+05 3.14040E+05-2.58415E+04
 -1      1408 1.22229E+07 6.53687E+06 1.08780E+05-4.70332E+06 1.62713E+05-1.84688E+05
 -1      1409 1.62741E+07 9.25786E+06 8.09388E+05-9.01775E+06 1.69314E+05-3.88276E+05
 -1      1410 1.64799E+07 1.27719E+07-1.19548E+06-1.42507E+07 5.70337E+05-3.96234E+05
 -1      1411 1.63029E+07 1.80309E+07-1.87752E+06-2.30789E+07 7.59675E+05-1.37136E+06
 -1      1412 1.24495E+07 3.50852E+07 2.86814E+06-2.30151E+07-6.31718E+04-1.98391E+06
 -1      1413 7.37633E+06 5.18995E+07 1.76401E+06-1.80842E+07 2.54085E+06-5.67713E+06
 -1      1414-1.11735E+06-7.99610E+04-1.45516E+05 9.62503E+05 1.87529E+06 2.22629E+05
 -1      1415 2.28651E+05 1.40735E+06-2.00797E+05 3.72738E+06-2.77304E+05 4.32451E+05
 -1      1416 4.91732E+06 3.74118E+06 2.51945E+04-1.17608E+05 7.34763E+04 1.27867E+05
 -1      1417 1.11431E+07 9.25908E+06 5.43491E+05-6.08552E+06-1.53042E+05 5.48356E+04
 -1      1418 1.10762E+07 1.70779E+07-1.21826E+06-1.43211E+07 4.41212E+03-8.07271E+05
 -1      1419-5.06373E+05 2.40198E+07 3.77729E+05-6.47018E+06 4.54694E+06-2.07151E+06
 -1      1420-4.98023E+05-5.34364E+06 1.94977E+05 1.54669E+06-1.28481E+06-7.24800E+05
 -1      1421-1.54510E+06-4.90977E+06-5.37870E+05 3.33877E+06-1.44686E+06-1.31345E+05
 -1      1422-1.55999E+06-3.03549E+06 3.19062E+05 4.27956E+06 1.86913E+05-3.02512E+05
 -1      1423-4.87984E+05-8.50848E+05 1.94490E+05 2.59676E+06-1.61099E+05-1.52645E+05
 -1      1424 1.04552E+06 1.41453E+06-6.85701E+04 8.23792E+05-3.39556E+05 2.89348E+05
 -1      1425 3.84787E+06 4.07844E+06-7.64131E+04-1.57889E+06-3.41741E+05-5.31418E+04
 -1      1426 6.30450E+06 7.01677E+06-3.62853E+05-3.98366E+06-2.17847E+05 4.14158E+04
 -1      1427 7.90601E+06 1.07226E+07 5.92608E+05-6.41290E+06-7.38678E+04 2.48838E+05
 -1      1428 7.62246E+06 1.47805E+07 9.72433E+05-9.48897E+06 5.20544E+05 5.01419E+04
 -1      1429 2.91881E+06 1.72982E+07-1.38421E+06-7.61064E+06-2.04017E+06 6.86244E+05
 -1      1430-5.63263E+05 1.64630E+07-1.39874E+06-4.07366E+06-2.19915E+06 9.17849E+05
 -1      1431-4.77049E+05-1.16012E+07-2.75768E+05 2.75188E+06 5.91031E+05-3.85300E+04
 -1      1432-4.47434E+06-8.42815E+06-6.94980E+04 6.91540E+06 2.92926E+05-1.07516E+05
 -1      1433-2.90088E+06-2.68597E+06 5.02490E+04 2.49219E+06 7.88517E+04 2.22701E+05
 -1      1434 2.28440E+06 3.04054E+06-4.34310E+04-2.29301E+06 7.68303E+04 2.17543E+05
 -1      1435 4.13263E+06 8.75986E+06 6.07299E+04-6.45541E+06 3.09370E+05-7.24263E+04
 -1      1436 5.32466E+05 1.20347E+07 3.82563E+05-2.44071E+06 5.02870E+05-2.40438E+04
 -1      1437 4.85896E+05-1.58437E+07 1.37020E+06 4.46338E+06-1.89864E+06 8.70123E+05
 -1      1438-3.21169E+06-1.67138E+07 1.27075E+06 8.09474E+06-1.90673E+06 7.17385E+05
 -1      1439-8.05544E+06-1.42955E+07-9.07048E+05 1.00003E+07 4.67829E+05-2.27458E+04
 -1      1440-8.50319E+06-1.02700E+07-5.85424E+05 6.72470E+06-1.00020E+05 2.19813E+05
 -1      1441-7.03594E+06-6.56191E+06 3.65036E+05 4.17540E+06-1.86745E+05 7.34122E+04
 -1      1442-4.47794E+06-3.72600E+06 7.04160E+04 1.74636E+06-3.33149E+05-4.96959E+04
 -1      1443-1.57075E+06-1.15994E+06 6.68765E+04-6.46819E+05-3.61581E+05 3.17880E+05
 -1      1444 7.61290E+04 1.09118E+06-1.92437E+05-2.33956E+06-1.77368E+05-1.80113E+05
 -1      1445 1.31102E+06 3.24324E+06-3.23570E+05-3.89173E+06 1.63226E+05-3.08574E+05
 -1      1446 1.46353E+06 4.98104E+06 5.57760E+05-2.99267E+06-1.47669E+06-1.23495E+05
 -1      1447 4.80393E+05 5.33819E+06-2.91376E+05-1.29965E+06-1.42622E+06-7.19748E+05
 -1      1448 2.70323E+05-2.33332E+07-4.48539E+05 6.93597E+06 4.41794E+06-2.09024E+06
 -1      1449-1.18403E+07-1.62804E+07 1.20510E+06 1.47616E+07 1.90562E+05-7.40127E+05
 -1      1450-1.19042E+07-8.90254E+06-5.59773E+05 6.17441E+06-1.88882E+05 2.15034E+04
 -1      1451-5.43399E+06-3.54233E+06-2.81859E+04 1.99853E+05 1.00902E+05 1.46033E+05
 -1      1452-3.70448E+05-1.39980E+06 2.06213E+05-3.45377E+06-3.33629E+05 4.62164E+05
 -1      1453 1.18534E+06 5.17135E+04 1.53650E+05-7.53346E+05 1.91627E+06 2.41256E+05
 -1      1454-6.29448E+06-4.76898E+07-9.69395E+05 1.80449E+07 2.92496E+06-6.15313E+06
 -1      1455-1.27468E+07-3.38982E+07-2.78447E+06 2.31484E+07-4.35567E+05-2.40012E+06
 -1      1456-1.73653E+07-1.72122E+07 1.89192E+06 2.34076E+07 9.77692E+05-1.19098E+06
 -1      1457-1.75847E+07-1.22037E+07 1.22877E+06 1.43272E+07 6.56385E+05-2.20451E+05
 -1      1458-1.71121E+07-9.00604E+06-8.89557E+05 8.96165E+06 9.89066E+04-4.67435E+05
 -1      1459-1.28752E+07-6.34813E+06-1.00191E+05 4.64389E+06 1.32943E+05-2.15440E+05
 -1      1460-9.35120E+06-4.68941E+06-1.76676E+04 6.46628E+05 3.30707E+05-1.00493E+04
 -1      1461-5.19717E+06-4.33874E+06 2.61748E+05-1.75836E+06-1.94823E+05 3.97904E+05
 -1      1462-2.28812E+06-4.44702E+06 3.62366E+05-4.31062E+06-6.60607E+05 1.06511E+06
 -1      1463-2.37119E+06-8.05743E+06-8.89549E+05-4.91147E+06 7.49142E+05-6.94077E+05
 -1      1464-4.36809E+06-1.96557E+07-2.75583E+06-4.16920E+06-1.02923E+06-4.19522E+03
 -1      1465-1.29818E+07-4.16031E+07 9.84198E+05 2.90104E+07 6.10456E+06 3.11521E+06
 -1      1466-3.42082E+07-1.26563E+07-2.71103E+06 2.30064E+07 2.61312E+06 5.42489E+05
 -1      1467-2.04927E+07-3.89106E+06 1.22038E+06 7.26586E+06-7.03834E+05 1.55498E+06
 -1      1468-1.22357E+07-2.86947E+06-8.23123E+04 3.55414E+05-1.46094E+05 8.23513E+05
 -1      1469-5.14319E+06-2.56689E+06-1.66345E+05-3.67790E+06 1.64822E+06-9.16654E+05
 -1      1470-2.15681E+06-2.81306E+07 2.96423E+06-6.41451E+06 9.47197E+05 6.60558E+05
 -1      1471-2.48809E+07-2.86359E+07-1.57463E+07 3.06833E+07 1.90845E+07-1.75473E+07
 -1      1472-3.80524E+07-1.30971E+07 4.37558E+05 2.88477E+07-3.38759E+06-6.13343E+06
 -1      1473-4.63657E+07-5.73223E+06-4.39144E+05 1.78874E+07 6.35602E+06-3.33709E+06
 -1      1474-2.57195E+07-3.12952E+04-5.08761E+05 6.91774E+06 2.15467E+06-4.10631E+06
 -1      1475-1.97408E+07 3.63453E+05 1.57523E+06 4.06955E+06-6.82337E+05 1.67719E+06
 -1      1476-1.75952E+07-7.39330E+05-4.67966E+05 1.79440E+06 4.50944E+04-3.75830E+05
 -1      1477-1.23091E+07-3.36080E+05 8.10738E+05-1.49848E+05 4.25963E+05 6.77001E+05
 -1      1478-9.58335E+06-1.14666E+06-3.44097E+05-1.74238E+06 5.82166E+05-3.04080E+05
 -1      1479 1.48450E+06 2.04293E+06 2.49363E+06-2.57303E+06 2.41156E+06 2.18603E+06
 -1      1480 1.27953E+07-2.86617E+06-2.69229E+06-4.58973E+06-1.90374E+06 1.36777E+06
 -1      1481 1.46506E+07-2.48948E+07-3.01607E+06-5.86843E+06 1.18190E+07-4.75940E+06
 -3
    1PSTEP                         7           1           1          
    1PGM                1.000000E+00                                  
    1PGK                9.543967E+10                                  
    1PHID                         -1                                  
    1PSUBC                         0                                  
    1PMODE                         2                                  
  100CL  102 49168.23204        1481                     2    2MODAL      1
 -4  TOSTRAIN    6    1
 -5  EXX         1    4    1    1
 -5  EYY         1    4    2    2
 -5  EZZ         1    4    3    3
 -5  EXY         1    4    1    2
 -5  EYZ         1    4    2    3
 -5  EZX         1    4    3    1
 -1         1 1.20628E+02-1.54141E+02-8.73671E-01-4.42753E+01 8.40922E+01-3.08982E+01
 -1         2 7.46095E+01-3.10553E+01-2.82854E+01-3.51982E+01-1.36906E+01 1.01788E+01
 -1         3-2.89484E+00 5.56239E+00 9.52903E+00-1.98782E+01 1.74550E+01 1.55907E+01
 -1         4-5.27158E+01 9.59525E+00 1.52211E+01-1.24906E+01 4.45918E+00-1.70004E+00
 -1         5-7.11193E+01 1.65085E+01 2.44702E+01-4.24574E-01 3.15127E+00 4.30951E+00
 -1         6-9.70694E+01 2.42702E+01 2.66966E+01 1.44852E+01 4.19526E-01-3.19013E+00
 -1         7-1.13453E+02 3.00514E+01 3.93975E+01 3.20340E+01-4.71075E+00 1.04207E+01
 -1         8-1.43542E+02 3.98200E+01 3.77145E+01 5.38661E+01 1.61386E+01-2.91756E+01
 -1         9-2.36707E+02 4.07106E+01 7.79170E+01 1.31193E+02 5.08466E+01-2.73138E+01
 -1        10-1.57146E+02-2.56348E+01 6.89085E+01 2.12714E+02-2.81866E+01-4.64030E+01
 -1        11-2.39614E+01-1.49337E+02-4.43533E+00 2.29040E+02 1.63458E+02-1.10299E+02
 -1        12 2.62683E+01-1.56597E+02 6.32866E+01-4.81113E+01 7.42852E+00 4.16955E+00
 -1        13-2.62703E+01-6.19225E+00 1.16840E+01-2.85310E+01 1.16992E+01-6.43589E+00
 -1        14-6.47691E+01 2.64220E+00 2.38777E+01 3.27877E+00-1.04160E+00 5.82652E+00
 -1        15-1.09959E+02 6.21212E+00 4.53421E+01 5.56969E+01-5.44770E+00 1.04337E+01
 -1        16-1.65918E+02-1.74198E+01 5.94106E+01 1.69811E+02 2.25074E+01 6.69995E+00
 -1        17 1.24736E+00-2.67310E+02 1.12119E+02 2.18695E+02 4.49201E+01 2.05598E+01
 -1        18 1.08112E+01-9.87447E+01 2.23943E+01-3.16277E+01-6.82376E+00 7.02483E-01
 -1        19 7.12519E-01-4.05775E+01 1.15719E+01-3.76399E+01 5.04423E+00-4.43483E+00
 -1        20-6.63572E+00-2.24503E+01 1.29818E+01-3.35238E+01-4.49842E+00 7.53304E+00
 -1        21-2.24611E+01-1.77868E+01 1.68754E+01-1.35050E+01-1.30364E+00 2.68429E+00
 -1        22-4.41083E+01-1.35894E+01 2.23318E+01 5.14387E+00 2.36453E+00-1.94572E-01
 -1        23-6.09535E+01-1.81412E+01 3.02585E+01 3.54133E+01 1.22513E+00-1.39059E+00
 -1        24-7.91484E+01-2.63205E+01 3.72915E+01 6.78984E+01 1.27484E+00-2.92349E+00
 -1        25-7.78736E+01-4.99543E+01 5.52116E+01 1.07299E+02 4.29430E+00-2.98341E+00
 -1        26-6.92938E+01-8.23045E+01 6.75939E+01 1.73771E+02 5.71991E+00-1.03255E+01
 -1        27-1.07212E+01-1.81154E+02 6.14210E+01 1.73290E+02-4.75646E-01-1.49376E+01
 -1        28 4.49968E+01-2.90237E+02 8.72542E+01 1.36163E+02 1.91311E+01-4.27455E+01
 -1        29 6.20127E+00-1.60966E+00-1.11606E+00-7.24708E+00 1.41199E+01 1.67626E+00
 -1        30 6.42255E-01-8.23264E+00 3.87575E+00-2.80650E+01-2.08794E+00 3.25610E+00
 -1        31-2.27220E+01-1.38663E+01 1.41129E+01 8.85516E-01 5.53233E-01 9.62766E-01
 -1        32-4.94022E+01-3.52167E+01 3.04066E+01 4.58204E+01-1.15231E+00 4.12880E-01
 -1        33-3.90322E+01-8.42219E+01 5.35377E+01 1.07830E+02 3.32206E-02-6.07827E+00
 -1        34 4.31628E+01-1.41505E+02 3.65060E+01 4.87166E+01 3.42358E+01-1.55973E+01
 -1        35-5.55060E+00 3.09340E+01-1.07685E+01-1.16457E+01-9.67388E+00-5.45732E+00
 -1        36 1.16255E-01 2.54502E+01-7.46762E+00-2.51390E+01-1.08940E+01-9.88953E-01
 -1        37 4.70230E+00 1.58119E+01-9.44587E+00-3.22226E+01 1.40735E+00-2.27774E+00
 -1        38 1.78943E+00 4.52159E+00-3.34919E+00-1.95521E+01-1.21298E+00-1.14933E+00
 -1        39-3.93323E+00-6.71168E+00 4.45520E+00-6.20267E+00-2.55666E+00 2.17862E+00
 -1        40-1.60429E+01-1.77790E+01 1.35046E+01 1.18881E+01-2.57311E+00-4.00127E-01
 -1        41-2.61259E+01-3.14889E+01 2.40754E+01 2.99946E+01-1.64026E+00 3.11837E-01
 -1        42-2.78691E+01-4.90766E+01 2.71965E+01 4.82854E+01-5.56181E-01 1.87360E+00
 -1        43-1.88919E+01-7.27881E+01 3.11789E+01 7.14463E+01 3.91939E+00 3.77539E-01
 -1        44 9.04176E+00-9.92264E+01 4.14410E+01 5.73037E+01-1.53613E+01 5.16701E+00
 -1        45 2.81250E+01-1.00073E+02 3.44157E+01 3.06723E+01-1.65583E+01 6.91086E+00
 -1        46-1.67559E+01 6.70023E+01-1.82714E+01-2.07200E+01 4.45012E+00-2.90108E-01
 -1        47 1.23235E+01 4.20934E+01-2.08423E+01-5.20689E+01 2.20556E+00-8.09531E-01
 -1        48 1.27228E+01 1.11047E+01-9.49745E+00-1.87647E+01 5.93707E-01 1.67681E+00
 -1        49-8.50125E+00-1.41945E+01 9.02597E+00 1.72650E+01 5.78487E-01 1.63797E+00
 -1        50-9.78156E+00-4.46219E+01 2.08775E+01 4.86055E+01 2.32937E+00-5.45328E-01
 -1        51 1.73198E+01-6.92851E+01 1.84485E+01 1.83771E+01 3.78632E+00-1.81035E-01
 -1        52-2.66969E+01 9.62553E+01-3.33552E+01-3.36066E+01-1.42956E+01 6.55151E+00
 -1        53-6.54331E+00 9.51195E+01-4.02934E+01-6.09486E+01-1.43566E+01 5.40149E+00
 -1        54 2.23454E+01 6.93294E+01-3.14777E+01-7.52967E+01 3.52247E+00-1.71263E-01
 -1        55 3.21393E+01 4.54421E+01-2.74768E+01-5.06330E+01-7.53091E-01 1.65507E+00
 -1        56 3.11813E+01 2.76121E+01-2.45437E+01-3.14383E+01-1.40608E+00 5.52751E-01
 -1        57 2.03198E+01 1.46582E+01-1.39266E+01-1.31490E+01-2.50842E+00-3.74181E-01
 -1        58 7.43935E+00 4.34620E+00-4.89099E+00 4.87017E+00-2.72249E+00 2.39345E+00
 -1        59 1.03246E+00-6.61026E+00 3.05461E+00 1.76155E+01-1.33547E+00-1.35614E+00
 -1        60-2.90300E+00-1.74515E+01 9.40448E+00 2.93025E+01 1.22900E+00-2.32338E+00
 -1        61 5.13697E-01-2.59710E+01 7.33364E+00 2.25331E+01-1.11186E+01-9.29844E-01
 -1        62 5.48656E+00-3.10898E+01 1.12975E+01 9.78557E+00-1.07386E+01-5.41928E+00
 -1        63-4.07601E+01 1.36961E+02-3.53475E+01-5.22238E+01 3.32645E+01-1.57383E+01
 -1        64 4.48189E+01 7.82501E+01-5.34052E+01-1.11146E+02 1.43482E+00-5.57272E+00
 -1        65 5.44400E+01 3.18389E+01-3.09772E+01-4.64897E+01-1.42217E+00 1.61908E-01
 -1        66 2.60838E+01 1.18407E+01-1.46187E+01-1.50478E+00 7.59729E-01 1.09954E+00
 -1        67 2.13198E-01 7.96362E+00-4.12872E+00 2.60048E+01-2.51203E+00 3.47982E+00
 -1        68-6.63436E+00 1.90120E+00 1.13368E+00 5.67225E+00 1.44284E+01 1.81651E+00
 -1        69-4.31182E+01 2.68564E+02-8.32129E+01-1.35867E+02 2.20232E+01-4.63295E+01
 -1        70 1.45629E+01 1.73820E+02-6.04479E+01-1.74294E+02-3.27956E+00-1.80715E+01
 -1        71 7.69154E+01 7.57625E+01-6.80800E+01-1.76245E+02 7.36145E+00-8.96736E+00
 -1        72 8.53630E+01 4.48471E+01-5.62912E+01-1.07875E+02 4.94219E+00-1.65987E+00
 -1        73 8.43608E+01 2.33269E+01-3.77854E+01-6.74760E+01 7.44708E-01-3.51951E+00
 -1        74 6.51159E+01 1.59706E+01-3.10726E+01-3.49657E+01 1.00098E+00-1.62214E+00
 -1        75 4.72542E+01 1.21537E+01-2.30218E+01-4.86873E+00 2.49003E+00-7.56650E-02
 -1        76 2.38565E+01 1.73931E+01-1.72459E+01 1.32394E+01-1.46690E+00 2.99598E+00
 -1        77 6.73190E+00 2.29871E+01-1.32247E+01 3.24565E+01-4.97398E+00 8.01966E+00
 -1        78-7.88026E-01 4.20260E+01-1.19439E+01 3.69805E+01 5.64060E+00-5.22599E+00
 -1        79-1.12185E+01 1.03888E+02-2.33578E+01 3.13916E+01-7.74947E+00-3.15876E-02
 -1        80 9.46190E+00 2.24963E+02-9.56939E+01-2.18431E+02 4.59638E+01 2.34557E+01
 -1        81 1.75914E+02 1.36409E+01-6.12414E+01-1.73225E+02 1.96753E+01 4.08463E+00
 -1        82 1.16146E+02-8.85404E+00-4.73402E+01-5.47077E+01-5.29945E+00 1.17081E+01
 -1        83 6.71127E+01-3.40917E+00-2.43949E+01-2.67606E+00-1.10001E+00 6.20057E+00
 -1        84 2.57522E+01 6.35423E+00-1.17204E+01 2.76924E+01 1.24101E+01-6.90186E+00
 -1        85-2.87633E+01 1.66804E+02-6.73217E+01 4.82975E+01 7.13184E+00 4.97361E+00
 -1        86 7.32582E+01 1.01531E+02 4.48006E+00-2.31027E+02 1.43695E+02-1.32121E+02
 -1        87 2.02987E+02 1.50880E+01-8.68202E+01-2.17206E+02-2.55066E+01-4.61811E+01
 -1        88 2.62575E+02-4.33712E+01-8.32251E+01-1.34681E+02 4.78571E+01-2.51263E+01
 -1        89 1.50402E+02-4.30155E+01-3.94204E+01-5.20865E+01 1.62234E+01-3.09181E+01
 -1        90 1.19316E+02-3.20577E+01-4.11817E+01-3.06413E+01-5.13759E+00 1.26283E+01
 -1        91 1.01513E+02-2.54021E+01-2.74453E+01-1.35108E+01 3.39534E-01-2.82978E+00
 -1        92 7.31885E+01-1.69616E+01-2.55965E+01 1.12827E+00 3.20725E+00 5.09742E+00
 -1        93 5.39173E+01-9.60601E+00-1.56489E+01 1.31191E+01 4.38337E+00-2.28954E+00
 -1        94-1.26035E+00-5.46504E+00-8.85852E+00 1.93734E+01 1.81577E+01 1.64595E+01
 -1        95-8.44219E+01 3.35002E+01 3.21909E+01 3.45580E+01-1.43341E+01 1.02985E+01
 -1        96-1.32151E+02 1.65603E+02 8.68768E-01 4.41859E+01 8.89904E+01-3.58355E+01
 -1        97 1.38096E+02-1.81678E+02-3.30527E+00-4.75425E+01 1.41457E+02-2.98014E+01
 -1        98 5.06067E-01 7.63290E+00 6.94980E+00-8.10711E+00 8.91652E+00 3.60778E+01
 -1        99-5.51120E+01 1.41213E+01 1.83809E+01 1.48282E+00 5.34636E+00 6.55082E+00
 -1       100-9.24540E+01 2.39546E+01 3.02285E+01 1.87459E+01 4.97713E+00-5.96863E-01
 -1       101-1.81534E+02 4.07427E+01 6.57803E+01 8.02107E+01 2.14082E+01-3.68876E+01
 -1       102-3.89684E+01-1.85045E+02-1.74782E+01 2.44725E+02 3.27560E+02-2.48105E+02
 -1       103 8.36514E+00-7.90468E+01 2.01346E+01-2.40877E+01-2.71100E+01-1.52729E+00
 -1       104-4.30954E+00-2.12412E+01 1.01887E+01-2.73667E+01-3.35770E+00 4.09991E+00
 -1       105-3.59849E+01-9.78210E+00 1.77992E+01 3.17588E+00-8.24535E-01 4.47486E+00
 -1       106-6.24932E+01-1.92132E+01 2.94902E+01 5.54560E+01 4.84973E-01 2.85748E+00
 -1       107-6.01828E+01-7.28015E+01 5.30463E+01 1.41790E+02 1.71862E+00-2.81843E+00
 -1       108 4.26684E+01-2.25757E+02 7.44980E+01 8.73954E+01 1.11075E+01-1.65290E+01
 -1       109-5.44287E+00 2.20777E+01-7.79384E+00-8.62597E+00-7.84287E+00-4.15878E+00
 -1       110 3.25921E+00 1.38370E+01-7.69023E+00-2.52009E+01-6.04915E+00 9.52806E-01
 -1       111-3.40637E+00-5.21995E+00 3.49650E+00-4.99652E+00-7.69209E+00 5.37678E+00
 -1       112-2.11851E+01-2.55112E+01 1.89254E+01 2.41315E+01-7.26288E+00 4.54122E+00
 -1       113-1.38489E+01-5.65767E+01 2.43107E+01 5.79159E+01-4.82252E+00-3.48700E-01
 -1       114 2.22309E+01-8.31893E+01 2.69062E+01 1.82744E+01-5.36874E+00-1.66370E+00
 -1       115-2.09667E+01 7.97927E+01-2.58796E+01-2.02861E+01-3.05276E+00-2.73612E+00
 -1       116 1.64220E+01 5.41030E+01-2.47340E+01-6.10682E+01-4.86055E+00-7.74174E-01
 -1       117 2.53160E+01 2.23360E+01-1.92986E+01-2.52924E+01-7.16397E+00 4.62305E+00
 -1       118 6.18095E+00 3.36309E+00-3.84694E+00 3.92032E+00-7.87777E+00 5.60836E+00
 -1       119-1.72553E+00-1.52384E+01 7.72729E+00 2.28304E+01-6.22102E+00 1.15259E+00
 -1       120 5.34866E+00-2.23367E+01 8.21697E+00 7.38816E+00-9.62957E+00-4.35156E+00
 -1       121-4.17813E+01 2.07671E+02-7.08203E+01-8.56634E+01 2.06279E+01-1.85293E+01
 -1       122 6.72672E+01 6.66955E+01-5.34387E+01-1.43779E+02 1.54905E+00-3.20782E+00
 -1       123 6.63364E+01 1.69867E+01-2.96985E+01-5.50797E+01 1.42600E-01 2.73197E+00
 -1       124 3.85950E+01 8.54136E+00-1.84164E+01-2.92623E+00-9.23207E-01 4.66675E+00
 -1       125 4.15680E+00 2.19081E+01-1.03868E+01 2.64984E+01-3.44355E+00 4.30003E+00
 -1       126-8.59081E+00 8.31603E+01-2.09691E+01 2.42402E+01-2.97646E+01-1.87195E+00
 -1       127 9.64782E+01 1.29316E+02 1.76748E+01-2.46400E+02 2.98673E+02-2.81536E+02
 -1       128 2.02643E+02-4.23593E+01-7.05159E+01-8.40977E+01 1.95084E+01-2.83559E+01
 -1       129 9.76301E+01-2.56841E+01-3.18514E+01-1.77812E+01 3.99769E+00 1.02414E+00
 -1       130 5.68710E+01-1.44576E+01-1.92766E+01-1.06017E+00 5.61743E+00 7.76124E+00
 -1       131-3.93884E+00-7.67103E+00-6.31546E+00 7.44430E+00 9.27926E+00 3.84877E+01
 -1       132-1.51536E+02 1.95012E+02 3.29574E+00 4.74158E+01 1.48743E+02-3.71640E+01
 -1       133 1.57412E+02-2.19197E+02-4.10536E+01-5.57959E+01 3.88788E+02-5.30410E+01
 -1       134 9.32992E+01-3.64596E+01-5.42413E+01-2.55477E+01 3.08580E+01 4.49909E+01
 -1       135 3.60879E+00 1.12891E+01 1.59269E+01 1.81188E-01 1.76295E+01 5.57941E+01
 -1       136-3.21220E+01 1.07927E+01 8.57232E+00-8.26909E+00-1.36900E+01 2.26601E+01
 -1       137-4.13227E+01 1.09434E+01 1.92626E+01 4.24006E+00 1.98805E+01 7.35788E+00
 -1       138-4.97576E+01 1.35912E+01 6.40321E+00 7.03254E+00 1.39617E+01-1.34019E+01
 -1       139-7.26049E+01 1.65077E+01-7.51832E+00 5.53222E+00 3.10162E+01-2.87990E+01
 -1       140-6.91167E+01 3.61598E+01 4.47623E+01 1.80854E+01-1.73992E+01-4.67614E+01
 -1       141-1.35659E+02 4.42970E+01 4.41737E+01 3.63657E+01 4.95177E+01-1.06342E+02
 -1       142-1.45726E+02-3.40857E+01 5.26263E+01 1.69613E+02 7.15194E+01-1.73772E+02
 -1       143-7.22644E+01-2.44389E+02-2.12638E+02 2.86164E+02 9.65851E+02-7.61033E+02
 -1       144 2.90387E+01-1.74237E+02 8.75281E+01-4.18227E+01 1.99773E+01-6.72978E+00
 -1       145-2.40416E+01-4.42043E+00 8.79151E+00-7.02648E+00 3.51479E+01 2.52403E+00
 -1       146-3.88082E+01 3.17119E+00 1.23493E+01 1.77928E+00-1.93397E-02 9.93147E+00
 -1       147-7.20192E+01 3.11524E+00 3.09001E+01 2.93452E+01-5.21874E+00 1.40811E+01
 -1       148-9.43176E+01-7.59571E+00-2.42080E+00 8.14810E+01 6.75925E+01-4.74038E+01
 -1       149-3.61992E+00-2.71180E+02 1.18305E+02 1.77266E+02 1.63209E+02-5.37441E+01
 -1       150 5.45662E+00-6.29690E+01-1.14002E-01-1.54182E+01-2.08257E+01 2.98374E-01
 -1       151 2.57053E+00-1.22189E+01-1.13936E+01-2.59400E+01 1.80076E+01-1.34260E+01
 -1       152-1.58741E+00-1.98525E+01 1.75030E+01-2.12751E+01-2.69631E+01 5.26597E+00
 -1       153-1.61429E+01-1.27406E+01 1.47990E+01-6.96047E+00-9.54132E+00 6.46531E+00
 -1       154-2.71781E+01-6.48146E+00 1.48400E+01 1.18020E+00-4.09455E+00 1.21324E+01
 -1       155-3.67123E+01-8.98335E+00 1.34493E+01 2.12478E+01 4.29240E+00 3.33714E+00
 -1       156-4.55219E+01-1.31625E+01 1.67616E+01 4.35112E+01 6.39198E+00 1.19242E+00
 -1       157-4.76296E+01-3.37356E+01 3.96260E+01 6.93282E+01-1.10683E+01 1.80841E+01
 -1       158-4.96441E+01-6.17626E+01 9.03798E+01 1.10179E+02-6.10975E+01 4.92605E+01
 -1       159-1.96225E+00-9.42827E+01-1.01309E+01 8.97901E+01 5.86098E+01-4.37518E+01
 -1       160 4.26768E+01-1.72114E+02 3.73427E+01 4.36425E+01 7.56825E+01-4.17484E+01
 -1       161 3.03747E+00 6.89942E+00 9.49120E+00 2.53187E+00-7.70750E+00 8.75834E+00
 -1       162 1.27285E+00-2.24951E+00-4.40003E-01-2.03379E+01-1.48048E+01 5.77653E+00
 -1       163-1.41447E+01-7.79386E+00 8.65731E+00 1.32889E+00-8.00331E+00 9.29000E+00
 -1       164-2.93126E+01-1.94773E+01 1.92866E+01 2.76688E+01-8.08411E+00 9.97144E+00
 -1       165-2.55968E+01-4.96306E+01 3.55101E+01 7.17878E+01-2.44527E+01 7.66846E+00
 -1       166 3.60495E+01-6.38846E+01 4.96300E+01 1.19373E+01 3.21263E+01 7.03703E+00
 -1       167-4.96047E+00 1.53005E+01-2.51148E+01-6.54991E+00 3.01907E+00-1.05779E+01
 -1       168-1.91449E+00 1.25537E+01-7.35024E-01-1.32228E+01-1.70276E+01-1.94380E+00
 -1       169 1.95289E+00 1.11975E+01-9.52614E+00-1.83274E+01-1.37301E+01 6.61310E+00
 -1       170 1.20034E+00 3.45992E+00-1.87084E+00-1.27284E+01-1.41564E+01 5.28465E+00
 -1       171-2.83981E+00-3.89461E+00 2.23248E+00-3.74781E+00-1.23413E+01 8.22047E+00
 -1       172-1.02155E+01-1.09706E+01 7.83721E+00 7.20608E+00-1.36239E+01 7.22924E+00
 -1       173-1.65719E+01-1.98719E+01 1.21384E+01 1.80545E+01-1.26244E+01 8.53163E+00
 -1       174-1.50800E+01-2.86080E+01 1.71575E+01 2.97739E+01-1.45228E+01 5.92451E+00
 -1       175-9.67232E+00-4.05089E+01 1.23028E+01 4.48221E+01-5.79222E+00-7.01148E+00
 -1       176 4.11577E+00-6.73163E+01 2.95104E+01 2.97781E+01-2.19550E+01 5.52152E+00
 -1       177 1.54393E+01-6.60877E+01-1.95998E+01 6.44024E+00 2.78442E+01-1.81617E+01
 -1       178-9.43776E+00 3.44433E+01-4.34188E+00-1.03691E+01 1.95765E+01-9.32182E+00
 -1       179 6.13815E+00 2.53833E+01-9.31949E+00-3.11692E+01-4.68908E+00-2.88060E+00
 -1       180 7.83429E+00 7.05003E+00-5.51195E+00-1.14078E+01-1.06476E+01 9.14144E+00
 -1       181-5.23259E+00-8.88994E+00 5.24237E+00 1.05244E+01-1.06221E+01 9.23318E+00
 -1       182-4.71223E+00-2.69953E+01 9.36482E+00 2.89478E+01-4.39007E+00-2.16343E+00
 -1       183 9.83041E+00-3.59126E+01 4.28076E+00 9.75461E+00 1.79713E+01-8.40109E+00
 -1       184-1.41853E+01 6.34780E+01 1.73700E+01-7.44406E+00 2.84092E+01-2.30925E+01
 -1       185-2.59873E+00 6.41184E+01-2.89790E+01-3.20203E+01-2.01887E+01 5.55992E+00
 -1       186 1.14136E+01 3.88847E+01-1.22813E+01-4.73391E+01-6.05980E+00-8.19570E+00
 -1       187 1.76765E+01 2.65922E+01-1.74599E+01-3.10065E+01-1.45674E+01 5.62985E+00
 -1       188 1.97630E+01 1.74185E+01-1.24090E+01-1.89288E+01-1.25884E+01 8.53569E+00
 -1       189 1.27681E+01 9.04963E+00-8.09807E+00-8.00408E+00-1.36750E+01 7.21825E+00
 -1       190 4.91424E+00 2.51778E+00-2.49904E+00 2.93013E+00-1.25628E+01 8.50357E+00
 -1       191 4.61107E-01-4.75563E+00 1.81285E+00 1.16097E+01-1.44084E+01 5.22787E+00
 -1       192-7.10502E-01-1.23033E+01 9.55790E+00 1.64748E+01-1.41273E+01 6.62471E+00
 -1       193 2.35765E+00-1.27587E+01 4.34791E-01 1.17338E+01-1.76676E+01-1.50682E+00
 -1       194 4.74773E+00-1.57704E+01 2.64833E+01 5.86082E+00 6.46748E-01-1.19707E+01
 -1       195-3.53790E+01 6.25677E+01-4.67164E+01-1.49595E+01 3.88216E+01 1.11745E+01
 -1       196 2.97904E+01 4.65820E+01-3.66009E+01-7.30122E+01-2.30541E+01 7.85875E+00
 -1       197 3.21552E+01 1.73951E+01-1.95135E+01-2.82684E+01-8.35168E+00 9.92535E+00
 -1       198 1.62121E+01 6.60996E+00-9.07992E+00-1.77028E+00-7.92771E+00 9.63967E+00
 -1       199-8.76588E-01 1.90850E+00 5.90435E-01 1.92936E+01-1.53200E+01 6.16926E+00
 -1       200-3.18330E+00-7.21432E+00-9.82020E+00-3.57892E+00-1.02749E+01 9.66293E+00
 -1       201-4.33416E+01 1.57084E+02-4.00367E+01-4.13597E+01 8.74986E+01-4.47198E+01
 -1       202 4.95959E+00 9.32549E+01 7.68189E+00-8.77913E+01 5.33678E+01-5.38077E+01
 -1       203 5.60777E+01 5.61795E+01-9.10282E+01-1.11693E+02-5.76058E+01 5.31596E+01
 -1       204 5.16310E+01 3.00227E+01-3.91996E+01-7.05816E+01-1.08265E+01 1.96655E+01
 -1       205 4.81308E+01 1.16641E+01-1.71892E+01-4.31378E+01 5.45042E+00 7.84041E-01
 -1       206 3.93040E+01 7.76730E+00-1.39236E+01-2.08727E+01 3.76693E+00 2.98722E+00
 -1       207 2.91942E+01 5.46039E+00-1.53537E+01-9.34563E-01-4.00324E+00 1.26331E+01
 -1       208 1.71692E+01 1.26329E+01-1.53347E+01 6.57718E+00-9.75492E+00 7.02158E+00
 -1       209 1.21766E+00 2.06149E+01-1.76281E+01 2.05976E+01-2.80072E+01 6.54711E+00
 -1       210-2.79296E+00 1.22031E+01 1.20422E+01 2.61295E+01 1.89604E+01-1.57120E+01
 -1       211-5.38359E+00 6.62519E+01 6.43055E-01 1.57574E+01-2.39280E+01-3.90981E-02
 -1       212 1.57918E+01 2.23053E+02-9.31911E+01-1.75446E+02 1.68425E+02-6.17018E+01
 -1       213 9.66690E+01 4.58357E+00 5.03255E+00-8.57864E+01 5.81986E+01-5.33719E+01
 -1       214 7.66368E+01-4.69377E+00-3.20135E+01-2.85993E+01-5.21751E+00 1.57693E+01
 -1       215 4.01195E+01-3.70241E+00-1.23911E+01-1.41346E+00-3.95135E-01 1.05292E+01
 -1       216 2.45689E+01 4.69804E+00-9.68993E+00 5.95068E+00 3.74184E+01 1.64513E+00
 -1       217-3.18442E+01 1.85716E+02-9.35405E+01 4.23172E+01 1.85700E+01-8.09621E+00
 -1       218 1.40188E+02 1.78836E+02 2.14559E+02-2.87739E+02 8.91829E+02-8.47541E+02
 -1       219 1.96841E+02 2.23263E+01-7.89872E+01-1.73880E+02 6.52897E+01-1.71403E+02
 -1       220 1.52669E+02-4.43662E+01-4.19231E+01-3.98855E+01 4.64420E+01-9.71275E+01
 -1       221 7.14641E+01-3.74720E+01-4.83346E+01-1.57674E+01-1.35085E+01-4.20259E+01
 -1       222 7.67336E+01-1.81022E+01 9.70642E+00-5.12079E+00 2.65280E+01-2.98147E+01
 -1       223 5.24565E+01-1.43305E+01-6.57557E+00-7.00657E+00 1.32570E+01-1.31233E+01
 -1       224 4.29124E+01-1.10797E+01-2.10607E+01-4.05833E+00 2.13532E+01 8.66985E+00
 -1       225 3.32408E+01-1.09486E+01-8.46096E+00 8.91830E+00-1.45018E+01 2.44022E+01
 -1       226-6.49827E+00-1.15887E+01-1.65177E+01-8.23814E-01 1.79083E+01 5.84638E+01
 -1       227-1.04697E+02 3.92547E+01 6.02366E+01 2.47303E+01 3.25635E+01 4.58371E+01
 -1       228-1.73250E+02 2.34907E+02 4.09860E+01 5.56257E+01 4.07440E+02-7.20617E+01
 -1       229 2.12243E+02-4.82431E+02-3.25210E+01-1.59349E+02 6.58388E+02-5.72655E+01
 -1       230-1.95270E+00 4.72016E+01 1.51529E+01 1.36871E+01 1.79965E+01 6.11327E+01
 -1       231-3.08248E+01-1.94053E+00 2.05967E+01 1.01493E+01 2.97056E+01 1.45403E+01
 -1       232-3.90331E+01-2.12505E+01-2.65660E+01-1.39725E+00 7.19489E+01-6.04517E+01
 -1       233-3.36237E+01 1.17193E+02-2.95021E+01-5.64528E+01 3.20409E+01-1.08759E+02
 -1       234-5.32529E+02-8.52001E+02-1.70920E+02 8.16406E+02 1.71034E+03-1.37807E+03
 -1       235-6.59673E+00-1.24292E+01-3.08975E+01 8.00255E+00-2.62970E+01-7.39311E+00
 -1       236 5.78517E+00-3.81976E+01 2.72773E+01-2.19314E+01-4.70961E+01 1.44283E+01
 -1       237-2.09520E+01-2.92584E+00 1.24046E+01 1.56831E+00-4.76540E+00 1.39440E+01
 -1       238-2.82536E+01-1.29373E+00 8.21400E-01 2.69661E+01 5.64715E+00 1.94877E+00
 -1       239-7.20623E+01-9.51131E+01 1.40269E+02 1.13174E+02-9.56469E+01 7.09737E+01
 -1       240 9.21103E+01-4.21865E+01-5.14227E+01-5.36269E+01 7.31819E+01-2.16865E+01
 -1       241-4.86361E+00 1.82472E+01-3.53084E+01-1.10183E+01 8.27297E+00-5.34903E+00
 -1       242 2.38069E+00 1.16475E+01-1.32507E+01-1.21162E+01-1.59848E+01 6.64548E+00
 -1       243-1.57346E+00-2.63957E+00 1.32102E+00-2.31077E+00-1.55917E+01 1.11734E+01
 -1       244-1.02519E+01-1.26617E+01 7.14745E+00 1.10217E+01-1.41465E+01 8.74757E+00
 -1       245-6.07975E-01-2.26689E+01-3.40742E+00 2.72678E+01-6.42028E+00-5.19356E+00
 -1       246-1.42597E+01-2.94143E+01-4.61133E+01 6.81705E+00 6.10937E+01-5.44082E+01
 -1       247 1.94727E+01 2.97881E+01 4.04494E+01-4.14094E+00 6.05935E+01-6.21655E+01
 -1       248 6.56266E-01 2.21271E+01 3.90373E+00-2.94238E+01-7.31902E+00-7.20053E+00
 -1       249 1.24897E+01 1.09299E+01-7.33518E+00-1.16066E+01-1.40508E+01 8.78653E+00
 -1       250 2.89621E+00 1.78529E+00-1.50015E+00 1.75475E+00-1.58598E+01 1.15292E+01
 -1       251-9.42853E-01-1.26990E+01 1.32720E+01 1.07965E+01-1.65966E+01 6.28447E+00
 -1       252 2.92523E+00-1.92633E+01 3.76617E+01 1.09918E+01 5.52870E+00-7.42794E+00
 -1       253-1.02882E+02 3.75015E+01 4.32274E+01 5.47397E+01 8.71192E+01-2.50690E+01
 -1       254 8.26320E+01 8.58196E+01-1.41299E+02-1.14374E+02-8.74447E+01 7.97675E+01
 -1       255 2.93735E+01 1.27344E+00-1.41447E+00-2.62428E+01 3.89565E+00 8.81047E-01
 -1       256 2.26419E+01 1.66960E+00-1.28330E+01-1.34103E+00-4.27651E+00 1.46543E+01
 -1       257-7.53677E+00 4.02083E+01-2.73329E+01 2.14472E+01-4.93004E+01 1.69383E+01
 -1       258 9.16076E+00 1.30610E+01 3.26769E+01-7.73348E+00-2.98667E+01-7.73067E+00
 -1       259 6.61891E+02 7.32493E+02 1.72785E+02-8.20703E+02 1.59072E+03-1.51916E+03
 -1       260 3.79590E+01-1.08302E+02 3.87911E+01 5.52126E+01 2.79673E+01-9.79098E+01
 -1       261 3.97912E+01 1.62669E+01 3.24040E+01-1.62343E+00 6.51437E+01-6.32380E+01
 -1       262 3.26005E+01 3.54462E+00-2.32854E+01-1.04351E+01 3.17987E+01 1.59888E+01
 -1       263 1.38769E+00-4.99637E+01-1.68518E+01-1.40105E+01 1.82516E+01 6.41721E+01
 -1       264-2.41747E+02 5.11761E+02 3.23460E+01 1.58884E+02 6.88566E+02-8.81979E+01
 -1       265 1.07276E-04 4.27590E+02 4.30393E-04 4.46792E+01-7.73174E+01 2.21894E-04
 -1       266 1.63370E-04 5.25199E+02 3.05430E-04 1.62805E+01 5.72435E+01-2.71346E-04
 -1       267 2.57920E-04 5.89940E+02 2.67530E-04-7.99238E+00 5.89336E+01 4.29464E-04
 -1       268 1.94406E-04 5.74970E+02 3.66798E-04 3.00193E+00 9.56860E+01-3.88158E-04
 -1       269-2.64597E-04 5.27384E+02 5.17376E-04 6.49629E+00 7.07656E+01-4.35813E-04
 -1       270-4.01723E-04 5.55535E+02 4.64334E-04-7.42075E+00 8.42271E+01 8.59688E-04
 -1       271-3.88047E-04 6.15674E+02 9.26243E-04-5.16568E+00 2.47998E+02-5.45808E-04
 -1       272-9.11505E-04 8.22898E+02 9.24843E-04 3.77327E+01-1.16560E+02-9.61112E-04
 -1       273-3.49354E-04 1.20546E+03 8.63905E-04 5.73014E+01-8.03264E+00 8.57622E-04
 -1       274 6.65199E-04 1.64537E+03 1.34339E-03 2.84605E+01 2.19490E+02-1.20095E-03
 -1       275 7.50075E-04 1.97927E+03 1.29730E-03 9.56247E+00 6.76654E+01 4.50271E-04
 -1       276 5.79443E-04 2.15636E+03 1.39147E-03 1.64304E+01 2.89859E+02 9.03858E-05
 -1       277 6.03742E-04 2.23074E+03 1.25342E-03 1.44480E+01 2.55210E+02-1.01968E-03
 -1       278 5.73462E-04 2.05475E+03 1.27586E-03-6.28450E+01 2.13682E+02 1.25968E-03
 -1       279 3.98551E-04 1.79228E+03 1.46232E-03-1.53003E+02-2.71541E+02-1.13338E-03
 -1       280-5.79208E+01 4.40567E+02-6.41674E+01 1.01854E+02-1.62586E+01-3.15090E+01
 -1       281-1.77772E+01 5.20308E+02-1.00930E+02 1.88631E+01-3.34223E+00 1.70410E+01
 -1       282-1.28838E+01 5.07756E+02-9.73396E+01-4.18997E+01 2.63182E+01-3.89025E+01
 -1       283 1.18499E+02 4.70908E+02-1.53652E+02 1.02681E+02-3.35280E+01-4.02537E+01
 -1       284-1.67738E+01 1.26485E+03-3.46264E+02 4.83084E+02 6.53193E+00 4.36105E+01
 -1       285-5.43612E+01 1.85677E+03-3.79892E+02 2.10433E+02 1.61543E+01-2.66669E+01
 -1       286-1.03531E+02 2.01835E+03-3.72256E+02-2.73671E+01-1.52974E+01-1.87485E+01
 -1       287-1.88788E+02 1.81254E+03-3.17402E+02-2.91291E+02-7.73087E+01 1.04761E+02
 -1       288-1.09838E+02 3.24684E+02-1.28335E+02 1.30342E+02 8.66350E+01-1.00028E+01
 -1       289-9.33357E+01 3.52269E+02-1.65098E+02 8.00489E+01 6.10894E+01 1.87158E+01
 -1       290-5.61769E+01 3.85056E+02-2.01861E+02 3.05348E+01 5.40643E+01-2.73423E+01
 -1       291-6.55184E+01 3.95169E+02-1.98270E+02-2.72753E+01 4.89424E+01-3.11928E+01
 -1       292-7.01612E+00 3.89482E+02-1.94680E+02-7.57840E+01 5.20907E+01 3.71613E+01
 -1       293 1.46178E+02 2.98534E+02-2.50992E+02-3.65126E+01 9.35813E+01-3.38513E+01
 -1       294 2.99745E+02 2.45891E+02-3.07305E+02 1.09672E+02 4.39796E+01 1.06250E+01
 -1       295 3.84166E+02 7.37530E+02-4.99917E+02 6.72292E+02 2.48409E+02 2.30654E+02
 -1       296-1.17315E+02 1.47729E+03-6.92530E+02 8.27970E+02 1.66944E+02 3.58809E+01
 -1       297-2.81627E+02 1.52442E+03-7.26157E+02 5.83401E+02 9.13577E+01 6.98053E+01
 -1       298-2.12175E+02 1.53454E+03-7.59785E+02 3.95084E+02 1.55419E+02-4.90400E+00
 -1       299-2.17891E+02 1.55835E+03-7.52149E+02 1.65738E+02 1.83796E+02-1.30102E+01
 -1       300-2.59585E+02 1.50429E+03-7.44513E+02-4.05723E+01 2.41965E+02 7.52659E+01
 -1       301-3.17335E+02 1.46344E+03-6.89659E+02-2.02656E+02 2.29768E+02-4.77996E+01
 -1       302-3.68792E+02 1.40541E+03-6.34805E+02-3.56932E+02 2.11755E+02 5.92152E+01
 -1       303-1.26395E+02 2.45124E+01 7.25218E+00 2.38047E+02-1.19924E+02 4.51498E+01
 -1       304-1.97725E+02 3.45999E+02-7.59796E+01 1.01037E+02-2.23826E+01-1.72947E+01
 -1       305 1.20273E+01 1.92350E+02-9.44346E+01-1.30198E+02-5.95491E+01-7.45326E+01
 -1       306 8.54637E+01 6.65624E+01-1.37173E+02-1.26392E+02-5.84261E+01 6.23415E+01
 -1       307-2.71931E+02 1.25344E+03-4.00965E+02 5.52434E+02-2.48467E+02 5.30027E+01
 -1       308-4.79622E+02 1.33271E+03-3.81910E+02 3.77540E+02-3.00945E+01 1.29556E+01
 -1       309-4.59524E+02 1.03653E+03-3.75654E+02-2.12531E+02-7.96540E+01 7.32038E+00
 -1       310-4.59858E+02 6.16013E+02-1.18291E+02-5.19488E+02-2.28283E+02-8.35075E+01
 -1       311 4.37835E+01-2.07749E+02 7.99280E+01 7.86863E+01 1.85796E+01 1.06393E+02
 -1       312-4.15553E+00-2.08540E+02 1.11384E+02 1.70330E+02 1.00108E+02-9.02667E+01
 -1       313-1.30747E+02-2.30522E+02 1.42839E+02 3.29567E+02 9.05009E+01 1.39068E+01
 -1       314-2.41200E+02-5.24612E+01 9.63703E+01 4.20220E+02 5.73130E+01 2.79987E+00
 -1       315-3.75999E+02 2.72982E+02 4.99015E+01 3.40382E+02 1.84738E+02-8.66093E+01
 -1       316-3.05495E+02 2.32707E+02 2.78560E+01-1.14586E+02 6.19969E+01-4.46553E+01
 -1       317 2.60745E+01 9.38643E+01 5.81052E+00-2.14190E+02 1.00945E+02-4.79269E+01
 -1       318 1.09931E+02 8.86156E+01 1.93841E+01-1.44054E+02 5.84501E+01-6.13834E+01
 -1       319 6.00673E+01 4.77358E+01 3.29575E+01-1.21072E+02 1.48852E+01-5.14947E+01
 -1       320-2.97957E+02 7.23507E+02-1.09399E+02 5.76221E+02 2.36109E+02 2.22037E+02
 -1       321-4.97595E+02 9.34535E+02-5.67174E+01 5.93443E+02 4.50824E+02 1.11033E+02
 -1       322-8.43587E+02 1.21942E+03-4.03673E+00 2.51158E+02 1.61872E+02 8.29996E+01
 -1       323-7.80150E+02 8.94978E+02-5.41575E+00-1.49478E+02 1.51980E+02 3.19919E+01
 -1       324-6.98207E+02 5.96316E+02-6.79441E+00-4.99022E+02 1.54822E+02-7.47382E+01
 -1       325-6.68458E+02 2.77736E+02 1.95713E+02-6.25222E+02 2.10111E+02 4.93103E+01
 -1       326-7.28516E+02-8.84200E+01 3.98221E+02-8.00669E+02 1.55374E+02-9.49166E+01
 -1       327-6.88930E+02-4.08289E+02 4.35932E+02-6.63339E+02 2.63944E+02 2.98776E+02
 -1       328-3.60389E+02-5.95347E+02 4.73643E+02-5.05868E+02 1.46210E+02-3.97511E+02
 -1       329 6.32477E+01-2.64803E+02 4.59331E+01 6.23157E+01 6.18957E+00-4.19791E+01
 -1       330 1.02855E+02-3.13830E+02 9.84741E+01 2.79760E+02 1.98585E+01 4.45182E+01
 -1       331 4.71508E+00-1.41030E+02 1.66824E+02 8.10283E+02 1.22806E+02 8.32186E+01
 -1       332-7.81449E+02 7.45347E+02-3.26334E+01-2.06449E+02 6.51567E+01 3.42751E+02
 -1       333-9.82784E+02 2.20172E+02 4.93632E+02-8.28652E+02 3.70833E+01 8.27657E+01
 -1       334-7.71273E+02-4.00414E+02 4.06194E+02-1.09725E+03-2.03666E+01 2.38404E+01
 -1       335-4.21748E+02-7.84061E+02 4.42098E+02-7.14081E+02-1.97403E+02-1.49753E+02
 -1       336 2.49579E+02 3.33742E-05 1.37426E-04 1.57677E+01 2.44596E-04-3.38900E+01
 -1       337 2.52009E+02-2.91364E+01-5.42577E+01 1.09826E+01-1.23028E+01 4.95408E-02
 -1       338 2.24520E+02-6.82979E+01-1.08516E+02-8.58582E+00-3.93287E+01 1.53662E+01
 -1       339 1.91134E+02-4.82444E+01-4.82885E+01-6.55267E+00 3.75719E+01 7.29328E-02
 -1       340 1.57430E+02-1.53237E+02 1.19384E+01 3.05215E+01 3.88166E+01-6.88721E+01
 -1       341 1.96877E+02-3.49078E+02 3.30238E+01 1.39583E+02-6.02572E+01 5.41980E+01
 -1       342 3.39076E+02-5.81107E+02 5.41091E+01 2.33294E+02-1.69920E+02-3.93377E+01
 -1       343 3.66716E+02-6.86873E+02 1.68928E+02 5.54698E+02 3.10915E+02-1.10424E+02
 -1       344 3.06722E+02-9.61645E+02 2.83747E+02 9.36039E+02 3.38211E+02 8.84739E+01
 -1       345-7.21393E+02 4.93689E+02-6.12274E+01-3.53530E+02 2.83546E+02 4.03178E+02
 -1       346-1.32362E+03 3.09223E+02 4.66416E+02-5.97032E+02 1.34636E+02-2.92740E+02
 -1       347-1.13231E+03-9.36097E+02 9.94059E+02-1.18826E+03 2.44177E+02-9.48814E+01
 -1       348-9.44328E+02-7.83352E+02 7.04112E+02-1.31124E+03 6.81257E+02-1.38128E+02
 -1       349-7.34805E+02-8.54530E+02 4.14166E+02-1.30900E+03-5.52119E+02 3.05546E+02
 -1       350-3.67112E+02-6.99469E+02 4.12360E+02-1.14568E+03-3.19410E+01-1.68046E+02
 -1       351-2.83512E+02-6.86575E+02 4.10554E+02-9.59755E+02 7.21564E+01-4.85170E+01
 -1       352 4.87281E+02-4.38391E+02-1.15977E+02-5.38353E+02 1.52743E+02 3.08473E+02
 -1       353 1.45992E+03-4.60608E+02-6.42510E+02-2.45791E+02-8.56697E+01-3.31094E+02
 -1       354 1.88169E+03-2.20410E+02-3.21255E+02-2.74664E+02-8.58202E+01 4.98873E+01
 -1       355 1.83319E+03 4.77732E-04 1.33811E-03-1.59437E+02 1.48534E-03 3.07418E+02
 -1       356 2.50703E+02 1.03640E-04 1.78435E-04 6.28965E+00-1.17185E-04 2.33666E+01
 -1       357 2.15426E+02-4.76266E+01-9.64514E+01-3.15255E+01 1.18423E+01 1.24591E+01
 -1       358 1.96634E+02-1.35465E+02 2.73430E+00-5.20961E+01-4.34565E+01 5.50273E+01
 -1       359 3.60776E+02-4.75249E+02 2.75654E+01-1.15437E+02 2.17017E+02-5.84314E+01
 -1       360 7.72608E+02-2.38993E+03 3.64231E+02 5.10249E+00 1.79204E+02-6.81240E+01
 -1       361-1.75386E+03-4.59477E+03 1.64332E+03 1.87723E+03 5.40841E+01 6.74063E+02
 -1       362-1.00153E+03-3.76321E+02 6.52305E+02-1.00493E+03 4.93690E+02-6.54508E+02
 -1       363 3.24735E+02-8.59080E+02 2.21355E+02-1.02789E+03-9.92133E+01-3.25811E+02
 -1       364 1.47774E+03-3.83444E+02-6.70986E+02-6.02215E+01 6.17496E+01-1.91916E+02
 -1       365 2.08213E+03 7.40028E-04 1.24132E-03-6.38245E+01-1.42642E-03-2.19091E+02
 -1       366 2.33984E+02 1.35016E-04 1.33525E-04 1.97968E+00-3.83905E-05 2.22043E+01
 -1       367 2.19821E+02-1.42386E+01-4.21936E+01-2.89806E+01 2.54912E+00 6.28479E+00
 -1       368 1.99688E+02-3.42422E+01-8.43873E+01-5.89663E+01 1.14844E+01 3.34082E+01
 -1       369 1.74707E+02-9.66649E+01-4.54286E+01-9.30714E+01-5.94725E+00-1.65140E+01
 -1       370 1.32237E+02-1.53939E+02-6.46990E+00-1.03554E+02 8.53023E+01-4.16518E+01
 -1       371 8.94289E+01-9.03432E+01-2.72390E+00-2.03155E+02-1.03543E+02 6.72100E+01
 -1       372 1.73734E+02-6.52674E+01 1.02205E+00-4.36124E+02-2.78126E+01-1.18100E+02
 -1       373 7.51175E+02-1.41211E+03 2.22868E+02-9.74531E+02-1.76596E+02-2.83839E+02
 -1       374 5.49381E+02-1.57588E+03 3.00251E+02-5.84161E+02 4.05109E+02-2.75570E+01
 -1       375 1.23212E+02-1.56243E+02 6.05268E+01-1.01086E+02 3.58513E+01 1.38381E+02
 -1       376-8.87473E+00 8.61835E+01-5.62225E+01 2.50594E+01-1.13105E+01 5.36887E+01
 -1       377-1.49428E+01 5.70783E+01-3.35517E+01-1.16331E+01 1.36383E+01 1.85921E+01
 -1       378-2.19917E+01-1.48633E+01 5.38571E+00 1.66022E+01-3.20092E+00 2.39100E+01
 -1       379-2.48818E+01-2.93951E+01 3.95563E+01 1.76658E+01 8.07281E+00-1.52062E+01
 -1       380-2.20484E+00-6.23602E+01 6.74271E+01-8.57660E+00 4.40173E+00-2.96407E+01
 -1       381-6.22920E-01 1.19290E+02-9.19343E+01-3.71581E+01 3.24747E+01-8.00502E+01
 -1       382 5.48226E+01 2.02348E+02-3.25106E+02-1.46811E+02-3.52062E+01-1.42286E+02
 -1       383-4.44686E+02-3.19085E+02 5.44587E+02 4.52634E+02 4.90048E+01-1.46411E+02
 -1       384-2.14969E+03-3.04936E+03 1.54601E+03 2.83593E+03 1.06706E+03-8.12041E+02
 -1       385-3.78657E+03-2.10186E+03 1.59151E+03 2.57749E+03-5.51111E+02 1.25806E+02
 -1       386-2.15804E+03 4.15229E+02 8.90445E+02-6.14613E+02 4.51823E+01-1.06668E+02
 -1       387-4.45972E+02-1.85212E+02 4.61300E+02-1.31730E+03-3.86674E+02-4.34671E+02
 -1       388 1.07121E+03-1.27843E+03 3.21569E+01-7.80926E+02 5.97867E+01-2.63077E+02
 -1       389 1.40664E+03-7.45189E+02-3.33652E+02-1.14354E+02-1.57583E+01 2.71150E+01
 -1       390 1.51242E+03-3.37095E+02-6.99461E+02 1.41048E+02-5.09922E+01-2.16836E+02
 -1       391 1.95269E+03-1.22124E+02-3.49730E+02 6.86772E+01 6.95885E+01 3.74967E+01
 -1       392 2.20628E+03 1.24081E-03 1.29253E-03 1.24956E+01 7.32310E-04-2.07669E+02
 -1       393 2.00213E+02 8.51392E-05 1.17874E-04-8.05437E+00 1.68380E-04 3.50993E+01
 -1       394 1.49767E+02-4.47615E+01-6.37157E+01-1.08722E+02-1.16249E+01-3.73620E+00
 -1       395 1.50148E+02-9.17952E+01-7.63463E+00-9.88055E+01 3.33679E+00 1.14436E+01
 -1       396 6.71856E+01 6.99786E+01-2.59770E+01-1.32039E+02 6.91156E+00 3.05992E+01
 -1       397 5.00058E+01-3.38350E+02 1.60397E+02-7.29332E+01-1.03984E+02-2.26897E+01
 -1       398-2.87547E+01-1.97687E+01-2.20104E+01 3.26345E+01-3.25505E+01 2.88041E+01
 -1       399-1.07488E+01-5.77783E+00 1.65582E+00-5.80379E-01-1.90159E+00 1.51299E+01
 -1       400-3.28920E+01-1.54594E+01 4.70911E+01 1.28813E+01 8.36057E+00 2.39796E+00
 -1       401 6.14353E+01-3.93888E+01-1.52398E+02-3.53789E+01-6.75645E+01 3.82300E+01
 -1       402-2.24847E+02-6.58347E+02 5.92400E+02 4.38997E+02 3.66094E+01-2.09793E+01
 -1       403 1.05550E+03-1.05780E+03 5.01990E+01 3.10828E+02-4.03159E+01-4.57800E+02
 -1       404 1.66191E+03-4.71098E+02-7.27378E+02 4.42669E+02-7.76875E+01-1.22395E+02
 -1       405 1.91508E+03 1.12854E-03 1.34564E-03 3.44212E+01 6.08351E-04-3.70980E+02
 -1       406 1.38359E+02 3.88691E-04-4.39038E-05-1.88962E+01 1.45828E-04-3.02842E+01
 -1       407 1.11046E+02-1.80092E+01-2.15221E+01-8.55644E+01 5.03490E+01-1.71162E+01
 -1       408 1.08656E+02-8.78128E+01-4.30441E+01-1.49560E+02-1.50900E+01 4.03089E+01
 -1       409 1.74005E+02-1.00553E+02-2.59218E+01-1.40006E+02 1.30167E+01 1.81816E+00
 -1       410 1.90958E+02-1.00025E+02-8.79952E+00-1.07089E+02-6.97203E+01-2.39873E+01
 -1       411 9.24649E+01-6.19815E+01-3.08878E+01-6.15774E+01 4.17221E+01 2.88527E+01
 -1       412 4.09175E+01 4.86411E+01-5.29762E+01-5.43338E+01-7.71929E+01 4.11979E+01
 -1       413-1.71300E+01 3.39278E+01-7.09225E+01 3.29410E+01-3.12265E+00-1.69396E+00
 -1       414 6.90596E+00 6.05184E+01-3.82528E+01-2.36662E+01-4.99288E+01 9.65478E+00
 -1       415 1.37735E+01-5.55855E+01 2.84772E+01-2.18196E+01 1.69481E+01 4.32116E+00
 -1       416-8.88000E+00-1.87514E+01 1.71603E+01 7.37767E+00 1.35885E+00 6.71090E-01
 -1       417-1.42300E+01 4.37215E-01 7.80667E+00 1.36228E+00-4.53873E+00 1.27509E+01
 -1       418-1.61972E+01 8.61911E+00-8.07417E+00 5.65976E+00-8.48238E+00 1.19123E+01
 -1       419-1.20696E+01 9.25941E+00-1.88046E+01 1.18786E+01-8.24843E+00 2.04763E+01
 -1       420 9.29990E+00-3.90461E+01 4.84498E+01 1.87294E+01 8.92049E+00 4.57255E+00
 -1       421-9.05797E+01-1.24326E+02 1.46361E+02 1.12249E+02 6.10004E+01-4.92096E+01
 -1       422-2.64078E+01 1.00052E+02-1.57374E+02-9.67214E+00-6.89261E+01 4.95407E+01
 -1       423 1.52792E+02 7.29757E+01-3.29127E+02-1.50166E+02 1.21493E+02 3.09251E+01
 -1       424 8.23092E+02-6.29675E+02 6.82406E+01 4.86427E+02-2.78651E+02-3.42178E+02
 -1       425 1.44720E+03-4.88611E+02-3.43527E+02 4.37680E+02-2.19546E+02 2.84126E+02
 -1       426 1.73679E+03-3.64249E+02-7.55296E+02 8.63678E+02-2.36375E+01-2.46741E+02
 -1       427 1.50591E+03-9.11012E+01-3.77647E+02 5.55344E+02-1.53887E+01-1.82368E+01
 -1       428 1.44228E+03 2.13871E-05 7.25476E-04 8.21447E+01-5.02807E-04 6.87919E+01
 -1       429-4.64987E+01 5.03155E-04-4.56871E-05-7.11964E+00-1.65683E-04-3.67664E+01
 -1       430 1.55571E+02-1.86491E+02 2.46959E+01-2.16531E+02 2.52300E+01-5.34406E+01
 -1       431 1.34939E+02-9.70560E+01-5.65808E+01-1.09259E+02 2.94150E+01 9.85360E+01
 -1       432-1.60089E+01 1.69780E+01 4.81824E-01 2.97290E+01 1.15603E+01-2.20900E+00
 -1       433 5.59483E+00 1.42891E+01 5.56251E-01-1.66617E+01-1.74272E+00 1.24461E+00
 -1       434-5.43731E+00-2.56646E+00 4.51889E+00 6.16715E-01-1.26055E+01 1.49544E+01
 -1       435-1.10163E+01-7.93702E+00-6.72716E-02 1.16980E+01-1.31608E+01 1.24444E+01
 -1       436-2.81024E+01 1.77422E+01 4.35677E+01 2.87917E+01-9.30479E-01-4.95394E+00
 -1       437 9.03619E+01 1.06521E+01-7.89548E+01-5.47876E+01 7.70400E+01-2.60100E+01
 -1       438 8.32468E+02 1.72681E+02-5.27243E+02 1.00316E+03-3.30498E+02-2.21785E+02
 -1       439 8.97480E+02-3.37809E-04 9.75396E-04 5.95022E+01 1.39852E-03 5.68788E+01
 -1       440-2.80374E+02 2.92036E-04-7.07387E-04-1.00570E+01 1.60502E-04-2.60044E+02
 -1       441-1.08036E+02-1.06716E+02 4.62177E+01-2.68956E+02 2.99673E+01 3.48023E+01
 -1       442 1.79252E+02-2.87066E+02 9.24359E+01-4.13491E+02-4.05527E+01-9.73894E+00
 -1       443 2.91049E+02-1.24005E+02-5.96302E+00-7.73124E+01-2.17482E+01-1.46271E+01
 -1       444 1.72946E+02-4.94660E+01-1.04362E+02-2.85172E+01-2.48202E+01 2.52713E+00
 -1       445-6.06775E+00 2.44482E+01 2.07462E+01-1.59809E+01-1.62027E+01 6.22103E+00
 -1       446 5.88381E-01-2.23985E+00 1.74387E+01-4.69668E+00-1.78115E+01 5.07720E+00
 -1       447 2.48518E+00 1.10779E+01-1.64002E+01-5.83516E+00-2.25933E+01 1.48489E+00
 -1       448 8.00119E-03 1.50444E+00-5.14309E+00-5.44253E+00-2.13871E+01 8.42249E+00
 -1       449-2.33141E-01-1.38465E+00 1.70833E+00-7.99773E-01-1.81566E+01 1.15957E+01
 -1       450-4.98664E+00-4.14591E+00 6.24651E+00 2.77497E+00-1.87332E+01 1.10130E+01
 -1       451-3.75230E+00-5.26692E+00 8.72037E+00 3.60567E+00-1.94784E+01 1.39439E+01
 -1       452-5.86268E+00-1.04877E+01-2.19459E+00 1.30333E+01-2.01219E+01 8.88274E+00
 -1       453 7.13471E+00-6.37221E+00-2.34135E+01 1.09726E+01-2.93574E+01 7.43119E+00
 -1       454-1.08808E+01-3.42742E+01 4.98166E+01 1.39569E+01-9.42623E+00-8.39018E+00
 -1       455-4.74673E+01 1.19827E+01 6.53724E+01 7.27388E+00 1.18244E+01-1.06246E+01
 -1       456 2.19737E+02 2.98850E+02-2.99190E+02 7.31526E+02-1.11163E+02-6.89463E+01
 -1       457 3.48375E+02 1.08935E+02-1.49595E+02 3.63994E+02 1.15995E+01 4.09371E+01
 -1       458 4.77014E+02-2.77668E-04 7.19018E-04 7.64895E+00-1.44392E-04-2.22041E+02
 -1       459-6.14856E+02 6.30062E-04-6.74404E-04-4.63936E+01 1.25985E-03 7.74719E+01
 -1       460-5.45927E+02-2.67804E+02 3.64544E+02-9.10038E+02-2.99504E+02-1.83264E+02
 -1       461 1.92911E+01 1.76332E+01-2.76399E+01-2.65890E+01 2.07759E+01-5.60528E+00
 -1       462-5.60588E+00 1.13253E+01 5.65718E+00-7.67145E+00-1.81489E+01 5.59934E+00
 -1       463 2.92163E+00 3.38498E+00-4.34578E+00-4.42961E+00-1.61645E+01 1.26059E+01
 -1       464-1.96458E+00-4.00147E+00 4.19425E+00 4.15331E+00-1.59744E+01 1.29050E+01
 -1       465 5.35083E+00-1.23876E+01-5.33405E+00 6.03609E+00-1.88422E+01 5.94883E+00
 -1       466-1.71699E+01-1.96251E+01 2.61348E+01 2.67010E+01 1.62864E+01-5.46122E+00
 -1       467 2.13628E+01 2.72364E+02-1.34202E+02 4.25351E+02-3.36177E+01-1.10010E+02
 -1       468 1.75875E+02-7.36431E-04 2.48273E-04 1.01410E+01-1.52792E-04-1.94013E+01
 -1       469-1.07272E+03 2.04918E-04-5.96782E-04-5.70586E+01-7.59600E-04 8.10244E+01
 -1       470-1.17613E+03 4.29590E+01 3.18325E+02-5.33787E+02-2.57976E+01-1.70394E+01
 -1       471-1.45358E+03 1.87500E+02 6.36652E+02-9.04863E+02-4.70056E+01-1.56744E+02
 -1       472-1.26931E+03 2.85202E+02 3.85485E+02-5.49066E+02-5.32714E+01 2.40237E+02
 -1       473-7.36957E+02 2.89180E+02 1.34317E+02-5.49904E+02-2.12328E+02-2.23059E+02
 -1       474 5.67185E+01-8.30709E+00-7.12964E+01-8.40387E-01 1.92388E+01-7.84767E+00
 -1       475 1.33000E+01 3.24969E+01-5.11506E+01-1.40178E+01-8.96119E+00-9.41842E+00
 -1       476-8.75965E+00 6.81151E+00 2.41652E+01-1.28266E+01-2.80653E+01 7.00316E+00
 -1       477 7.19800E+00 9.84773E+00 2.19831E+00-1.32200E+01-1.97347E+01 9.01202E+00
 -1       478 5.02307E+00 4.26600E+00-9.00564E+00-3.89554E+00-1.96765E+01 1.37208E+01
 -1       479 5.86649E+00 3.43585E+00-6.41406E+00-3.09594E+00-1.89734E+01 1.08342E+01
 -1       480 8.20335E-01 1.04214E+00-1.74352E+00 5.03755E-01-1.83097E+01 1.18407E+01
 -1       481 3.16300E-01-2.03359E+00 5.24408E+00 5.00076E+00-2.16736E+01 8.78244E+00
 -1       482-8.59223E-01-1.20396E+01 1.64625E+01 5.03316E+00-2.32672E+01 2.15637E+00
 -1       483-9.11441E-01 2.70706E+00-1.74405E+01 4.56785E+00-1.88441E+01 4.75651E+00
 -1       484 2.36916E+00-2.60977E+01-1.91892E+01 1.65973E+01-1.98991E+01 7.65827E+00
 -1       485-9.29369E+01 3.59587E+00 3.68679E+01 3.60855E+01-1.73941E+01-1.64141E-01
 -1       486-1.53496E+02 3.54214E+01 3.38268E+01 6.18020E+01 6.02335E+00-2.41465E+01
 -1       487-1.39392E+02 1.24793E+02 3.07857E+01 1.53488E+02-4.93759E+01 4.35175E+01
 -1       488-7.61869E+01 3.68064E+01 1.53930E+01 1.09084E+02 6.35154E+01-1.10237E+01
 -1       489-5.03136E+01-4.46414E-04 3.18078E-04 2.15835E+01 4.10774E-04-9.86164E+01
 -1       490-1.55943E+03-7.50603E-04-1.27166E-03-2.96542E+01 1.09921E-03-1.95268E+02
 -1       491-1.49132E+03 3.10469E+02 6.87384E+02-6.23325E+02-5.86277E+01-7.54613E+01
 -1       492-9.16437E+02 4.86228E+02 6.93887E+01-5.91731E+02-9.87388E+01-4.55495E+02
 -1       493-1.01111E+02-7.31028E+00 8.69116E+01 4.85071E+01 7.90346E+01-2.85503E+01
 -1       494 3.26992E+01-1.51737E+01-4.58434E+01-2.55826E+01-3.63132E+00-7.84002E+00
 -1       495 1.19192E+01 6.78780E+00 3.81938E-01-1.21733E+01-1.30476E+01 1.28066E+01
 -1       496 6.23963E+00 2.39237E+00-4.78090E+00-7.36547E-01-1.29151E+01 1.53738E+01
 -1       497-5.92346E+00-1.51783E+01-5.38173E-01 1.73233E+01-1.12971E+00 1.21978E+00
 -1       498 1.77396E+01-1.76706E+01-8.12666E-02-3.14740E+01 9.72480E+00-2.29406E+00
 -1       499-8.95893E+01 1.30128E+01 2.82662E+01 8.98566E+01-8.22311E+00 6.22235E+01
 -1       500-1.45350E+02 4.88337E+01 5.28821E+01 1.05214E+02-3.55755E+00 3.18328E+00
 -1       501-1.33892E+02-1.02933E-04-9.78315E-05 1.09300E+01 2.02272E-04-5.53486E+00
 -1       502-1.93393E+03-7.99129E-04-1.23812E-03-1.55851E+01-4.04269E-04-6.20139E+01
 -1       503-1.80775E+03 5.50078E+01 3.69057E+02-2.32208E+02 3.99986E+01-1.09579E+01
 -1       504-1.48992E+03 2.19518E+02 7.38116E+02-4.31262E+02 1.66547E-01-1.64686E+02
 -1       505-1.30108E+03 4.68787E+02 3.71288E+02-4.06203E+02-9.45126E+00 3.22318E+01
 -1       506-1.17972E+03 8.00461E+02 4.46125E+00-2.74954E+02-1.02677E+02-1.38703E+02
 -1       507-7.00651E+02 7.43939E+02 3.81616E+01 1.70887E+02-3.00217E+02-8.78616E+01
 -1       508-4.69921E+02 6.50424E+02 7.18594E+01 3.33257E+02-4.05163E+02-2.75668E+02
 -1       509-1.74225E+02-6.76563E+01 3.38821E+02 1.49411E+02 1.29780E+02 3.26183E+01
 -1       510 3.17319E+01-8.64671E+01 1.60234E+02 1.95863E+01-5.87022E+01 5.65366E+01
 -1       511 1.05149E+02 1.11415E+02-1.49585E+02-1.13111E+02 5.50097E+01-5.59908E+01
 -1       512-1.18067E+01 3.50310E+01-4.85121E+01-2.28483E+01 6.27680E+00 1.68948E+00
 -1       513 1.18218E+01-7.80853E+00 1.93852E+01-1.07745E+01-8.54564E+00 2.17985E+01
 -1       514 1.76377E+01-8.40512E+00 8.28845E+00-4.66081E+00-8.64493E+00 1.26411E+01
 -1       515 1.55514E+01-1.92566E+00-8.17345E+00-1.13597E+00-4.96828E+00 1.35028E+01
 -1       516 1.00472E+01 1.92294E+01-1.78736E+01-8.53361E+00 1.60640E+00 1.06375E-01
 -1       517-1.68752E+01 5.88186E+01-2.90084E+01 2.15232E+01 1.81230E+01 3.30780E+00
 -1       518-7.92405E+00-6.40887E+01 3.93355E+01 2.58727E+01-5.26461E+01 1.14264E+01
 -1       519 2.22937E+01-3.58267E+01 7.29571E+01-3.29114E+01-5.83500E+00-1.15894E+00
 -1       520-2.07108E+01-6.22023E+01 5.16782E+01 6.39680E+01-6.61031E+01 2.93054E+01
 -1       521-4.83603E+01 2.36167E+01 3.56714E+01 7.42998E+01 5.04468E+01 3.28857E+01
 -1       522-1.21805E+02 1.22607E+01 1.96645E+01 9.87861E+01-5.50495E+01-5.50032E+00
 -1       523-1.41503E+02 2.59675E+01 4.73214E+01 9.94908E+01 1.08618E-01-1.55248E+01
 -1       524-1.53622E+02 2.49009E+01 7.49784E+01 9.15947E+01 4.00956E+00 2.92203E+01
 -1       525-1.84955E+02 9.19378E+00 3.74892E+01 4.88328E+01 9.27866E+00 2.31680E+00
 -1       526-2.00969E+02-1.10261E-04-1.19744E-04 5.29458E+00-1.49592E-04 1.88425E+01
 -1       527-2.13167E+03-5.58345E-04-1.36957E-03-1.87590E+01 6.36073E-07-2.91061E+02
 -1       528-1.52465E+03 2.13678E+02 7.40310E+02-2.08553E+02 8.61129E+00-1.78777E+02
 -1       529-8.58750E+02 7.40891E+02-1.36927E+00 9.95850E+01-2.27427E+01-1.57498E+02
 -1       530-2.65419E+02 1.19768E+03-4.42953E+02 5.48391E+02 2.86875E+02-1.25112E+02
 -1       531 2.63742E+02 5.78036E+02-5.88029E+02-4.46849E+02 8.14148E+01-3.26091E+01
 -1       532-7.64217E+01 3.40957E+01 1.57693E+02 2.53622E+01-6.13653E+01 4.85836E+01
 -1       533 3.54092E+01 1.32250E+01-4.79864E+01-1.34205E+01 7.57685E+00 2.55499E+00
 -1       534 1.06289E+01 6.04842E+00-1.63352E+00 3.74487E-01-1.55273E+00 1.60847E+01
 -1       535 3.24506E+01 2.07066E+01 2.23530E+01-3.51382E+01-3.42465E+01 3.17826E+01
 -1       536-5.84426E+01 3.57708E+02-1.67934E+02 7.12840E+01-1.14191E+02-2.51049E+01
 -1       537-2.77901E+01-1.02164E+02 1.71465E+01 1.18188E+02 9.45182E+00 1.88315E+01
 -1       538-1.12033E+02 3.52159E+01 1.37948E+01 9.34833E+01 1.74646E+01 2.33902E+01
 -1       539-1.79313E+02 2.15824E+01 8.98486E+01 7.27578E+01-3.86835E+00 7.12193E+00
 -1       540-2.47457E+02-4.75173E-05-1.66219E-04 2.41608E+00 1.15434E-04 3.92800E+01
 -1       541-2.22606E+03-6.11957E-04-1.24010E-03-1.39890E+01 9.32095E-04-2.60382E+02
 -1       542-2.01240E+03 9.90833E+01 3.71252E+02 3.31307E+00 1.89274E+01 1.47189E+01
 -1       543-1.49176E+03 2.47277E+02 7.42505E+02-3.66910E+00-6.75365E+01-2.49050E+02
 -1       544-1.01422E+03 4.55859E+02 3.67652E+02 1.47690E+02-9.72832E+00 7.88721E+01
 -1       545-5.64882E+02 7.05058E+02-7.19999E+00 4.23527E+02 1.17282E+02-1.40007E+02
 -1       546-1.54476E+02 9.31853E+02-4.82482E+02 7.13848E+02-1.38492E+02-5.52242E+01
 -1       547 9.75003E+02 1.03314E+03-9.57765E+02 9.30147E+02 5.09520E+01-1.04230E+02
 -1       548 3.96818E+03 2.31155E+03-1.66286E+03-2.05911E+03-6.64996E+02-4.55401E+01
 -1       549 2.47082E+03 2.73059E+03-1.59618E+03-2.73521E+03 9.43294E+02-9.23198E+02
 -1       550 5.31677E+02 2.84911E+02-5.78551E+02-4.49482E+02 3.80894E+01-1.06788E+02
 -1       551-6.26625E+01-1.84092E+02 3.36364E+02 1.48527E+02-3.37353E+01-1.37802E+02
 -1       552-2.74613E+00-1.10147E+02 9.12298E+01 4.37597E+01 3.03025E+01-8.03106E+01
 -1       553-7.80964E-01 5.39493E+01-6.66702E+01 2.01886E+00 7.34008E+00-2.42512E+01
 -1       554 2.74619E+01 2.74852E+01-4.06114E+01-1.81636E+01 8.10264E+00-1.27783E+01
 -1       555 2.40738E+01 1.82294E+01-6.81153E+00-1.73447E+01-4.49889E+00 2.60828E+01
 -1       556 1.58827E+01-5.90233E+01 3.52681E+01 1.33475E+01 1.38968E+01 1.90908E+01
 -1       557 1.05101E+01-9.15137E+01 5.82695E+01-2.49087E+01-1.15784E+01 5.57819E+01
 -1       558-1.42909E+02 1.64897E+02-5.90520E+01 1.02153E+02 3.84442E+01 1.48683E+02
 -1       559-6.31305E+02 1.64324E+03-3.11072E+02 5.38927E+02 4.15483E+02-5.89006E+01
 -1       560-7.56083E+02 1.48025E+03-2.39109E+02 9.82981E+02-1.46946E+02-2.35008E+02
 -1       561-7.24523E+01 9.12522E+00-1.73850E+01 4.51610E+02-4.72400E+01-1.55712E+02
 -1       562-3.05586E+01 5.15091E+01-4.72996E+00 1.91430E+02-1.20160E+02 5.83208E+01
 -1       563-1.09904E+02 1.26769E+02 7.92518E+00 9.28462E+01 8.17849E+01-3.29683E+01
 -1       564-1.72522E+02 6.84756E+01 5.63219E+01 8.16383E+01-5.18308E+00-1.27390E+01
 -1       565-2.14768E+02 1.97472E+01 1.04719E+02 4.66757E+01-2.88469E-01 3.57368E+01
 -1       566-2.57284E+02 7.16625E+00 5.23593E+01 2.37066E+01-6.39271E-01 9.12167E-02
 -1       567-2.78802E+02-1.11872E-04-1.70019E-04-5.97202E-01 1.93650E-05 2.40725E+01
 -1       568-2.08230E+03-5.64013E-04-1.28357E-03 5.95033E+01-1.20128E-03-2.24886E+02
 -1       569-1.46252E+03 3.10752E+02 6.93823E+02 1.52114E+02 5.08166E+01-2.38415E+02
 -1       570-2.71099E+02 6.67700E+02-1.95021E+02 5.66346E+02-7.69222E+01-2.28389E+02
 -1       571 7.42925E+02 1.05725E+03-7.59734E+02 1.18390E+03 2.90522E+02-6.61722E+02
 -1       572 1.91195E+03 4.52177E+03-1.69179E+03-1.97036E+03 9.82567E+01 5.92632E+02
 -1       573-6.69871E+02 2.41766E+03-4.12398E+02-1.66201E+02 2.50888E+02-1.00590E+02
 -1       574-2.87873E+02 4.59206E+02-6.13038E+01 1.22367E+02 2.60991E+02-3.80120E+01
 -1       575-1.68402E+02 1.16907E+02-3.42738E+00 4.00452E+01-5.04415E+01 6.21753E+01
 -1       576-2.32561E+02 4.34212E+01 1.10555E+02 2.74082E+01 1.34082E+01 2.20772E+01
 -1       577-2.88007E+02-8.95154E-05-2.04526E-04-5.23156E+00-1.01535E-04 2.59043E+01
 -1       578-1.85344E+03-3.54452E-04-1.44905E-03 1.48409E+02 1.15380E-03 2.40577E+02
 -1       579-1.85654E+03 1.89712E+02 3.22570E+02 2.60749E+02-1.09793E+02 7.35189E+01
 -1       580-1.41186E+03 3.72402E+02 6.45141E+02 2.97035E+02-7.93529E+01-2.28506E+02
 -1       581-5.99783E+02 4.31409E+02 1.31148E+02 4.67275E+02 1.00743E+02 2.07253E+02
 -1       582 1.14075E+02 7.12328E+02-3.82843E+02 7.80346E+02 7.65141E+01-1.42513E+02
 -1       583 3.83849E+02 9.07241E+02-4.72273E+02 1.10601E+03-4.37647E+01 1.24041E+01
 -1       584 7.95213E+02 1.05037E+03-5.61704E+02 1.36679E+03-3.51643E+02 3.65163E+02
 -1       585 7.43078E+02 1.08754E+03-7.88667E+02 1.27859E+03 7.18772E+02-2.92495E+02
 -1       586 7.34924E+02 1.42146E+03-1.01563E+03 1.15824E+03 1.77289E+02-1.03354E+02
 -1       587 1.01124E+03-2.29926E+00-5.48546E+02 7.30868E+02-6.33169E+01-2.59385E+02
 -1       588 5.66854E+02-1.29920E+02-8.14608E+01 3.40844E+02 2.36255E+02 2.42652E+02
 -1       589 2.85912E+02-6.31352E+01-6.25868E+01-1.78186E+02 5.97265E+01-4.37495E+01
 -1       590 4.95396E+02-1.09313E+00-2.13275E+02-3.68065E+02-2.15697E+01 8.57494E+01
 -1       591 2.99314E+02 5.64554E+02-3.63963E+02-8.50064E+02 2.14379E+02 8.42557E+01
 -1       592-1.26042E+02 6.48671E+02-2.34593E+02-5.90026E+02 3.06203E+02-1.47940E+02
 -1       593-2.87656E+02 6.36898E+02-1.05223E+02-2.63140E+02-1.62110E+02 1.73955E+01
 -1       594-1.61218E+02 3.62195E+02-6.00015E+01-1.56727E+02-6.55776E+01 4.65616E+01
 -1       595-1.17347E+02 1.29557E+02-1.47799E+01-4.93414E+01 2.82638E+01-5.67594E+01
 -1       596-1.79706E+02 3.38727E+01 5.08057E+01 7.03082E+00 3.92812E+01 2.21552E+00
 -1       597-2.42728E+02 6.94696E+01 1.16392E+02 1.43405E+01-4.40287E+01 1.94727E+01
 -1       598-2.85472E+02 3.17701E+01 5.81957E+01-1.11490E+01-1.95806E+01-2.11142E+00
 -1       599-2.84341E+02-9.71635E-07-1.84687E-04-1.63781E+01 2.35167E-04-2.53518E+01
 -1       600 4.14594E+02 7.86911E+02-4.52609E+02 7.37941E+02-2.68345E+02-2.39741E+02
 -1       601 7.42975E+02 5.46388E+02-4.92319E+02 1.16852E+03-1.48799E+01 3.40930E+01
 -1       602 7.04966E+02 1.34197E+02-4.76390E+02 9.94309E+02-7.63230E+00 1.42483E+02
 -1       603 4.77546E+02-9.32548E+01-1.28877E+01 3.81112E+02 1.07717E+02 3.04841E+02
 -1       604 1.70672E+02-4.66530E+01-2.86368E+01-1.81131E+02 5.51790E+00-1.61598E+02
 -1       605 2.37022E+02 4.55942E+01-1.74185E+02-5.35308E+02-5.36836E+01 5.96766E+01
 -1       606-5.04688E+01 3.35733E+02-1.22991E+02-2.86248E+02-4.81130E+01 5.06764E+01
 -1       607-3.34082E+01 2.79562E+02-5.74842E+01-1.03526E+02 1.51180E+01-3.89170E+01
 -1       608 5.04348E+02 5.32863E+02-5.22374E+02 6.01059E+02 2.32938E+02-2.27023E+02
 -1       609 7.46375E+02 4.92349E+02-4.72654E+02 7.94916E+02 2.64538E+02 2.77928E+02
 -1       610 6.36774E+02 2.64361E+02-4.22933E+02 8.91154E+02 1.69413E+02-6.61901E+01
 -1       611 5.75042E+02-1.93428E+02-1.80042E+02 7.97235E+02 2.58712E+02 8.49768E+01
 -1       612 5.68020E+02-5.98719E+02 6.28495E+01 7.62258E+02 1.19713E+02-5.15914E+01
 -1       613 4.38832E+02-6.85213E+02 5.92663E+01 5.96762E+02 3.39635E+02-5.07602E+01
 -1       614 4.30747E+02-6.98562E+02 5.56835E+01 5.46467E+02 3.32289E+02 4.33603E+00
 -1       615 1.62693E+02-1.92580E+02 5.31258E+00-2.16517E+02 1.20946E+02 5.57637E+01
 -1       616 1.39332E+02-1.71059E+02 1.04525E+01-2.70054E+02 8.64209E+01-3.18902E+00
 -1       617 1.03077E+02-1.27970E+02 1.55924E+01-3.49658E+02 8.31785E+01-5.82412E+01
 -1       618 1.18262E+02 7.09743E+01-6.25829E+01-3.20965E+02 3.44558E+01 1.78445E+01
 -1       619 1.28685E+02 1.87893E+02-1.40758E+02-2.80608E+02 1.14795E+02-1.47064E+00
 -1       620 1.81736E+01 2.05539E+02-1.20474E+02-1.90711E+02 1.35714E+02-1.18796E+02
 -1       621-5.70228E+01 2.57517E+02-1.00189E+02-1.12790E+02-4.80881E+01 1.37492E+02
 -1       622 4.39543E+02-5.35055E+02 1.24968E+02 5.04141E+02-2.64160E+02-4.64129E+01
 -1       623 4.50382E+02-1.14079E+03 3.96020E+02 3.48838E+02 3.36122E+01 1.45247E+01
 -1       624 5.08421E+02-1.98530E+03 5.02268E+02 2.60737E+02 5.70084E+01-2.22558E+01
 -1       625 1.57708E+02-5.48714E+02 1.37500E+02-1.46497E+02 6.30977E+01 1.12826E+01
 -1       626 1.02942E+02-2.61996E+02 9.81083E+01-1.96743E+02 1.94321E+01-2.01959E+00
 -1       627 1.36381E+02-4.92939E+01 1.50277E+00-2.00301E+02-9.92087E+01-1.59715E+01
 -1       628 4.02954E+02-1.49378E+03 6.72871E+02 3.38918E+02 2.84742E+02 3.83442E+01
 -1       629 3.39637E+02-1.50323E+03 7.01031E+02 1.80781E+02 2.34948E+02-4.11924E+01
 -1       630 3.37015E+02-1.51918E+03 7.29191E+02 7.74183E+00 2.74832E+02 4.76418E+01
 -1       631 5.03760E+02-1.91135E+03 8.39023E+02-2.22296E+02 1.61240E+02 4.19105E+00
 -1       632 4.71188E+02-2.17736E+03 9.48854E+02-7.03015E+02 2.63072E+02 8.64631E+01
 -1       633-6.13747E+01-1.07682E+03 6.79512E+02-1.10339E+03 2.77907E+02 4.04165E+02
 -1       634-4.15309E+02-3.42187E+02 4.10169E+02-8.33278E+02 1.10767E+02 1.10653E+02
 -1       635-4.77122E+02-1.74140E+02 3.04425E+02-3.29382E+02 2.35834E+02 1.96157E+01
 -1       636-3.10735E+02-1.59448E+02 1.98681E+02 1.11759E+02-2.21301E+01 4.99457E+01
 -1       637-6.48338E+01-3.30748E+02 2.34184E+02 2.53113E+02 8.63501E+01-1.12016E+02
 -1       638 1.41130E+02-6.25559E+02 2.69688E+02 1.46319E+02 7.18951E+01-2.41027E+01
 -1       639 1.49807E+02-5.24239E+02 2.25156E+02 2.62133E+00 5.64364E+01 1.26546E+00
 -1       640 9.86918E+01-3.71601E+02 1.80624E+02-5.46654E+01 6.93853E+01-1.73210E+01
 -1       641 8.43404E+01-3.50306E+02 1.62194E+02-1.00011E+02 6.68798E+01 4.14936E+00
 -1       642 8.49573E+01-3.35653E+02 1.43765E+02-1.47043E+02 8.02299E+01 2.26984E+01
 -1       643 2.02136E+02-1.92417E+03 3.36435E+02 3.12706E+02-6.41962E+01 9.25120E+01
 -1       644 1.22786E+02-2.11750E+03 3.64595E+02 9.01026E+00-8.16331E+01-7.30501E+01
 -1       645 1.45537E+02-1.86059E+03 4.74427E+02-5.12779E+02-2.67841E+01 4.23531E+01
 -1       646-1.54674E+02-5.48065E+02 2.05084E+02-4.10586E+02-7.64101E+01 5.08209E+01
 -1       647-9.44904E+01-2.29363E+02 9.93400E+01 3.20470E+01-1.14265E+01-9.29576E+01
 -1       648 4.32912E+01-5.41286E+02 1.34844E+02 1.23596E+02-1.48690E+01-2.60419E+01
 -1       649 3.64006E+01-5.54258E+02 9.03118E+01-3.11957E+01-2.59428E+01 2.42640E+01
 -1       650 4.58153E+01-4.49940E+02 7.18821E+01-1.09175E+02-2.15514E+01-1.88133E+01
 -1       651-4.11057E-04-1.86538E+03-1.39262E-03 1.62786E+02-3.19206E+02-1.57896E-03
 -1       652-6.26284E-04-2.17363E+03-1.29690E-03 6.93021E+01 2.09464E+02 1.76844E-03
 -1       653-1.20966E-03-2.39196E+03-1.56335E-03-8.35105E+00 2.39784E+02-8.61932E-04
 -1       654-1.21732E-03-2.14802E+03-1.55219E-03-2.89327E+01 3.82104E+02-6.51582E-04
 -1       655 3.33148E-05-1.77017E+03-7.60199E-04-7.60267E+01-1.14677E+02 3.64678E-05
 -1       656 5.55980E-05-1.19227E+03-1.25709E-03-7.38944E+01 2.77224E+01-1.51665E-03
 -1       657 1.65775E-04-7.53944E+02-1.18819E-03-7.93565E+00 3.33156E+02 2.73032E-04
 -1       658 1.26893E-03-4.49934E+02-5.63184E-04-8.71819E+00 1.45449E+01 1.45814E-04
 -1       659 5.54787E-04-2.99278E+02-7.38275E-04-1.87014E+01 2.01926E+02-5.64788E-04
 -1       660 1.10928E-04-3.74828E+02-4.33240E-04 1.49550E+01 2.42801E+01 3.88036E-04
 -1       661 1.30741E-04-5.15453E+02-2.88861E-04 1.95336E+01-3.77899E+01 1.05171E-04
 -1       662-3.67699E-04-5.91960E+02-4.16537E-04 6.79075E+00 1.07572E+02 7.59495E-05
 -1       663-3.19178E-04-6.35266E+02-4.02661E-04 3.08462E+00 7.18722E+01 3.10356E-04
 -1       664-1.45691E-04-5.42621E+02-3.00059E-04-2.12599E+01 5.35094E+01-5.35938E-04
 -1       665-1.43594E-04-4.28179E+02-3.62704E-04-4.57590E+01-9.68094E+01 3.52371E-04
 -1       666-6.12843E-14-7.86123E-10-2.70006E-13-1.41995E-10-8.00832E+01-3.76104E-04
 -1       667 3.55271E-15-2.77424E-10-1.56941E-12 7.95874E-12 5.45828E+01-1.22242E-04
 -1       668 2.93099E-14-4.55032E-11-1.58629E-12 1.84999E-11 6.65700E+01-3.25348E-04
 -1       669 2.30926E-14 1.35232E-10-1.93268E-12 7.75868E-12 2.41374E+02-1.40114E-04
 -1       670-3.19744E-14 1.58337E-10-2.05276E-11-1.08713E-11-2.29628E+01-2.57604E-04
 -1       671 1.14575E-13-9.06937E-11-1.66445E-11-2.72768E-11 5.12878E+01-4.65590E-04
 -1       672 3.19744E-14-4.18339E-10-1.51417E-11 3.36594E-11 2.39162E+02 5.39213E-04
 -1       673-5.00933E-13-9.01451E-10 5.05906E-12 2.18687E-10-2.85224E+02 1.50064E-03
 -1       674 2.37269E-10-7.96863E-10 1.86373E-10 2.71589E-11 8.81765E+01-1.15883E+01
 -1       675 1.45016E-10-3.85986E-10 1.13419E-10-2.75400E-11 5.46040E+01-2.80584E+01
 -1       676 9.78639E-12-4.45606E-11-1.52656E-14-1.01722E-10 5.21550E+01 3.60236E+01
 -1       677 1.32165E-10 1.12177E-10-1.48565E-10-1.35532E-10 4.20092E+01 6.23714E+00
 -1       678 1.49761E-10 1.89691E-10-2.34563E-10 1.44089E-10 1.61184E+02 3.21461E+01
 -1       679 7.45590E-11-1.82276E-10 7.69709E-11 7.39094E-11 1.55381E+02-5.46402E+00
 -1       680 1.69804E-10-4.93686E-10-7.90585E-11 1.51798E-10 2.41898E+02 7.66140E+01
 -1       681 2.40004E-10-9.59357E-10 6.70497E-10-4.76277E-11 2.16055E+02 6.15823E+01
 -1       682 1.45391E-10-1.16849E-11 1.93277E-11-7.33280E-11 1.71147E+01 1.07751E+02
 -1       683 4.13697E-10-3.05281E-10-9.35573E-11-2.43649E-10 9.11770E+01 1.30229E+01
 -1       684 3.75599E-10-8.23855E-10 4.76742E-11 1.02936E-10 1.90041E+02-8.82634E+01
 -1       685 2.22921E-10 4.21330E-11-1.74467E-10-1.25224E-10 1.05269E+02-4.81114E+01
 -1       686-7.27027E-11-4.79616E-12 1.12672E-10 6.64357E-12 2.22229E+01-5.09104E+01
 -1       687-3.26352E-11 9.95612E-11-5.32268E-11 5.83213E-11 2.48690E+02 2.24313E+02
 -1       688-7.83468E-11-1.91037E-10 2.98308E-10-4.05033E-11 1.72331E+02 8.37208E+01
 -1       689 4.91129E-10-5.95072E-10-4.14446E-10-5.38414E-12 1.73572E+02-7.03993E+01
 -1       690 5.78678E-10-4.40432E-10-2.24944E-10 2.25810E-10 1.63033E+02-8.85536E+01
 -1       691-3.99041E-11 1.91662E-10 6.32674E-10 7.60849E-11 1.44852E+02-3.95890E+02
 -1       692-4.28471E-10-5.32907E-15-2.47624E-12-9.68958E-11-1.32990E-04-3.62292E+01
 -1       693-4.62876E-10 1.09335E-10 9.63941E-11 2.65010E-11-3.88085E+01 1.54953E+01
 -1       694-2.93152E-10 2.56973E-10 2.25303E-11 2.07997E-11 3.80638E+01-6.74000E+01
 -1       695-4.43202E-10-8.62030E-11 1.58579E-10-2.46000E-10-1.71446E+02-3.64080E+01
 -1       696 6.18321E-10-1.93135E-09 2.99121E-10-7.69802E-11 3.42474E+02 9.34240E+01
 -1       697 2.12054E-10 7.43896E-10-2.02158E-09 1.72690E-10 2.82321E+02 4.25940E+02
 -1       698 1.92481E-10-2.21035E-09 1.95307E-09-4.15385E-10 2.67907E+02-9.56337E+01
 -1       699-5.34071E-10-7.82236E-11 2.00847E-10 3.36242E-10-5.46807E+02 2.99248E+02
 -1       700-3.54071E-10 4.74099E-10-1.38032E-10 6.49488E-11 6.62642E+01-5.61453E+01
 -1       701-7.31120E-10 1.63980E-10 2.08443E-10-5.95681E-11-8.68982E+01-3.35525E+02
 -1       702-6.44150E-10-6.51035E-13-5.20675E-10 9.62034E-11-1.65603E-03 3.21267E+02
 -1       703-1.25768E-10 1.24345E-14-7.57172E-14-1.35021E-11-7.85146E-05 2.03852E+01
 -1       704-1.24206E-10 2.19967E-11 3.82616E-11-3.07876E-11 1.21903E+01 3.33388E+01
 -1       705-1.06489E-10 6.39065E-11-4.49702E-11-6.26379E-11 8.50787E+01-4.07306E+01
 -1       706 1.39646E-10 3.50327E-10-4.54454E-10 1.88621E-10-2.89618E+01-1.14803E+02
 -1       707 9.72855E-11-2.51037E-09 3.73972E-10-1.55667E-09 2.35645E+02-2.29061E+01
 -1       708-2.27496E-11 2.68867E-10-7.47383E-10 2.54546E-10-2.10633E+01 3.63428E+01
 -1       709 3.15916E-10 2.09125E-10-3.33433E-09 8.60789E-12-3.34723E+01 2.72472E+01
 -1       710 2.89340E-10 4.48111E-10-8.76649E-10-1.00339E-10-9.08401E+01 1.09503E+01
 -1       711-2.59079E-10 1.98434E-10 1.79339E-09-1.24540E-10-1.44384E+01-2.14331E+02
 -1       712 3.05119E-10-3.63638E-09 2.47000E-09 2.06793E-09 5.99360E+02-3.98110E+02
 -1       713 2.97780E-11 3.39654E-10-1.24599E-09-6.98694E-10 5.54593E+01-1.31050E+02
 -1       714-3.04668E-10 2.19257E-10 5.14959E-10 7.10806E-11 5.46041E+01-2.79771E+02
 -1       715-1.94781E-10 9.09708E-11-3.72087E-11 7.58918E-12-5.22096E+01-2.17189E+02
 -1       716-2.37634E-10 1.24345E-13-2.80710E-10-4.60897E-11 9.34696E-05-1.92592E+02
 -1       717 4.30820E-11-4.28546E-14-2.24176E-12-4.61027E-11 5.10331E-04-3.12126E+01
 -1       718 7.03880E-11-2.44145E-11-2.94542E-13-9.25238E-11-1.31834E+01 4.02142E+01
 -1       719 1.82382E-10 1.72360E-10-1.23621E-10-2.08986E-10-7.04407E+01-2.38117E+01
 -1       720-4.89564E-12 9.07185E-12 1.23851E-10 4.69278E-11-7.83576E+01 4.02469E+01
 -1       721 2.21490E-10-3.64830E-10 1.67759E-10 3.90304E-11 4.85712E+01 1.80508E+01
 -1       722-1.43525E-10-2.26815E-10 7.46481E-10-1.68883E-10 7.70861E+01-9.33750E+00
 -1       723-2.57386E-11-1.40149E-10 2.00903E-10 4.14551E-11-3.84898E+00 1.24259E+01
 -1       724-5.28566E-12-2.82841E-10 3.18039E-10 1.52444E-10-1.60204E+01 3.25470E+01
 -1       725-4.34129E-10-3.97580E-10 3.00168E-10 2.97560E-10 1.97875E+02-1.50947E+02
 -1       726 6.48189E-10-2.59286E-11-2.72243E-09-2.68319E-10 2.26000E+02-6.19057E-01
 -1       727 7.58860E-11 4.79332E-11 6.83038E-10 4.08065E-11-2.77880E+02-3.59943E+02
 -1       728 1.52572E-10 7.27215E-11-6.09911E-11 1.23087E-10-2.11634E+01-2.41808E+02
 -1       729 3.42943E-11 4.85167E-13-1.86269E-10 1.95461E-11 4.68964E-04 8.50741E+01
 -1       730 4.88594E-11 1.02141E-13-5.48184E-12-1.53227E-10 4.31182E-04-2.58052E+02
 -1       731 1.76559E-10 4.56112E-11-1.15435E-10-1.25262E-10-3.46935E+01-9.82516E+00
 -1       732-2.35900E-11 3.42837E-12 2.99281E-11 6.45581E-11-2.68807E+01-1.71569E+00
 -1       733-1.72394E-11-1.06046E-10 3.03534E-10 6.49440E-11-3.78760E+01 3.43695E+00
 -1       734 1.96157E-11 5.92820E-11-1.28548E-09-5.90980E-11-2.75323E+01-1.67985E+00
 -1       735-2.34971E-11 2.46519E-10-1.13220E-09-7.15564E-11-1.75571E+01 9.26892E+00
 -1       736-1.06301E-10 2.13998E-10-1.15925E-09 6.66937E-11-2.31685E+01 1.86167E+01
 -1       737 2.28247E-10 2.95577E-10-3.44817E-09 9.30337E-11-4.56484E+01 1.36633E+01
 -1       738-4.08170E-10 1.41708E-10-6.33898E-10 1.14167E-10-4.47866E+01 6.48549E+01
 -1       739-8.31457E-12-9.06494E-12 8.97815E-11-3.93574E-11-1.02688E+02-6.24967E+01
 -1       740 1.42658E-11 9.65339E-14-8.20853E-11 9.59797E-11-9.82153E-05-2.15591E+02
 -1       741-1.41512E-10 1.26121E-13 3.32179E-12-1.38723E-10 4.56143E-04 9.47500E+01
 -1       742-2.89665E-10-1.47046E-10 1.80132E-10-2.16869E-10-4.16361E+01-1.51207E+02
 -1       743-8.91305E-11 1.81558E-10 1.82675E-10 8.98837E-11-2.15132E+02-2.33898E+02
 -1       744-2.92747E-10-2.25932E-10 2.43255E-09 4.31178E-11-2.99193E+01 7.79986E+01
 -1       745 2.52646E-10-3.91032E-11-9.65242E-10-1.73253E-10-4.21791E+01 1.48060E+01
 -1       746-1.19201E-10-1.00323E-10 1.06145E-09-1.68504E-11-2.36413E+01 1.81585E+01
 -1       747 3.77044E-13-1.23104E-10 4.96468E-10 5.18368E-11-1.75628E+01 9.37090E+00
 -1       748 7.35014E-11-1.04969E-11 2.15119E-10 1.29262E-10-2.83150E+01-2.12272E-02
 -1       749-1.17235E-10-1.33342E-10 1.99587E-09 1.45154E-10-4.19353E+01 8.13731E+00
 -1       750 3.45945E-11 6.27542E-12-1.38707E-11-6.45439E-11-1.77651E+01-2.94962E-01
 -1       751-1.35785E-10-1.15719E-10 8.31274E-11 1.44964E-10-4.63688E+01 4.30310E+01
 -1       752-1.15504E-10-1.69281E-13 6.96401E-12 7.08551E-11 6.99874E-04-9.92806E+01
 -1       753 1.29603E-11 2.38032E-13-9.35785E-12-6.54112E-11 6.08379E-04-4.61033E+01
 -1       754 7.50404E-11-2.76179E-11-9.02056E-11-1.55262E-10 1.30747E+00-1.64643E+02
 -1       755-2.25600E-10-1.38580E-10 1.09072E-09-2.41151E-10-1.03782E+02-1.48771E+02
 -1       756-5.44604E-10 8.60041E-11 1.36463E-09-7.75628E-11-4.27372E+02-2.74223E+02
 -1       757 1.88814E-10 8.37503E-10-8.62893E-10 1.63520E-10 2.21460E+02 3.30952E+00
 -1       758 3.78188E-10 1.27042E-10-7.75463E-10-1.32221E-10 1.78549E+02-1.72448E+02
 -1       759-5.28377E-10-2.52343E-10 3.03007E-09-7.64858E-11-1.48820E+01 3.62182E+01
 -1       760 3.54097E-10 1.23776E-10-7.49394E-10 1.57486E-11-5.19089E+00 1.32299E+01
 -1       761 5.85665E-11 1.39035E-10-7.03547E-10 2.12032E-10 8.15155E+01-1.37074E+01
 -1       762-2.09256E-10 4.86084E-10 5.25976E-10-3.59321E-11 4.82797E+01 1.91458E+01
 -1       763 4.94795E-11-5.96687E-11-8.03720E-11-8.39222E-11-6.75924E+01 2.86165E+01
 -1       764-1.89637E-10-1.70489E-10 1.25547E-10 2.14798E-10-5.53420E+01-4.93450E+00
 -1       765-6.73230E-11 1.23316E-11-3.53567E-11 1.04177E-10 4.80679E+00 2.90087E+01
 -1       766-3.73817E-11-2.05669E-14 3.50688E-11 3.22164E-11 2.28833E-04 1.72260E+01
 -1       767 2.88637E-10-1.29674E-13 9.45732E-12-6.76001E-11-5.27124E-04-2.44378E+02
 -1       768 3.44024E-10-9.23359E-11-1.15615E-10-1.20262E-10-6.85394E+01-2.49133E+02
 -1       769 4.34929E-10-2.71950E-10 4.18092E-11-1.11115E-10 1.13105E+02-1.58344E+02
 -1       770 5.48487E-10-3.80946E-11 3.82341E-10 4.10592E-10 4.92474E+01-1.28039E+02
 -1       771 1.26210E-11 2.28408E-09 1.02794E-09-1.98929E-09 4.77824E+02-4.86934E+02
 -1       772 3.69697E-10-1.46684E-10-5.66730E-09 2.59583E-10-8.34728E+00-2.22775E+02
 -1       773-1.42919E-10 4.78830E-10-2.70375E-09 1.66511E-10-7.89031E+01 2.41104E+01
 -1       774-2.78458E-10-9.13174E-11 2.20062E-10-7.13224E-11-3.78097E+01 2.97976E+01
 -1       775-2.34348E-10-8.93845E-11 8.92387E-10-1.59374E-10-2.14273E+01 3.56800E+01
 -1       776-1.07448E-09 3.46155E-09-6.52571E-10 1.54523E-09 2.33958E+02-5.33515E+01
 -1       777-4.03623E-10-2.53939E-10 8.42919E-11-3.60466E-10-4.89967E+01-1.52162E+02
 -1       778 1.03930E-10-8.37805E-11-5.73608E-11 5.14085E-11 8.14136E+01-3.16513E+01
 -1       779 1.20575E-10-3.17762E-11-1.14112E-10 4.12156E-11 1.57978E-01 3.56520E+01
 -1       780 1.14570E-10-1.10190E-14 4.33434E-11 1.16595E-11-8.56212E-05 2.18152E+01
 -1       781 8.81755E-10 5.11591E-13-4.06430E-12-2.19021E-10-1.46814E-03 2.54482E+02
 -1       782 7.95310E-10-2.44135E-10-1.33635E-11 2.53415E-11-8.14538E+01-2.32640E+02
 -1       783 4.36825E-10-4.02823E-10 4.26262E-10-1.07169E-10 7.01122E+01-1.52478E+02
 -1       784 3.42979E-10 3.18401E-10 1.34749E-09-3.23920E-10-3.45871E+02 3.58335E+02
 -1       785 6.06093E-12 1.70890E-09-3.44713E-10 5.12860E-10 2.02521E+02-1.03168E+02
 -1       786-3.23489E-10-1.65528E-10 7.87574E-10-1.07576E-10 2.39219E+02 2.62800E+02
 -1       787-8.21387E-12-3.70389E-10 8.97524E-10 2.17899E-10 6.11919E+01-5.02499E+01
 -1       788-7.12828E-11 2.01064E-09-1.02313E-09-3.15211E-10 2.20535E+02 8.58075E+01
 -1       789 5.31418E-10-1.41975E-12-2.74944E-10 3.27098E-10-1.63437E+02 2.11597E+01
 -1       790 2.40001E-10-3.17916E-10 1.24641E-10-1.98261E-11 2.73238E+01-5.45162E+01
 -1       791 4.43654E-10-1.08085E-10-1.59962E-10-3.59861E-11-4.37772E+01 1.96327E+01
 -1       792 4.27960E-10 8.88178E-14 2.26557E-11 9.12173E-11-1.65958E-04-2.78607E+01
 -1       793-5.66445E-11 9.57812E-12-5.67589E-10-2.07436E-10 2.29933E+02-2.24882E+02
 -1       794-5.16261E-10 3.89012E-10 1.34117E-09-1.22900E-10 1.79290E+02-5.84929E+01
 -1       795-4.95019E-10 6.11830E-10 6.95599E-10-1.05698E-11 1.38532E+02-4.64294E+01
 -1       796 7.09939E-11 2.40370E-10-8.18392E-10 1.28124E-11 3.43406E+02 4.18457E+00
 -1       797 1.04180E-10 7.78456E-11 3.00802E-10-2.13551E-10 1.24531E+02 5.59843E+01
 -1       798-3.43426E-10 5.80062E-10-3.38938E-11-4.12874E-11 8.90522E+01-5.98168E+01
 -1       799-4.26447E-10 3.72105E-10 2.90896E-11 2.28842E-10 1.16331E+02-3.42662E+00
 -1       800-9.05978E-11-1.03633E-10 1.37405E-10 4.91767E-11-4.99292E+01 1.38367E+02
 -1       801-2.87034E-10 1.08762E-09-1.92030E-10 1.05892E-10 2.89308E+02 3.95604E+01
 -1       802-1.64293E-10 6.08139E-10-5.23408E-11-1.40318E-10 2.74162E+02 5.06179E+01
 -1       803-1.73321E-10 1.34572E-10 1.66620E-10-5.86529E-11 2.55859E+02 8.57491E+01
 -1       804-6.93203E-11-4.54570E-12-2.45080E-11-1.76815E-11 1.01925E+02 1.02566E+02
 -1       805-4.47402E-11 7.37721E-12 9.84124E-12 2.01723E-11-2.64127E+01 4.84306E+01
 -1       806-8.44962E-11 7.96045E-11 7.03656E-11 1.47015E-11 6.99208E+01-2.48729E+01
 -1       807-1.38612E-10 4.03001E-10-8.04294E-11 6.68954E-11 6.92194E+01-1.86789E+01
 -1       808-2.07531E-10 7.21538E-10-2.04830E-10-4.08460E-11 8.17492E+01 2.19030E+01
 -1       809-4.57412E-13 1.04185E-09 3.19554E-10-2.41849E-10-3.33710E+02 2.11302E-03
 -1       810 1.77192E-13 3.95787E-10-3.15179E-11 6.75326E-12 2.24066E+02-1.32903E-04
 -1       811 1.89404E-13 1.09829E-10-1.07979E-10 4.90488E-11-1.35132E+02-3.67269E-04
 -1       812 5.71869E-14-1.17009E-11-2.89238E-11-1.98348E-11 3.24315E+02 9.49316E-04
 -1       813-1.94164E-13-1.39408E-11 2.59810E-11 3.70992E-12 1.97643E+02-1.07138E-03
 -1       814 4.47004E-14 6.87947E-11-5.42566E-12-3.07048E-11-4.36034E+01-1.11029E-04
 -1       815 2.69229E-14 2.85940E-10-1.00920E-11-4.45854E-12 6.79788E+01 8.38160E-05
 -1       816 4.30767E-14 7.27113E-10-5.84564E-11 1.53573E-10-9.99083E+01-6.07614E-04
 -1       817-1.07276E-04-4.27590E+02-4.30393E-04-4.46792E+01-7.73174E+01 2.21894E-04
 -1       818-1.63370E-04-5.25199E+02-3.05430E-04-1.62805E+01 5.72435E+01-2.71346E-04
 -1       819-2.57920E-04-5.89940E+02-2.67530E-04 7.99238E+00 5.89336E+01 4.29464E-04
 -1       820-1.94406E-04-5.74970E+02-3.66798E-04-3.00193E+00 9.56860E+01-3.88158E-04
 -1       821 2.64597E-04-5.27384E+02-5.17376E-04-6.49629E+00 7.07656E+01-4.35813E-04
 -1       822 4.01723E-04-5.55535E+02-4.64334E-04 7.42075E+00 8.42271E+01 8.59688E-04
 -1       823 3.88047E-04-6.15674E+02-9.26243E-04 5.16568E+00 2.47998E+02-5.45808E-04
 -1       824 9.11505E-04-8.22898E+02-9.24843E-04-3.77327E+01-1.16560E+02-9.61112E-04
 -1       825 3.49354E-04-1.20546E+03-8.63905E-04-5.73014E+01-8.03264E+00 8.57622E-04
 -1       826-6.65199E-04-1.64537E+03-1.34339E-03-2.84605E+01 2.19490E+02-1.20095E-03
 -1       827-7.50075E-04-1.97927E+03-1.29730E-03-9.56247E+00 6.76654E+01 4.50271E-04
 -1       828-5.79443E-04-2.15636E+03-1.39147E-03-1.64304E+01 2.89859E+02 9.03858E-05
 -1       829-6.03742E-04-2.23074E+03-1.25342E-03-1.44480E+01 2.55210E+02-1.01968E-03
 -1       830-5.73462E-04-2.05475E+03-1.27586E-03 6.28450E+01 2.13682E+02 1.25968E-03
 -1       831-3.98551E-04-1.79228E+03-1.46232E-03 1.53003E+02-2.71541E+02-1.13338E-03
 -1       832 5.79208E+01-4.40567E+02 6.41674E+01-1.01854E+02-1.62586E+01-3.15090E+01
 -1       833 1.77772E+01-5.20308E+02 1.00930E+02-1.88631E+01-3.34223E+00 1.70410E+01
 -1       834 1.28838E+01-5.07756E+02 9.73396E+01 4.18997E+01 2.63182E+01-3.89025E+01
 -1       835-1.18499E+02-4.70908E+02 1.53652E+02-1.02681E+02-3.35280E+01-4.02537E+01
 -1       836 1.67738E+01-1.26485E+03 3.46264E+02-4.83084E+02 6.53193E+00 4.36105E+01
 -1       837 5.43612E+01-1.85677E+03 3.79892E+02-2.10433E+02 1.61543E+01-2.66669E+01
 -1       838 1.03531E+02-2.01835E+03 3.72256E+02 2.73671E+01-1.52974E+01-1.87485E+01
 -1       839 1.88788E+02-1.81254E+03 3.17402E+02 2.91291E+02-7.73087E+01 1.04761E+02
 -1       840 1.09838E+02-3.24684E+02 1.28335E+02-1.30342E+02 8.66350E+01-1.00028E+01
 -1       841 9.33357E+01-3.52269E+02 1.65098E+02-8.00489E+01 6.10894E+01 1.87158E+01
 -1       842 5.61769E+01-3.85056E+02 2.01861E+02-3.05348E+01 5.40643E+01-2.73423E+01
 -1       843 6.55184E+01-3.95169E+02 1.98270E+02 2.72753E+01 4.89424E+01-3.11928E+01
 -1       844 7.01612E+00-3.89482E+02 1.94680E+02 7.57840E+01 5.20907E+01 3.71613E+01
 -1       845-1.46178E+02-2.98534E+02 2.50992E+02 3.65126E+01 9.35813E+01-3.38513E+01
 -1       846-2.99745E+02-2.45891E+02 3.07305E+02-1.09672E+02 4.39796E+01 1.06250E+01
 -1       847-3.84166E+02-7.37530E+02 4.99917E+02-6.72292E+02 2.48409E+02 2.30654E+02
 -1       848 1.17315E+02-1.47729E+03 6.92530E+02-8.27970E+02 1.66944E+02 3.58809E+01
 -1       849 2.81627E+02-1.52442E+03 7.26157E+02-5.83401E+02 9.13577E+01 6.98053E+01
 -1       850 2.12175E+02-1.53454E+03 7.59785E+02-3.95084E+02 1.55419E+02-4.90400E+00
 -1       851 2.17891E+02-1.55835E+03 7.52149E+02-1.65738E+02 1.83796E+02-1.30102E+01
 -1       852 2.59585E+02-1.50429E+03 7.44513E+02 4.05723E+01 2.41965E+02 7.52659E+01
 -1       853 3.17335E+02-1.46344E+03 6.89659E+02 2.02656E+02 2.29768E+02-4.77996E+01
 -1       854 3.68792E+02-1.40541E+03 6.34805E+02 3.56932E+02 2.11755E+02 5.92152E+01
 -1       855 1.26395E+02-2.45124E+01-7.25218E+00-2.38047E+02-1.19924E+02 4.51498E+01
 -1       856 1.97725E+02-3.45999E+02 7.59796E+01-1.01037E+02-2.23826E+01-1.72947E+01
 -1       857-1.20273E+01-1.92350E+02 9.44346E+01 1.30198E+02-5.95491E+01-7.45326E+01
 -1       858-8.54637E+01-6.65624E+01 1.37173E+02 1.26392E+02-5.84261E+01 6.23415E+01
 -1       859 2.71931E+02-1.25344E+03 4.00965E+02-5.52434E+02-2.48467E+02 5.30027E+01
 -1       860 4.79622E+02-1.33271E+03 3.81910E+02-3.77540E+02-3.00945E+01 1.29556E+01
 -1       861 4.59524E+02-1.03653E+03 3.75654E+02 2.12531E+02-7.96540E+01 7.32038E+00
 -1       862 4.59858E+02-6.16013E+02 1.18291E+02 5.19488E+02-2.28283E+02-8.35075E+01
 -1       863-4.37835E+01 2.07749E+02-7.99280E+01-7.86863E+01 1.85796E+01 1.06393E+02
 -1       864 4.15553E+00 2.08540E+02-1.11384E+02-1.70330E+02 1.00108E+02-9.02667E+01
 -1       865 1.30747E+02 2.30522E+02-1.42839E+02-3.29567E+02 9.05009E+01 1.39068E+01
 -1       866 2.41200E+02 5.24612E+01-9.63703E+01-4.20220E+02 5.73130E+01 2.79987E+00
 -1       867 3.75999E+02-2.72982E+02-4.99015E+01-3.40382E+02 1.84738E+02-8.66093E+01
 -1       868 3.05495E+02-2.32707E+02-2.78560E+01 1.14586E+02 6.19969E+01-4.46553E+01
 -1       869-2.60745E+01-9.38643E+01-5.81052E+00 2.14190E+02 1.00945E+02-4.79269E+01
 -1       870-1.09931E+02-8.86156E+01-1.93841E+01 1.44054E+02 5.84501E+01-6.13834E+01
 -1       871-6.00673E+01-4.77358E+01-3.29575E+01 1.21072E+02 1.48852E+01-5.14947E+01
 -1       872 2.97957E+02-7.23507E+02 1.09399E+02-5.76221E+02 2.36109E+02 2.22037E+02
 -1       873 4.97595E+02-9.34535E+02 5.67174E+01-5.93443E+02 4.50824E+02 1.11033E+02
 -1       874 8.43587E+02-1.21942E+03 4.03673E+00-2.51158E+02 1.61872E+02 8.29996E+01
 -1       875 7.80150E+02-8.94978E+02 5.41575E+00 1.49478E+02 1.51980E+02 3.19919E+01
 -1       876 6.98207E+02-5.96316E+02 6.79441E+00 4.99022E+02 1.54822E+02-7.47382E+01
 -1       877 6.68458E+02-2.77736E+02-1.95713E+02 6.25222E+02 2.10111E+02 4.93103E+01
 -1       878 7.28516E+02 8.84200E+01-3.98221E+02 8.00669E+02 1.55374E+02-9.49166E+01
 -1       879 6.88930E+02 4.08289E+02-4.35932E+02 6.63339E+02 2.63944E+02 2.98776E+02
 -1       880 3.60389E+02 5.95347E+02-4.73643E+02 5.05868E+02 1.46210E+02-3.97511E+02
 -1       881-6.32477E+01 2.64803E+02-4.59331E+01-6.23157E+01 6.18957E+00-4.19791E+01
 -1       882-1.02855E+02 3.13830E+02-9.84741E+01-2.79760E+02 1.98585E+01 4.45182E+01
 -1       883-4.71508E+00 1.41030E+02-1.66824E+02-8.10283E+02 1.22806E+02 8.32186E+01
 -1       884 7.81449E+02-7.45347E+02 3.26334E+01 2.06449E+02 6.51567E+01 3.42751E+02
 -1       885 9.82784E+02-2.20172E+02-4.93632E+02 8.28652E+02 3.70833E+01 8.27657E+01
 -1       886 7.71273E+02 4.00414E+02-4.06194E+02 1.09725E+03-2.03666E+01 2.38404E+01
 -1       887 4.21748E+02 7.84061E+02-4.42098E+02 7.14081E+02-1.97403E+02-1.49753E+02
 -1       888-2.49579E+02-3.33742E-05-1.37426E-04-1.57677E+01 2.44596E-04-3.38900E+01
 -1       889-2.52009E+02 2.91364E+01 5.42577E+01-1.09826E+01-1.23028E+01 4.95408E-02
 -1       890-2.24520E+02 6.82979E+01 1.08516E+02 8.58582E+00-3.93287E+01 1.53662E+01
 -1       891-1.91134E+02 4.82444E+01 4.82885E+01 6.55267E+00 3.75719E+01 7.29328E-02
 -1       892-1.57430E+02 1.53237E+02-1.19384E+01-3.05215E+01 3.88166E+01-6.88721E+01
 -1       893-1.96877E+02 3.49078E+02-3.30238E+01-1.39583E+02-6.02572E+01 5.41980E+01
 -1       894-3.39076E+02 5.81107E+02-5.41091E+01-2.33294E+02-1.69920E+02-3.93377E+01
 -1       895-3.66716E+02 6.86873E+02-1.68928E+02-5.54698E+02 3.10915E+02-1.10424E+02
 -1       896-3.06722E+02 9.61645E+02-2.83747E+02-9.36039E+02 3.38211E+02 8.84739E+01
 -1       897 7.21393E+02-4.93689E+02 6.12274E+01 3.53530E+02 2.83546E+02 4.03178E+02
 -1       898 1.32362E+03-3.09223E+02-4.66416E+02 5.97032E+02 1.34636E+02-2.92740E+02
 -1       899 1.13231E+03 9.36097E+02-9.94059E+02 1.18826E+03 2.44177E+02-9.48814E+01
 -1       900 9.44328E+02 7.83352E+02-7.04112E+02 1.31124E+03 6.81257E+02-1.38128E+02
 -1       901 7.34805E+02 8.54530E+02-4.14166E+02 1.30900E+03-5.52119E+02 3.05546E+02
 -1       902 3.67112E+02 6.99469E+02-4.12360E+02 1.14568E+03-3.19410E+01-1.68046E+02
 -1       903 2.83512E+02 6.86575E+02-4.10554E+02 9.59755E+02 7.21564E+01-4.85170E+01
 -1       904-4.87281E+02 4.38391E+02 1.15977E+02 5.38353E+02 1.52743E+02 3.08473E+02
 -1       905-1.45992E+03 4.60608E+02 6.42510E+02 2.45791E+02-8.56697E+01-3.31094E+02
 -1       906-1.88169E+03 2.20410E+02 3.21255E+02 2.74664E+02-8.58202E+01 4.98873E+01
 -1       907-1.83319E+03-4.77732E-04-1.33811E-03 1.59437E+02 1.48534E-03 3.07418E+02
 -1       908-2.50703E+02-1.03640E-04-1.78435E-04-6.28965E+00-1.17185E-04 2.33666E+01
 -1       909-2.15426E+02 4.76266E+01 9.64514E+01 3.15255E+01 1.18423E+01 1.24591E+01
 -1       910-1.96634E+02 1.35465E+02-2.73430E+00 5.20961E+01-4.34565E+01 5.50273E+01
 -1       911-3.60776E+02 4.75249E+02-2.75654E+01 1.15437E+02 2.17017E+02-5.84314E+01
 -1       912-7.72608E+02 2.38993E+03-3.64231E+02-5.10249E+00 1.79204E+02-6.81240E+01
 -1       913 1.75386E+03 4.59477E+03-1.64332E+03-1.87723E+03 5.40841E+01 6.74063E+02
 -1       914 1.00153E+03 3.76321E+02-6.52305E+02 1.00493E+03 4.93690E+02-6.54508E+02
 -1       915-3.24735E+02 8.59080E+02-2.21355E+02 1.02789E+03-9.92133E+01-3.25811E+02
 -1       916-1.47774E+03 3.83444E+02 6.70986E+02 6.02215E+01 6.17496E+01-1.91916E+02
 -1       917-2.08213E+03-7.40028E-04-1.24132E-03 6.38245E+01-1.42642E-03-2.19091E+02
 -1       918-2.33984E+02-1.35016E-04-1.33525E-04-1.97968E+00-3.83905E-05 2.22043E+01
 -1       919-2.19821E+02 1.42386E+01 4.21936E+01 2.89806E+01 2.54912E+00 6.28479E+00
 -1       920-1.99688E+02 3.42422E+01 8.43873E+01 5.89663E+01 1.14844E+01 3.34082E+01
 -1       921-1.74707E+02 9.66649E+01 4.54286E+01 9.30714E+01-5.94725E+00-1.65140E+01
 -1       922-1.32237E+02 1.53939E+02 6.46990E+00 1.03554E+02 8.53023E+01-4.16518E+01
 -1       923-8.94289E+01 9.03432E+01 2.72390E+00 2.03155E+02-1.03543E+02 6.72100E+01
 -1       924-1.73734E+02 6.52674E+01-1.02205E+00 4.36124E+02-2.78126E+01-1.18100E+02
 -1       925-7.51175E+02 1.41211E+03-2.22868E+02 9.74531E+02-1.76596E+02-2.83839E+02
 -1       926-5.49381E+02 1.57588E+03-3.00251E+02 5.84161E+02 4.05109E+02-2.75570E+01
 -1       927-1.23212E+02 1.56243E+02-6.05268E+01 1.01086E+02 3.58513E+01 1.38381E+02
 -1       928 8.87473E+00-8.61835E+01 5.62225E+01-2.50594E+01-1.13105E+01 5.36887E+01
 -1       929 1.49428E+01-5.70783E+01 3.35517E+01 1.16331E+01 1.36383E+01 1.85921E+01
 -1       930 2.19917E+01 1.48633E+01-5.38571E+00-1.66022E+01-3.20092E+00 2.39100E+01
 -1       931 2.48818E+01 2.93951E+01-3.95563E+01-1.76658E+01 8.07281E+00-1.52062E+01
 -1       932 2.20484E+00 6.23602E+01-6.74271E+01 8.57660E+00 4.40173E+00-2.96407E+01
 -1       933 6.22920E-01-1.19290E+02 9.19343E+01 3.71581E+01 3.24747E+01-8.00502E+01
 -1       934-5.48226E+01-2.02348E+02 3.25106E+02 1.46811E+02-3.52062E+01-1.42286E+02
 -1       935 4.44686E+02 3.19085E+02-5.44587E+02-4.52634E+02 4.90048E+01-1.46411E+02
 -1       936 2.14969E+03 3.04936E+03-1.54601E+03-2.83593E+03 1.06706E+03-8.12041E+02
 -1       937 3.78657E+03 2.10186E+03-1.59151E+03-2.57749E+03-5.51111E+02 1.25806E+02
 -1       938 2.15804E+03-4.15229E+02-8.90445E+02 6.14613E+02 4.51823E+01-1.06668E+02
 -1       939 4.45972E+02 1.85212E+02-4.61300E+02 1.31730E+03-3.86674E+02-4.34671E+02
 -1       940-1.07121E+03 1.27843E+03-3.21569E+01 7.80926E+02 5.97867E+01-2.63077E+02
 -1       941-1.40664E+03 7.45189E+02 3.33652E+02 1.14354E+02-1.57583E+01 2.71150E+01
 -1       942-1.51242E+03 3.37095E+02 6.99461E+02-1.41048E+02-5.09922E+01-2.16836E+02
 -1       943-1.95269E+03 1.22124E+02 3.49730E+02-6.86772E+01 6.95885E+01 3.74967E+01
 -1       944-2.20628E+03-1.24081E-03-1.29253E-03-1.24956E+01 7.32310E-04-2.07669E+02
 -1       945-2.00213E+02-8.51392E-05-1.17874E-04 8.05437E+00 1.68380E-04 3.50993E+01
 -1       946-1.49767E+02 4.47615E+01 6.37157E+01 1.08722E+02-1.16249E+01-3.73620E+00
 -1       947-1.50148E+02 9.17952E+01 7.63463E+00 9.88055E+01 3.33679E+00 1.14436E+01
 -1       948-6.71856E+01-6.99786E+01 2.59770E+01 1.32039E+02 6.91156E+00 3.05992E+01
 -1       949-5.00058E+01 3.38350E+02-1.60397E+02 7.29332E+01-1.03984E+02-2.26897E+01
 -1       950 2.87547E+01 1.97687E+01 2.20104E+01-3.26345E+01-3.25505E+01 2.88041E+01
 -1       951 1.07488E+01 5.77783E+00-1.65582E+00 5.80379E-01-1.90159E+00 1.51299E+01
 -1       952 3.28920E+01 1.54594E+01-4.70911E+01-1.28813E+01 8.36057E+00 2.39796E+00
 -1       953-6.14353E+01 3.93888E+01 1.52398E+02 3.53789E+01-6.75645E+01 3.82300E+01
 -1       954 2.24847E+02 6.58347E+02-5.92400E+02-4.38997E+02 3.66094E+01-2.09793E+01
 -1       955-1.05550E+03 1.05780E+03-5.01990E+01-3.10828E+02-4.03159E+01-4.57800E+02
 -1       956-1.66191E+03 4.71098E+02 7.27378E+02-4.42669E+02-7.76875E+01-1.22395E+02
 -1       957-1.91508E+03-1.12854E-03-1.34564E-03-3.44212E+01 6.08351E-04-3.70980E+02
 -1       958-1.38359E+02-3.88691E-04 4.39038E-05 1.88962E+01 1.45828E-04-3.02842E+01
 -1       959-1.11046E+02 1.80092E+01 2.15221E+01 8.55644E+01 5.03490E+01-1.71162E+01
 -1       960-1.08656E+02 8.78128E+01 4.30441E+01 1.49560E+02-1.50900E+01 4.03089E+01
 -1       961-1.74005E+02 1.00553E+02 2.59218E+01 1.40006E+02 1.30167E+01 1.81816E+00
 -1       962-1.90958E+02 1.00025E+02 8.79952E+00 1.07089E+02-6.97203E+01-2.39873E+01
 -1       963-9.24649E+01 6.19815E+01 3.08878E+01 6.15774E+01 4.17221E+01 2.88527E+01
 -1       964-4.09175E+01-4.86411E+01 5.29762E+01 5.43338E+01-7.71929E+01 4.11979E+01
 -1       965 1.71300E+01-3.39278E+01 7.09225E+01-3.29410E+01-3.12265E+00-1.69396E+00
 -1       966-6.90596E+00-6.05184E+01 3.82528E+01 2.36662E+01-4.99288E+01 9.65478E+00
 -1       967-1.37735E+01 5.55855E+01-2.84772E+01 2.18196E+01 1.69481E+01 4.32116E+00
 -1       968 8.88000E+00 1.87514E+01-1.71603E+01-7.37767E+00 1.35885E+00 6.71090E-01
 -1       969 1.42300E+01-4.37215E-01-7.80667E+00-1.36228E+00-4.53873E+00 1.27509E+01
 -1       970 1.61972E+01-8.61911E+00 8.07417E+00-5.65976E+00-8.48238E+00 1.19123E+01
 -1       971 1.20696E+01-9.25941E+00 1.88046E+01-1.18786E+01-8.24843E+00 2.04763E+01
 -1       972-9.29990E+00 3.90461E+01-4.84498E+01-1.87294E+01 8.92049E+00 4.57255E+00
 -1       973 9.05797E+01 1.24326E+02-1.46361E+02-1.12249E+02 6.10004E+01-4.92096E+01
 -1       974 2.64078E+01-1.00052E+02 1.57374E+02 9.67214E+00-6.89261E+01 4.95407E+01
 -1       975-1.52792E+02-7.29757E+01 3.29127E+02 1.50166E+02 1.21493E+02 3.09251E+01
 -1       976-8.23092E+02 6.29675E+02-6.82406E+01-4.86427E+02-2.78651E+02-3.42178E+02
 -1       977-1.44720E+03 4.88611E+02 3.43527E+02-4.37680E+02-2.19546E+02 2.84126E+02
 -1       978-1.73679E+03 3.64249E+02 7.55296E+02-8.63678E+02-2.36375E+01-2.46741E+02
 -1       979-1.50591E+03 9.11012E+01 3.77647E+02-5.55344E+02-1.53887E+01-1.82368E+01
 -1       980-1.44228E+03-2.13871E-05-7.25477E-04-8.21447E+01-5.02807E-04 6.87919E+01
 -1       981 4.64987E+01-5.03155E-04 4.56871E-05 7.11964E+00-1.65683E-04-3.67664E+01
 -1       982-1.55571E+02 1.86491E+02-2.46959E+01 2.16531E+02 2.52300E+01-5.34406E+01
 -1       983-1.34939E+02 9.70560E+01 5.65808E+01 1.09259E+02 2.94150E+01 9.85360E+01
 -1       984 1.60089E+01-1.69780E+01-4.81824E-01-2.97290E+01 1.15603E+01-2.20900E+00
 -1       985-5.59483E+00-1.42891E+01-5.56251E-01 1.66617E+01-1.74272E+00 1.24461E+00
 -1       986 5.43731E+00 2.56646E+00-4.51889E+00-6.16715E-01-1.26055E+01 1.49544E+01
 -1       987 1.10163E+01 7.93702E+00 6.72716E-02-1.16980E+01-1.31608E+01 1.24444E+01
 -1       988 2.81024E+01-1.77422E+01-4.35677E+01-2.87917E+01-9.30479E-01-4.95394E+00
 -1       989-9.03619E+01-1.06521E+01 7.89548E+01 5.47876E+01 7.70400E+01-2.60100E+01
 -1       990-8.32468E+02-1.72681E+02 5.27243E+02-1.00316E+03-3.30498E+02-2.21785E+02
 -1       991-8.97480E+02 3.37809E-04-9.75396E-04-5.95022E+01 1.39852E-03 5.68788E+01
 -1       992 2.80374E+02-2.92036E-04 7.07387E-04 1.00570E+01 1.60502E-04-2.60044E+02
 -1       993 1.08036E+02 1.06716E+02-4.62177E+01 2.68956E+02 2.99673E+01 3.48023E+01
 -1       994-1.79252E+02 2.87066E+02-9.24359E+01 4.13491E+02-4.05527E+01-9.73894E+00
 -1       995-2.91049E+02 1.24005E+02 5.96302E+00 7.73124E+01-2.17482E+01-1.46271E+01
 -1       996-1.72946E+02 4.94660E+01 1.04362E+02 2.85172E+01-2.48202E+01 2.52713E+00
 -1       997 6.06775E+00-2.44482E+01-2.07462E+01 1.59809E+01-1.62027E+01 6.22103E+00
 -1       998-5.88381E-01 2.23985E+00-1.74387E+01 4.69668E+00-1.78115E+01 5.07720E+00
 -1       999-2.48518E+00-1.10779E+01 1.64002E+01 5.83516E+00-2.25933E+01 1.48489E+00
 -1      1000-8.00119E-03-1.50444E+00 5.14309E+00 5.44253E+00-2.13871E+01 8.42249E+00
 -1      1001 2.33141E-01 1.38465E+00-1.70833E+00 7.99773E-01-1.81566E+01 1.15957E+01
 -1      1002 4.98664E+00 4.14591E+00-6.24651E+00-2.77497E+00-1.87332E+01 1.10130E+01
 -1      1003 3.75230E+00 5.26692E+00-8.72037E+00-3.60567E+00-1.94784E+01 1.39439E+01
 -1      1004 5.86268E+00 1.04877E+01 2.19459E+00-1.30333E+01-2.01219E+01 8.88274E+00
 -1      1005-7.13471E+00 6.37221E+00 2.34135E+01-1.09726E+01-2.93574E+01 7.43119E+00
 -1      1006 1.08808E+01 3.42742E+01-4.98166E+01-1.39569E+01-9.42623E+00-8.39018E+00
 -1      1007 4.74673E+01-1.19827E+01-6.53724E+01-7.27388E+00 1.18244E+01-1.06246E+01
 -1      1008-2.19737E+02-2.98850E+02 2.99190E+02-7.31526E+02-1.11163E+02-6.89463E+01
 -1      1009-3.48375E+02-1.08935E+02 1.49595E+02-3.63994E+02 1.15995E+01 4.09371E+01
 -1      1010-4.77014E+02 2.77668E-04-7.19019E-04-7.64895E+00-1.44392E-04-2.22041E+02
 -1      1011 6.14856E+02-6.30062E-04 6.74404E-04 4.63936E+01 1.25985E-03 7.74719E+01
 -1      1012 5.45927E+02 2.67804E+02-3.64544E+02 9.10038E+02-2.99504E+02-1.83264E+02
 -1      1013-1.92911E+01-1.76332E+01 2.76399E+01 2.65890E+01 2.07759E+01-5.60528E+00
 -1      1014 5.60588E+00-1.13253E+01-5.65718E+00 7.67145E+00-1.81489E+01 5.59934E+00
 -1      1015-2.92163E+00-3.38498E+00 4.34578E+00 4.42961E+00-1.61645E+01 1.26059E+01
 -1      1016 1.96458E+00 4.00147E+00-4.19425E+00-4.15331E+00-1.59744E+01 1.29050E+01
 -1      1017-5.35083E+00 1.23876E+01 5.33405E+00-6.03609E+00-1.88422E+01 5.94883E+00
 -1      1018 1.71699E+01 1.96251E+01-2.61348E+01-2.67010E+01 1.62864E+01-5.46122E+00
 -1      1019-2.13628E+01-2.72364E+02 1.34202E+02-4.25351E+02-3.36177E+01-1.10010E+02
 -1      1020-1.75875E+02 7.36431E-04-2.48273E-04-1.01410E+01-1.52792E-04-1.94013E+01
 -1      1021 1.07272E+03-2.04918E-04 5.96782E-04 5.70586E+01-7.59600E-04 8.10244E+01
 -1      1022 1.17613E+03-4.29590E+01-3.18325E+02 5.33787E+02-2.57976E+01-1.70394E+01
 -1      1023 1.45358E+03-1.87500E+02-6.36652E+02 9.04863E+02-4.70056E+01-1.56744E+02
 -1      1024 1.26931E+03-2.85202E+02-3.85485E+02 5.49066E+02-5.32714E+01 2.40237E+02
 -1      1025 7.36957E+02-2.89180E+02-1.34317E+02 5.49904E+02-2.12328E+02-2.23059E+02
 -1      1026-5.67185E+01 8.30709E+00 7.12964E+01 8.40387E-01 1.92388E+01-7.84767E+00
 -1      1027-1.33000E+01-3.24969E+01 5.11506E+01 1.40178E+01-8.96119E+00-9.41842E+00
 -1      1028 8.75965E+00-6.81151E+00-2.41652E+01 1.28266E+01-2.80653E+01 7.00316E+00
 -1      1029-7.19800E+00-9.84773E+00-2.19831E+00 1.32200E+01-1.97347E+01 9.01202E+00
 -1      1030-5.02307E+00-4.26600E+00 9.00564E+00 3.89554E+00-1.96765E+01 1.37208E+01
 -1      1031-5.86649E+00-3.43585E+00 6.41406E+00 3.09594E+00-1.89734E+01 1.08342E+01
 -1      1032-8.20335E-01-1.04214E+00 1.74352E+00-5.03755E-01-1.83097E+01 1.18407E+01
 -1      1033-3.16300E-01 2.03359E+00-5.24408E+00-5.00076E+00-2.16736E+01 8.78244E+00
 -1      1034 8.59223E-01 1.20396E+01-1.64625E+01-5.03316E+00-2.32672E+01 2.15637E+00
 -1      1035 9.11441E-01-2.70706E+00 1.74405E+01-4.56785E+00-1.88441E+01 4.75651E+00
 -1      1036-2.36916E+00 2.60977E+01 1.91892E+01-1.65973E+01-1.98991E+01 7.65827E+00
 -1      1037 9.29369E+01-3.59587E+00-3.68679E+01-3.60855E+01-1.73941E+01-1.64141E-01
 -1      1038 1.53496E+02-3.54214E+01-3.38268E+01-6.18020E+01 6.02335E+00-2.41465E+01
 -1      1039 1.39392E+02-1.24793E+02-3.07857E+01-1.53488E+02-4.93759E+01 4.35175E+01
 -1      1040 7.61869E+01-3.68064E+01-1.53930E+01-1.09084E+02 6.35154E+01-1.10237E+01
 -1      1041 5.03136E+01 4.46414E-04-3.18078E-04-2.15835E+01 4.10774E-04-9.86164E+01
 -1      1042 1.55943E+03 7.50603E-04 1.27166E-03 2.96542E+01 1.09921E-03-1.95268E+02
 -1      1043 1.49132E+03-3.10469E+02-6.87384E+02 6.23325E+02-5.86277E+01-7.54613E+01
 -1      1044 9.16437E+02-4.86228E+02-6.93887E+01 5.91731E+02-9.87388E+01-4.55495E+02
 -1      1045 1.01111E+02 7.31028E+00-8.69116E+01-4.85071E+01 7.90346E+01-2.85503E+01
 -1      1046-3.26992E+01 1.51737E+01 4.58434E+01 2.55826E+01-3.63132E+00-7.84002E+00
 -1      1047-1.19192E+01-6.78780E+00-3.81938E-01 1.21733E+01-1.30476E+01 1.28066E+01
 -1      1048-6.23963E+00-2.39237E+00 4.78090E+00 7.36547E-01-1.29151E+01 1.53738E+01
 -1      1049 5.92346E+00 1.51783E+01 5.38173E-01-1.73233E+01-1.12971E+00 1.21978E+00
 -1      1050-1.77396E+01 1.76706E+01 8.12666E-02 3.14740E+01 9.72480E+00-2.29406E+00
 -1      1051 8.95893E+01-1.30128E+01-2.82662E+01-8.98566E+01-8.22311E+00 6.22235E+01
 -1      1052 1.45350E+02-4.88337E+01-5.28821E+01-1.05214E+02-3.55755E+00 3.18328E+00
 -1      1053 1.33892E+02 1.02933E-04 9.78315E-05-1.09300E+01 2.02272E-04-5.53486E+00
 -1      1054 1.93393E+03 7.99129E-04 1.23812E-03 1.55851E+01-4.04269E-04-6.20139E+01
 -1      1055 1.80775E+03-5.50078E+01-3.69057E+02 2.32208E+02 3.99986E+01-1.09579E+01
 -1      1056 1.48992E+03-2.19518E+02-7.38116E+02 4.31262E+02 1.66547E-01-1.64686E+02
 -1      1057 1.30108E+03-4.68787E+02-3.71288E+02 4.06203E+02-9.45126E+00 3.22318E+01
 -1      1058 1.17972E+03-8.00461E+02-4.46125E+00 2.74954E+02-1.02677E+02-1.38703E+02
 -1      1059 7.00651E+02-7.43939E+02-3.81616E+01-1.70887E+02-3.00217E+02-8.78616E+01
 -1      1060 4.69921E+02-6.50424E+02-7.18594E+01-3.33257E+02-4.05163E+02-2.75668E+02
 -1      1061 1.74225E+02 6.76563E+01-3.38821E+02-1.49411E+02 1.29780E+02 3.26183E+01
 -1      1062-3.17319E+01 8.64671E+01-1.60234E+02-1.95863E+01-5.87022E+01 5.65366E+01
 -1      1063-1.05149E+02-1.11415E+02 1.49585E+02 1.13111E+02 5.50097E+01-5.59908E+01
 -1      1064 1.18067E+01-3.50310E+01 4.85121E+01 2.28483E+01 6.27680E+00 1.68948E+00
 -1      1065-1.18218E+01 7.80853E+00-1.93852E+01 1.07745E+01-8.54564E+00 2.17985E+01
 -1      1066-1.76377E+01 8.40512E+00-8.28845E+00 4.66081E+00-8.64493E+00 1.26411E+01
 -1      1067-1.55514E+01 1.92566E+00 8.17345E+00 1.13597E+00-4.96828E+00 1.35028E+01
 -1      1068-1.00472E+01-1.92294E+01 1.78736E+01 8.53361E+00 1.60640E+00 1.06375E-01
 -1      1069 1.68752E+01-5.88186E+01 2.90084E+01-2.15232E+01 1.81230E+01 3.30780E+00
 -1      1070 7.92405E+00 6.40887E+01-3.93355E+01-2.58727E+01-5.26461E+01 1.14264E+01
 -1      1071-2.22937E+01 3.58267E+01-7.29571E+01 3.29114E+01-5.83500E+00-1.15894E+00
 -1      1072 2.07108E+01 6.22023E+01-5.16782E+01-6.39680E+01-6.61031E+01 2.93054E+01
 -1      1073 4.83603E+01-2.36167E+01-3.56714E+01-7.42998E+01 5.04468E+01 3.28857E+01
 -1      1074 1.21805E+02-1.22607E+01-1.96645E+01-9.87861E+01-5.50495E+01-5.50032E+00
 -1      1075 1.41503E+02-2.59675E+01-4.73214E+01-9.94908E+01 1.08618E-01-1.55248E+01
 -1      1076 1.53622E+02-2.49009E+01-7.49784E+01-9.15947E+01 4.00956E+00 2.92203E+01
 -1      1077 1.84955E+02-9.19378E+00-3.74892E+01-4.88328E+01 9.27866E+00 2.31680E+00
 -1      1078 2.00969E+02 1.10261E-04 1.19744E-04-5.29458E+00-1.49592E-04 1.88425E+01
 -1      1079 2.13167E+03 5.58345E-04 1.36957E-03 1.87590E+01 6.36074E-07-2.91061E+02
 -1      1080 1.52465E+03-2.13678E+02-7.40310E+02 2.08553E+02 8.61129E+00-1.78777E+02
 -1      1081 8.58750E+02-7.40891E+02 1.36927E+00-9.95850E+01-2.27427E+01-1.57498E+02
 -1      1082 2.65419E+02-1.19768E+03 4.42953E+02-5.48391E+02 2.86875E+02-1.25112E+02
 -1      1083-2.63742E+02-5.78036E+02 5.88029E+02 4.46849E+02 8.14148E+01-3.26091E+01
 -1      1084 7.64217E+01-3.40957E+01-1.57693E+02-2.53622E+01-6.13653E+01 4.85836E+01
 -1      1085-3.54092E+01-1.32250E+01 4.79864E+01 1.34205E+01 7.57685E+00 2.55499E+00
 -1      1086-1.06289E+01-6.04842E+00 1.63352E+00-3.74487E-01-1.55273E+00 1.60847E+01
 -1      1087-3.24506E+01-2.07066E+01-2.23530E+01 3.51382E+01-3.42465E+01 3.17826E+01
 -1      1088 5.84426E+01-3.57708E+02 1.67934E+02-7.12840E+01-1.14191E+02-2.51049E+01
 -1      1089 2.77901E+01 1.02164E+02-1.71465E+01-1.18188E+02 9.45182E+00 1.88315E+01
 -1      1090 1.12033E+02-3.52159E+01-1.37948E+01-9.34833E+01 1.74646E+01 2.33902E+01
 -1      1091 1.79313E+02-2.15824E+01-8.98486E+01-7.27578E+01-3.86835E+00 7.12193E+00
 -1      1092 2.47457E+02 4.75173E-05 1.66219E-04-2.41608E+00 1.15434E-04 3.92800E+01
 -1      1093 2.22606E+03 6.11957E-04 1.24010E-03 1.39890E+01 9.32095E-04-2.60382E+02
 -1      1094 2.01240E+03-9.90833E+01-3.71252E+02-3.31307E+00 1.89274E+01 1.47189E+01
 -1      1095 1.49176E+03-2.47277E+02-7.42505E+02 3.66910E+00-6.75365E+01-2.49050E+02
 -1      1096 1.01422E+03-4.55859E+02-3.67652E+02-1.47690E+02-9.72832E+00 7.88721E+01
 -1      1097 5.64882E+02-7.05058E+02 7.19999E+00-4.23527E+02 1.17282E+02-1.40007E+02
 -1      1098 1.54476E+02-9.31853E+02 4.82482E+02-7.13848E+02-1.38492E+02-5.52242E+01
 -1      1099-9.75003E+02-1.03314E+03 9.57765E+02-9.30147E+02 5.09520E+01-1.04230E+02
 -1      1100-3.96818E+03-2.31155E+03 1.66286E+03 2.05911E+03-6.64996E+02-4.55401E+01
 -1      1101-2.47082E+03-2.73059E+03 1.59618E+03 2.73521E+03 9.43294E+02-9.23198E+02
 -1      1102-5.31677E+02-2.84911E+02 5.78551E+02 4.49482E+02 3.80894E+01-1.06788E+02
 -1      1103 6.26625E+01 1.84092E+02-3.36364E+02-1.48527E+02-3.37353E+01-1.37802E+02
 -1      1104 2.74613E+00 1.10147E+02-9.12298E+01-4.37597E+01 3.03025E+01-8.03106E+01
 -1      1105 7.80964E-01-5.39493E+01 6.66702E+01-2.01886E+00 7.34008E+00-2.42512E+01
 -1      1106-2.74619E+01-2.74852E+01 4.06114E+01 1.81636E+01 8.10264E+00-1.27783E+01
 -1      1107-2.40738E+01-1.82294E+01 6.81153E+00 1.73447E+01-4.49889E+00 2.60828E+01
 -1      1108-1.58827E+01 5.90233E+01-3.52681E+01-1.33475E+01 1.38968E+01 1.90908E+01
 -1      1109-1.05101E+01 9.15137E+01-5.82695E+01 2.49087E+01-1.15784E+01 5.57819E+01
 -1      1110 1.42909E+02-1.64897E+02 5.90520E+01-1.02153E+02 3.84442E+01 1.48683E+02
 -1      1111 6.31305E+02-1.64324E+03 3.11072E+02-5.38927E+02 4.15483E+02-5.89006E+01
 -1      1112 7.56083E+02-1.48025E+03 2.39109E+02-9.82981E+02-1.46946E+02-2.35008E+02
 -1      1113 7.24523E+01-9.12522E+00 1.73850E+01-4.51610E+02-4.72400E+01-1.55712E+02
 -1      1114 3.05586E+01-5.15091E+01 4.72996E+00-1.91430E+02-1.20160E+02 5.83208E+01
 -1      1115 1.09904E+02-1.26769E+02-7.92518E+00-9.28462E+01 8.17849E+01-3.29683E+01
 -1      1116 1.72522E+02-6.84756E+01-5.63219E+01-8.16383E+01-5.18308E+00-1.27390E+01
 -1      1117 2.14768E+02-1.97472E+01-1.04719E+02-4.66757E+01-2.88469E-01 3.57368E+01
 -1      1118 2.57284E+02-7.16625E+00-5.23593E+01-2.37066E+01-6.39271E-01 9.12167E-02
 -1      1119 2.78802E+02 1.11872E-04 1.70019E-04 5.97202E-01 1.93650E-05 2.40725E+01
 -1      1120 2.08230E+03 5.64013E-04 1.28357E-03-5.95033E+01-1.20128E-03-2.24886E+02
 -1      1121 1.46252E+03-3.10752E+02-6.93823E+02-1.52114E+02 5.08166E+01-2.38415E+02
 -1      1122 2.71099E+02-6.67700E+02 1.95021E+02-5.66346E+02-7.69222E+01-2.28389E+02
 -1      1123-7.42925E+02-1.05725E+03 7.59734E+02-1.18390E+03 2.90522E+02-6.61722E+02
 -1      1124-1.91195E+03-4.52177E+03 1.69179E+03 1.97036E+03 9.82567E+01 5.92632E+02
 -1      1125 6.69871E+02-2.41766E+03 4.12398E+02 1.66201E+02 2.50888E+02-1.00590E+02
 -1      1126 2.87873E+02-4.59206E+02 6.13038E+01-1.22367E+02 2.60991E+02-3.80120E+01
 -1      1127 1.68402E+02-1.16907E+02 3.42738E+00-4.00452E+01-5.04415E+01 6.21753E+01
 -1      1128 2.32561E+02-4.34212E+01-1.10555E+02-2.74082E+01 1.34082E+01 2.20772E+01
 -1      1129 2.88007E+02 8.95154E-05 2.04526E-04 5.23156E+00-1.01535E-04 2.59043E+01
 -1      1130 1.85344E+03 3.54452E-04 1.44905E-03-1.48409E+02 1.15380E-03 2.40577E+02
 -1      1131 1.85654E+03-1.89712E+02-3.22570E+02-2.60749E+02-1.09793E+02 7.35189E+01
 -1      1132 1.41186E+03-3.72402E+02-6.45141E+02-2.97035E+02-7.93529E+01-2.28506E+02
 -1      1133 5.99783E+02-4.31409E+02-1.31148E+02-4.67275E+02 1.00743E+02 2.07253E+02
 -1      1134-1.14075E+02-7.12328E+02 3.82843E+02-7.80346E+02 7.65141E+01-1.42513E+02
 -1      1135-3.83849E+02-9.07241E+02 4.72273E+02-1.10601E+03-4.37647E+01 1.24041E+01
 -1      1136-7.95213E+02-1.05037E+03 5.61704E+02-1.36679E+03-3.51643E+02 3.65163E+02
 -1      1137-7.43078E+02-1.08754E+03 7.88667E+02-1.27859E+03 7.18772E+02-2.92495E+02
 -1      1138-7.34924E+02-1.42146E+03 1.01563E+03-1.15824E+03 1.77289E+02-1.03354E+02
 -1      1139-1.01124E+03 2.29926E+00 5.48546E+02-7.30868E+02-6.33169E+01-2.59385E+02
 -1      1140-5.66854E+02 1.29920E+02 8.14608E+01-3.40844E+02 2.36255E+02 2.42652E+02
 -1      1141-2.85912E+02 6.31352E+01 6.25868E+01 1.78186E+02 5.97265E+01-4.37495E+01
 -1      1142-4.95396E+02 1.09313E+00 2.13275E+02 3.68065E+02-2.15697E+01 8.57494E+01
 -1      1143-2.99314E+02-5.64554E+02 3.63963E+02 8.50064E+02 2.14379E+02 8.42557E+01
 -1      1144 1.26042E+02-6.48671E+02 2.34593E+02 5.90026E+02 3.06203E+02-1.47940E+02
 -1      1145 2.87656E+02-6.36898E+02 1.05223E+02 2.63140E+02-1.62110E+02 1.73955E+01
 -1      1146 1.61218E+02-3.62195E+02 6.00015E+01 1.56727E+02-6.55776E+01 4.65616E+01
 -1      1147 1.17347E+02-1.29557E+02 1.47799E+01 4.93414E+01 2.82638E+01-5.67594E+01
 -1      1148 1.79706E+02-3.38727E+01-5.08057E+01-7.03082E+00 3.92812E+01 2.21552E+00
 -1      1149 2.42728E+02-6.94696E+01-1.16392E+02-1.43405E+01-4.40287E+01 1.94727E+01
 -1      1150 2.85472E+02-3.17701E+01-5.81957E+01 1.11490E+01-1.95806E+01-2.11142E+00
 -1      1151 2.84341E+02 9.71635E-07 1.84687E-04 1.63781E+01 2.35167E-04-2.53518E+01
 -1      1152-4.14594E+02-7.86911E+02 4.52609E+02-7.37941E+02-2.68345E+02-2.39741E+02
 -1      1153-7.42975E+02-5.46388E+02 4.92319E+02-1.16852E+03-1.48799E+01 3.40930E+01
 -1      1154-7.04966E+02-1.34197E+02 4.76390E+02-9.94309E+02-7.63230E+00 1.42483E+02
 -1      1155-4.77546E+02 9.32548E+01 1.28877E+01-3.81112E+02 1.07717E+02 3.04841E+02
 -1      1156-1.70672E+02 4.66530E+01 2.86368E+01 1.81131E+02 5.51790E+00-1.61598E+02
 -1      1157-2.37022E+02-4.55942E+01 1.74185E+02 5.35308E+02-5.36836E+01 5.96766E+01
 -1      1158 5.04688E+01-3.35733E+02 1.22991E+02 2.86248E+02-4.81130E+01 5.06764E+01
 -1      1159 3.34082E+01-2.79562E+02 5.74842E+01 1.03526E+02 1.51180E+01-3.89170E+01
 -1      1160-5.04348E+02-5.32863E+02 5.22374E+02-6.01059E+02 2.32938E+02-2.27023E+02
 -1      1161-7.46375E+02-4.92349E+02 4.72654E+02-7.94916E+02 2.64538E+02 2.77928E+02
 -1      1162-6.36774E+02-2.64361E+02 4.22933E+02-8.91154E+02 1.69413E+02-6.61901E+01
 -1      1163-5.75042E+02 1.93428E+02 1.80042E+02-7.97235E+02 2.58712E+02 8.49768E+01
 -1      1164-5.68020E+02 5.98719E+02-6.28495E+01-7.62258E+02 1.19713E+02-5.15914E+01
 -1      1165-4.38832E+02 6.85213E+02-5.92663E+01-5.96762E+02 3.39635E+02-5.07602E+01
 -1      1166-4.30747E+02 6.98562E+02-5.56835E+01-5.46467E+02 3.32289E+02 4.33603E+00
 -1      1167-1.62693E+02 1.92580E+02-5.31258E+00 2.16517E+02 1.20946E+02 5.57637E+01
 -1      1168-1.39332E+02 1.71059E+02-1.04525E+01 2.70054E+02 8.64209E+01-3.18902E+00
 -1      1169-1.03077E+02 1.27970E+02-1.55924E+01 3.49658E+02 8.31785E+01-5.82412E+01
 -1      1170-1.18262E+02-7.09743E+01 6.25829E+01 3.20965E+02 3.44558E+01 1.78445E+01
 -1      1171-1.28685E+02-1.87893E+02 1.40758E+02 2.80608E+02 1.14795E+02-1.47064E+00
 -1      1172-1.81736E+01-2.05539E+02 1.20474E+02 1.90711E+02 1.35714E+02-1.18796E+02
 -1      1173 5.70228E+01-2.57517E+02 1.00189E+02 1.12790E+02-4.80881E+01 1.37492E+02
 -1      1174-4.39543E+02 5.35055E+02-1.24968E+02-5.04141E+02-2.64160E+02-4.64129E+01
 -1      1175-4.50382E+02 1.14079E+03-3.96020E+02-3.48838E+02 3.36122E+01 1.45247E+01
 -1      1176-5.08421E+02 1.98530E+03-5.02268E+02-2.60737E+02 5.70084E+01-2.22558E+01
 -1      1177-1.57708E+02 5.48714E+02-1.37500E+02 1.46497E+02 6.30977E+01 1.12826E+01
 -1      1178-1.02942E+02 2.61996E+02-9.81083E+01 1.96743E+02 1.94321E+01-2.01959E+00
 -1      1179-1.36381E+02 4.92939E+01-1.50277E+00 2.00301E+02-9.92087E+01-1.59715E+01
 -1      1180-4.02954E+02 1.49378E+03-6.72871E+02-3.38918E+02 2.84742E+02 3.83442E+01
 -1      1181-3.39637E+02 1.50323E+03-7.01031E+02-1.80781E+02 2.34948E+02-4.11924E+01
 -1      1182-3.37015E+02 1.51918E+03-7.29191E+02-7.74183E+00 2.74832E+02 4.76418E+01
 -1      1183-5.03760E+02 1.91135E+03-8.39023E+02 2.22296E+02 1.61240E+02 4.19105E+00
 -1      1184-4.71188E+02 2.17736E+03-9.48854E+02 7.03015E+02 2.63072E+02 8.64631E+01
 -1      1185 6.13747E+01 1.07682E+03-6.79512E+02 1.10339E+03 2.77907E+02 4.04165E+02
 -1      1186 4.15309E+02 3.42187E+02-4.10169E+02 8.33278E+02 1.10767E+02 1.10653E+02
 -1      1187 4.77122E+02 1.74140E+02-3.04425E+02 3.29382E+02 2.35834E+02 1.96157E+01
 -1      1188 3.10735E+02 1.59448E+02-1.98681E+02-1.11759E+02-2.21301E+01 4.99457E+01
 -1      1189 6.48338E+01 3.30748E+02-2.34184E+02-2.53113E+02 8.63501E+01-1.12016E+02
 -1      1190-1.41130E+02 6.25559E+02-2.69688E+02-1.46319E+02 7.18951E+01-2.41027E+01
 -1      1191-1.49807E+02 5.24239E+02-2.25156E+02-2.62133E+00 5.64364E+01 1.26546E+00
 -1      1192-9.86918E+01 3.71601E+02-1.80624E+02 5.46654E+01 6.93853E+01-1.73210E+01
 -1      1193-8.43404E+01 3.50306E+02-1.62194E+02 1.00011E+02 6.68798E+01 4.14936E+00
 -1      1194-8.49573E+01 3.35653E+02-1.43765E+02 1.47043E+02 8.02299E+01 2.26984E+01
 -1      1195-2.02136E+02 1.92417E+03-3.36435E+02-3.12706E+02-6.41962E+01 9.25120E+01
 -1      1196-1.22786E+02 2.11750E+03-3.64595E+02-9.01026E+00-8.16331E+01-7.30501E+01
 -1      1197-1.45537E+02 1.86059E+03-4.74427E+02 5.12779E+02-2.67841E+01 4.23531E+01
 -1      1198 1.54674E+02 5.48065E+02-2.05084E+02 4.10586E+02-7.64101E+01 5.08209E+01
 -1      1199 9.44904E+01 2.29363E+02-9.93400E+01-3.20470E+01-1.14265E+01-9.29576E+01
 -1      1200-4.32912E+01 5.41286E+02-1.34844E+02-1.23596E+02-1.48690E+01-2.60419E+01
 -1      1201-3.64006E+01 5.54258E+02-9.03118E+01 3.11957E+01-2.59428E+01 2.42640E+01
 -1      1202-4.58153E+01 4.49940E+02-7.18821E+01 1.09175E+02-2.15514E+01-1.88133E+01
 -1      1203 4.11057E-04 1.86538E+03 1.39262E-03-1.62786E+02-3.19206E+02-1.57896E-03
 -1      1204 6.26284E-04 2.17363E+03 1.29690E-03-6.93021E+01 2.09464E+02 1.76844E-03
 -1      1205 1.20966E-03 2.39196E+03 1.56335E-03 8.35105E+00 2.39784E+02-8.61932E-04
 -1      1206 1.21732E-03 2.14802E+03 1.55219E-03 2.89327E+01 3.82104E+02-6.51582E-04
 -1      1207-3.33148E-05 1.77017E+03 7.60199E-04 7.60267E+01-1.14677E+02 3.64678E-05
 -1      1208-5.55980E-05 1.19227E+03 1.25709E-03 7.38944E+01 2.77224E+01-1.51665E-03
 -1      1209-1.65775E-04 7.53944E+02 1.18819E-03 7.93565E+00 3.33156E+02 2.73032E-04
 -1      1210-1.26893E-03 4.49934E+02 5.63184E-04 8.71819E+00 1.45449E+01 1.45814E-04
 -1      1211-5.54787E-04 2.99278E+02 7.38275E-04 1.87014E+01 2.01926E+02-5.64788E-04
 -1      1212-1.10928E-04 3.74828E+02 4.33240E-04-1.49550E+01 2.42801E+01 3.88036E-04
 -1      1213-1.30741E-04 5.15453E+02 2.88861E-04-1.95336E+01-3.77899E+01 1.05171E-04
 -1      1214 3.67699E-04 5.91960E+02 4.16537E-04-6.79075E+00 1.07572E+02 7.59495E-05
 -1      1215 3.19178E-04 6.35266E+02 4.02661E-04-3.08462E+00 7.18722E+01 3.10356E-04
 -1      1216 1.45691E-04 5.42621E+02 3.00058E-04 2.12599E+01 5.35094E+01-5.35938E-04
 -1      1217 1.43594E-04 4.28179E+02 3.62705E-04 4.57590E+01-9.68094E+01 3.52371E-04
 -1      1218-2.12243E+02 4.82431E+02 3.25210E+01 1.59349E+02 6.58388E+02-5.72655E+01
 -1      1219 1.95270E+00-4.72016E+01-1.51529E+01-1.36871E+01 1.79965E+01 6.11327E+01
 -1      1220 3.08248E+01 1.94053E+00-2.05967E+01-1.01493E+01 2.97056E+01 1.45403E+01
 -1      1221 3.90331E+01 2.12505E+01 2.65660E+01 1.39725E+00 7.19489E+01-6.04517E+01
 -1      1222 3.36237E+01-1.17193E+02 2.95021E+01 5.64528E+01 3.20409E+01-1.08759E+02
 -1      1223 5.32529E+02 8.52001E+02 1.70920E+02-8.16406E+02 1.71034E+03-1.37807E+03
 -1      1224 6.59673E+00 1.24292E+01 3.08975E+01-8.00255E+00-2.62970E+01-7.39311E+00
 -1      1225-5.78517E+00 3.81976E+01-2.72773E+01 2.19314E+01-4.70961E+01 1.44283E+01
 -1      1226 2.09520E+01 2.92584E+00-1.24046E+01-1.56831E+00-4.76540E+00 1.39440E+01
 -1      1227 2.82536E+01 1.29373E+00-8.21400E-01-2.69661E+01 5.64715E+00 1.94877E+00
 -1      1228 7.20623E+01 9.51131E+01-1.40269E+02-1.13174E+02-9.56469E+01 7.09737E+01
 -1      1229-9.21103E+01 4.21865E+01 5.14227E+01 5.36269E+01 7.31819E+01-2.16865E+01
 -1      1230 4.86361E+00-1.82472E+01 3.53084E+01 1.10183E+01 8.27297E+00-5.34903E+00
 -1      1231-2.38069E+00-1.16475E+01 1.32507E+01 1.21162E+01-1.59848E+01 6.64548E+00
 -1      1232 1.57346E+00 2.63957E+00-1.32102E+00 2.31077E+00-1.55917E+01 1.11734E+01
 -1      1233 1.02519E+01 1.26617E+01-7.14745E+00-1.10217E+01-1.41465E+01 8.74757E+00
 -1      1234 6.07975E-01 2.26689E+01 3.40742E+00-2.72678E+01-6.42028E+00-5.19356E+00
 -1      1235 1.42597E+01 2.94143E+01 4.61133E+01-6.81705E+00 6.10937E+01-5.44082E+01
 -1      1236-1.94727E+01-2.97881E+01-4.04494E+01 4.14094E+00 6.05935E+01-6.21655E+01
 -1      1237-6.56266E-01-2.21271E+01-3.90373E+00 2.94238E+01-7.31902E+00-7.20053E+00
 -1      1238-1.24897E+01-1.09299E+01 7.33518E+00 1.16066E+01-1.40508E+01 8.78653E+00
 -1      1239-2.89621E+00-1.78529E+00 1.50015E+00-1.75475E+00-1.58598E+01 1.15292E+01
 -1      1240 9.42853E-01 1.26990E+01-1.32720E+01-1.07965E+01-1.65966E+01 6.28447E+00
 -1      1241-2.92523E+00 1.92633E+01-3.76617E+01-1.09918E+01 5.52870E+00-7.42794E+00
 -1      1242 1.02882E+02-3.75015E+01-4.32274E+01-5.47397E+01 8.71192E+01-2.50690E+01
 -1      1243-8.26320E+01-8.58196E+01 1.41299E+02 1.14374E+02-8.74447E+01 7.97675E+01
 -1      1244-2.93735E+01-1.27344E+00 1.41447E+00 2.62428E+01 3.89565E+00 8.81047E-01
 -1      1245-2.26419E+01-1.66960E+00 1.28330E+01 1.34103E+00-4.27651E+00 1.46543E+01
 -1      1246 7.53677E+00-4.02083E+01 2.73329E+01-2.14472E+01-4.93004E+01 1.69383E+01
 -1      1247-9.16076E+00-1.30610E+01-3.26769E+01 7.73348E+00-2.98667E+01-7.73067E+00
 -1      1248-6.61891E+02-7.32493E+02-1.72785E+02 8.20703E+02 1.59072E+03-1.51916E+03
 -1      1249-3.79590E+01 1.08302E+02-3.87911E+01-5.52126E+01 2.79673E+01-9.79098E+01
 -1      1250-3.97912E+01-1.62669E+01-3.24040E+01 1.62343E+00 6.51437E+01-6.32380E+01
 -1      1251-3.26005E+01-3.54462E+00 2.32854E+01 1.04351E+01 3.17987E+01 1.59888E+01
 -1      1252-1.38769E+00 4.99637E+01 1.68518E+01 1.40105E+01 1.82516E+01 6.41721E+01
 -1      1253 2.41747E+02-5.11761E+02-3.23460E+01-1.58884E+02 6.88566E+02-8.81979E+01
 -1      1254-1.57412E+02 2.19197E+02 4.10536E+01 5.57959E+01 3.88788E+02-5.30410E+01
 -1      1255-9.32992E+01 3.64596E+01 5.42413E+01 2.55477E+01 3.08580E+01 4.49909E+01
 -1      1256-3.60879E+00-1.12891E+01-1.59269E+01-1.81188E-01 1.76295E+01 5.57941E+01
 -1      1257 3.21220E+01-1.07927E+01-8.57232E+00 8.26909E+00-1.36900E+01 2.26601E+01
 -1      1258 4.13227E+01-1.09434E+01-1.92626E+01-4.24006E+00 1.98805E+01 7.35788E+00
 -1      1259 4.97576E+01-1.35912E+01-6.40321E+00-7.03254E+00 1.39617E+01-1.34019E+01
 -1      1260 7.26049E+01-1.65077E+01 7.51832E+00-5.53222E+00 3.10162E+01-2.87990E+01
 -1      1261 6.91167E+01-3.61598E+01-4.47623E+01-1.80854E+01-1.73992E+01-4.67614E+01
 -1      1262 1.35659E+02-4.42970E+01-4.41737E+01-3.63657E+01 4.95177E+01-1.06342E+02
 -1      1263 1.45726E+02 3.40857E+01-5.26263E+01-1.69613E+02 7.15194E+01-1.73772E+02
 -1      1264 7.22644E+01 2.44389E+02 2.12638E+02-2.86164E+02 9.65851E+02-7.61033E+02
 -1      1265-2.90387E+01 1.74237E+02-8.75281E+01 4.18227E+01 1.99773E+01-6.72978E+00
 -1      1266 2.40416E+01 4.42043E+00-8.79151E+00 7.02648E+00 3.51479E+01 2.52403E+00
 -1      1267 3.88082E+01-3.17119E+00-1.23493E+01-1.77928E+00-1.93397E-02 9.93147E+00
 -1      1268 7.20192E+01-3.11524E+00-3.09001E+01-2.93452E+01-5.21874E+00 1.40811E+01
 -1      1269 9.43176E+01 7.59571E+00 2.42080E+00-8.14810E+01 6.75925E+01-4.74038E+01
 -1      1270 3.61992E+00 2.71180E+02-1.18305E+02-1.77266E+02 1.63209E+02-5.37441E+01
 -1      1271-5.45662E+00 6.29690E+01 1.14002E-01 1.54182E+01-2.08257E+01 2.98374E-01
 -1      1272-2.57053E+00 1.22189E+01 1.13936E+01 2.59400E+01 1.80076E+01-1.34260E+01
 -1      1273 1.58741E+00 1.98525E+01-1.75030E+01 2.12751E+01-2.69631E+01 5.26597E+00
 -1      1274 1.61429E+01 1.27406E+01-1.47990E+01 6.96047E+00-9.54132E+00 6.46531E+00
 -1      1275 2.71781E+01 6.48146E+00-1.48400E+01-1.18020E+00-4.09455E+00 1.21324E+01
 -1      1276 3.67123E+01 8.98335E+00-1.34493E+01-2.12478E+01 4.29240E+00 3.33714E+00
 -1      1277 4.55219E+01 1.31625E+01-1.67616E+01-4.35112E+01 6.39198E+00 1.19242E+00
 -1      1278 4.76296E+01 3.37356E+01-3.96260E+01-6.93282E+01-1.10683E+01 1.80841E+01
 -1      1279 4.96441E+01 6.17626E+01-9.03798E+01-1.10179E+02-6.10975E+01 4.92605E+01
 -1      1280 1.96225E+00 9.42827E+01 1.01309E+01-8.97901E+01 5.86098E+01-4.37518E+01
 -1      1281-4.26768E+01 1.72114E+02-3.73427E+01-4.36425E+01 7.56825E+01-4.17484E+01
 -1      1282-3.03747E+00-6.89942E+00-9.49120E+00-2.53187E+00-7.70750E+00 8.75834E+00
 -1      1283-1.27285E+00 2.24951E+00 4.40003E-01 2.03379E+01-1.48048E+01 5.77653E+00
 -1      1284 1.41447E+01 7.79386E+00-8.65731E+00-1.32889E+00-8.00331E+00 9.29000E+00
 -1      1285 2.93126E+01 1.94773E+01-1.92866E+01-2.76688E+01-8.08411E+00 9.97144E+00
 -1      1286 2.55968E+01 4.96306E+01-3.55101E+01-7.17878E+01-2.44527E+01 7.66846E+00
 -1      1287-3.60495E+01 6.38846E+01-4.96300E+01-1.19373E+01 3.21263E+01 7.03703E+00
 -1      1288 4.96047E+00-1.53005E+01 2.51148E+01 6.54991E+00 3.01907E+00-1.05779E+01
 -1      1289 1.91449E+00-1.25537E+01 7.35024E-01 1.32228E+01-1.70276E+01-1.94380E+00
 -1      1290-1.95289E+00-1.11975E+01 9.52614E+00 1.83274E+01-1.37301E+01 6.61310E+00
 -1      1291-1.20034E+00-3.45992E+00 1.87084E+00 1.27284E+01-1.41564E+01 5.28465E+00
 -1      1292 2.83981E+00 3.89461E+00-2.23248E+00 3.74781E+00-1.23413E+01 8.22047E+00
 -1      1293 1.02155E+01 1.09706E+01-7.83721E+00-7.20608E+00-1.36239E+01 7.22924E+00
 -1      1294 1.65719E+01 1.98719E+01-1.21384E+01-1.80545E+01-1.26244E+01 8.53163E+00
 -1      1295 1.50800E+01 2.86080E+01-1.71575E+01-2.97739E+01-1.45228E+01 5.92451E+00
 -1      1296 9.67232E+00 4.05089E+01-1.23028E+01-4.48221E+01-5.79222E+00-7.01148E+00
 -1      1297-4.11577E+00 6.73163E+01-2.95104E+01-2.97781E+01-2.19550E+01 5.52152E+00
 -1      1298-1.54393E+01 6.60877E+01 1.95998E+01-6.44024E+00 2.78442E+01-1.81617E+01
 -1      1299 9.43776E+00-3.44433E+01 4.34188E+00 1.03691E+01 1.95765E+01-9.32182E+00
 -1      1300-6.13815E+00-2.53833E+01 9.31949E+00 3.11692E+01-4.68908E+00-2.88060E+00
 -1      1301-7.83429E+00-7.05003E+00 5.51195E+00 1.14078E+01-1.06476E+01 9.14144E+00
 -1      1302 5.23259E+00 8.88994E+00-5.24237E+00-1.05244E+01-1.06221E+01 9.23318E+00
 -1      1303 4.71223E+00 2.69953E+01-9.36482E+00-2.89478E+01-4.39007E+00-2.16343E+00
 -1      1304-9.83041E+00 3.59126E+01-4.28076E+00-9.75461E+00 1.79713E+01-8.40109E+00
 -1      1305 1.41853E+01-6.34780E+01-1.73700E+01 7.44406E+00 2.84092E+01-2.30925E+01
 -1      1306 2.59873E+00-6.41184E+01 2.89790E+01 3.20203E+01-2.01887E+01 5.55992E+00
 -1      1307-1.14136E+01-3.88847E+01 1.22813E+01 4.73391E+01-6.05980E+00-8.19570E+00
 -1      1308-1.76765E+01-2.65922E+01 1.74599E+01 3.10065E+01-1.45674E+01 5.62985E+00
 -1      1309-1.97630E+01-1.74185E+01 1.24090E+01 1.89288E+01-1.25884E+01 8.53569E+00
 -1      1310-1.27681E+01-9.04963E+00 8.09807E+00 8.00408E+00-1.36750E+01 7.21825E+00
 -1      1311-4.91424E+00-2.51778E+00 2.49904E+00-2.93013E+00-1.25628E+01 8.50357E+00
 -1      1312-4.61107E-01 4.75563E+00-1.81285E+00-1.16097E+01-1.44084E+01 5.22787E+00
 -1      1313 7.10502E-01 1.23033E+01-9.55790E+00-1.64748E+01-1.41273E+01 6.62471E+00
 -1      1314-2.35765E+00 1.27587E+01-4.34791E-01-1.17338E+01-1.76676E+01-1.50682E+00
 -1      1315-4.74773E+00 1.57704E+01-2.64833E+01-5.86082E+00 6.46748E-01-1.19707E+01
 -1      1316 3.53790E+01-6.25677E+01 4.67164E+01 1.49595E+01 3.88216E+01 1.11745E+01
 -1      1317-2.97904E+01-4.65820E+01 3.66009E+01 7.30122E+01-2.30541E+01 7.85875E+00
 -1      1318-3.21552E+01-1.73951E+01 1.95135E+01 2.82684E+01-8.35168E+00 9.92535E+00
 -1      1319-1.62121E+01-6.60996E+00 9.07992E+00 1.77028E+00-7.92771E+00 9.63967E+00
 -1      1320 8.76588E-01-1.90850E+00-5.90435E-01-1.92936E+01-1.53200E+01 6.16926E+00
 -1      1321 3.18330E+00 7.21432E+00 9.82020E+00 3.57892E+00-1.02749E+01 9.66293E+00
 -1      1322 4.33416E+01-1.57084E+02 4.00367E+01 4.13597E+01 8.74986E+01-4.47198E+01
 -1      1323-4.95959E+00-9.32549E+01-7.68189E+00 8.77913E+01 5.33678E+01-5.38077E+01
 -1      1324-5.60777E+01-5.61795E+01 9.10282E+01 1.11693E+02-5.76058E+01 5.31596E+01
 -1      1325-5.16310E+01-3.00227E+01 3.91996E+01 7.05816E+01-1.08265E+01 1.96655E+01
 -1      1326-4.81308E+01-1.16641E+01 1.71892E+01 4.31378E+01 5.45042E+00 7.84041E-01
 -1      1327-3.93040E+01-7.76730E+00 1.39236E+01 2.08727E+01 3.76693E+00 2.98722E+00
 -1      1328-2.91942E+01-5.46039E+00 1.53537E+01 9.34563E-01-4.00324E+00 1.26331E+01
 -1      1329-1.71692E+01-1.26329E+01 1.53347E+01-6.57718E+00-9.75492E+00 7.02158E+00
 -1      1330-1.21766E+00-2.06149E+01 1.76281E+01-2.05976E+01-2.80072E+01 6.54711E+00
 -1      1331 2.79296E+00-1.22031E+01-1.20422E+01-2.61295E+01 1.89604E+01-1.57120E+01
 -1      1332 5.38359E+00-6.62519E+01-6.43055E-01-1.57574E+01-2.39280E+01-3.90981E-02
 -1      1333-1.57918E+01-2.23053E+02 9.31911E+01 1.75446E+02 1.68425E+02-6.17018E+01
 -1      1334-9.66690E+01-4.58357E+00-5.03255E+00 8.57864E+01 5.81986E+01-5.33719E+01
 -1      1335-7.66368E+01 4.69377E+00 3.20135E+01 2.85993E+01-5.21751E+00 1.57693E+01
 -1      1336-4.01195E+01 3.70241E+00 1.23911E+01 1.41346E+00-3.95135E-01 1.05292E+01
 -1      1337-2.45689E+01-4.69804E+00 9.68993E+00-5.95068E+00 3.74184E+01 1.64513E+00
 -1      1338 3.18442E+01-1.85716E+02 9.35405E+01-4.23172E+01 1.85700E+01-8.09621E+00
 -1      1339-1.40188E+02-1.78836E+02-2.14559E+02 2.87739E+02 8.91829E+02-8.47541E+02
 -1      1340-1.96841E+02-2.23263E+01 7.89872E+01 1.73880E+02 6.52897E+01-1.71403E+02
 -1      1341-1.52669E+02 4.43662E+01 4.19231E+01 3.98855E+01 4.64420E+01-9.71275E+01
 -1      1342-7.14641E+01 3.74720E+01 4.83346E+01 1.57674E+01-1.35085E+01-4.20259E+01
 -1      1343-7.67336E+01 1.81022E+01-9.70642E+00 5.12079E+00 2.65280E+01-2.98147E+01
 -1      1344-5.24565E+01 1.43305E+01 6.57557E+00 7.00657E+00 1.32570E+01-1.31233E+01
 -1      1345-4.29124E+01 1.10797E+01 2.10607E+01 4.05833E+00 2.13532E+01 8.66985E+00
 -1      1346-3.32408E+01 1.09486E+01 8.46096E+00-8.91830E+00-1.45018E+01 2.44022E+01
 -1      1347 6.49827E+00 1.15887E+01 1.65177E+01 8.23814E-01 1.79083E+01 5.84638E+01
 -1      1348 1.04697E+02-3.92547E+01-6.02366E+01-2.47303E+01 3.25635E+01 4.58371E+01
 -1      1349 1.73250E+02-2.34907E+02-4.09860E+01-5.56257E+01 4.07440E+02-7.20617E+01
 -1      1350-1.38096E+02 1.81678E+02 3.30527E+00 4.75425E+01 1.41457E+02-2.98014E+01
 -1      1351-5.06067E-01-7.63290E+00-6.94980E+00 8.10711E+00 8.91652E+00 3.60778E+01
 -1      1352 5.51120E+01-1.41213E+01-1.83809E+01-1.48282E+00 5.34636E+00 6.55082E+00
 -1      1353 9.24540E+01-2.39546E+01-3.02285E+01-1.87459E+01 4.97713E+00-5.96863E-01
 -1      1354 1.81534E+02-4.07427E+01-6.57803E+01-8.02107E+01 2.14082E+01-3.68876E+01
 -1      1355 3.89684E+01 1.85045E+02 1.74782E+01-2.44725E+02 3.27560E+02-2.48105E+02
 -1      1356-8.36514E+00 7.90468E+01-2.01346E+01 2.40877E+01-2.71100E+01-1.52729E+00
 -1      1357 4.30954E+00 2.12412E+01-1.01887E+01 2.73667E+01-3.35770E+00 4.09991E+00
 -1      1358 3.59849E+01 9.78210E+00-1.77992E+01-3.17588E+00-8.24535E-01 4.47486E+00
 -1      1359 6.24932E+01 1.92132E+01-2.94902E+01-5.54560E+01 4.84973E-01 2.85748E+00
 -1      1360 6.01828E+01 7.28015E+01-5.30463E+01-1.41790E+02 1.71862E+00-2.81843E+00
 -1      1361-4.26684E+01 2.25757E+02-7.44980E+01-8.73954E+01 1.11075E+01-1.65290E+01
 -1      1362 5.44287E+00-2.20777E+01 7.79384E+00 8.62597E+00-7.84287E+00-4.15878E+00
 -1      1363-3.25921E+00-1.38370E+01 7.69023E+00 2.52009E+01-6.04915E+00 9.52806E-01
 -1      1364 3.40637E+00 5.21995E+00-3.49650E+00 4.99652E+00-7.69209E+00 5.37678E+00
 -1      1365 2.11851E+01 2.55112E+01-1.89254E+01-2.41315E+01-7.26288E+00 4.54122E+00
 -1      1366 1.38489E+01 5.65767E+01-2.43107E+01-5.79159E+01-4.82252E+00-3.48700E-01
 -1      1367-2.22309E+01 8.31893E+01-2.69062E+01-1.82744E+01-5.36874E+00-1.66370E+00
 -1      1368 2.09667E+01-7.97927E+01 2.58796E+01 2.02861E+01-3.05276E+00-2.73612E+00
 -1      1369-1.64220E+01-5.41030E+01 2.47340E+01 6.10682E+01-4.86055E+00-7.74174E-01
 -1      1370-2.53160E+01-2.23360E+01 1.92986E+01 2.52924E+01-7.16397E+00 4.62305E+00
 -1      1371-6.18095E+00-3.36309E+00 3.84694E+00-3.92032E+00-7.87777E+00 5.60836E+00
 -1      1372 1.72553E+00 1.52384E+01-7.72729E+00-2.28304E+01-6.22102E+00 1.15259E+00
 -1      1373-5.34866E+00 2.23367E+01-8.21697E+00-7.38816E+00-9.62957E+00-4.35156E+00
 -1      1374 4.17813E+01-2.07671E+02 7.08203E+01 8.56634E+01 2.06279E+01-1.85293E+01
 -1      1375-6.72672E+01-6.66955E+01 5.34387E+01 1.43779E+02 1.54905E+00-3.20782E+00
 -1      1376-6.63364E+01-1.69867E+01 2.96985E+01 5.50797E+01 1.42600E-01 2.73197E+00
 -1      1377-3.85950E+01-8.54136E+00 1.84164E+01 2.92623E+00-9.23207E-01 4.66675E+00
 -1      1378-4.15680E+00-2.19081E+01 1.03868E+01-2.64984E+01-3.44355E+00 4.30003E+00
 -1      1379 8.59081E+00-8.31603E+01 2.09691E+01-2.42402E+01-2.97646E+01-1.87195E+00
 -1      1380-9.64782E+01-1.29316E+02-1.76748E+01 2.46400E+02 2.98673E+02-2.81536E+02
 -1      1381-2.02643E+02 4.23593E+01 7.05159E+01 8.40977E+01 1.95084E+01-2.83559E+01
 -1      1382-9.76301E+01 2.56841E+01 3.18514E+01 1.77812E+01 3.99769E+00 1.02414E+00
 -1      1383-5.68710E+01 1.44576E+01 1.92766E+01 1.06017E+00 5.61743E+00 7.76124E+00
 -1      1384 3.93884E+00 7.67103E+00 6.31546E+00-7.44430E+00 9.27926E+00 3.84877E+01
 -1      1385 1.51536E+02-1.95012E+02-3.29574E+00-4.74158E+01 1.48743E+02-3.71640E+01
 -1      1386-1.20628E+02 1.54141E+02 8.73671E-01 4.42753E+01 8.40922E+01-3.08982E+01
 -1      1387-7.46095E+01 3.10553E+01 2.82854E+01 3.51982E+01-1.36906E+01 1.01788E+01
 -1      1388 2.89484E+00-5.56239E+00-9.52903E+00 1.98782E+01 1.74550E+01 1.55907E+01
 -1      1389 5.27158E+01-9.59525E+00-1.52211E+01 1.24906E+01 4.45918E+00-1.70004E+00
 -1      1390 7.11193E+01-1.65085E+01-2.44702E+01 4.24574E-01 3.15127E+00 4.30951E+00
 -1      1391 9.70694E+01-2.42702E+01-2.66966E+01-1.44852E+01 4.19526E-01-3.19013E+00
 -1      1392 1.13453E+02-3.00514E+01-3.93975E+01-3.20340E+01-4.71075E+00 1.04207E+01
 -1      1393 1.43542E+02-3.98200E+01-3.77145E+01-5.38661E+01 1.61386E+01-2.91756E+01
 -1      1394 2.36707E+02-4.07106E+01-7.79170E+01-1.31193E+02 5.08466E+01-2.73138E+01
 -1      1395 1.57146E+02 2.56348E+01-6.89085E+01-2.12714E+02-2.81866E+01-4.64030E+01
 -1      1396 2.39614E+01 1.49337E+02 4.43533E+00-2.29040E+02 1.63458E+02-1.10299E+02
 -1      1397-2.62683E+01 1.56597E+02-6.32866E+01 4.81113E+01 7.42852E+00 4.16955E+00
 -1      1398 2.62703E+01 6.19225E+00-1.16840E+01 2.85310E+01 1.16992E+01-6.43589E+00
 -1      1399 6.47691E+01-2.64220E+00-2.38777E+01-3.27877E+00-1.04160E+00 5.82652E+00
 -1      1400 1.09959E+02-6.21212E+00-4.53421E+01-5.56969E+01-5.44770E+00 1.04337E+01
 -1      1401 1.65918E+02 1.74198E+01-5.94106E+01-1.69811E+02 2.25074E+01 6.69995E+00
 -1      1402-1.24736E+00 2.67310E+02-1.12119E+02-2.18695E+02 4.49201E+01 2.05598E+01
 -1      1403-1.08112E+01 9.87447E+01-2.23943E+01 3.16277E+01-6.82376E+00 7.02483E-01
 -1      1404-7.12519E-01 4.05775E+01-1.15719E+01 3.76399E+01 5.04423E+00-4.43483E+00
 -1      1405 6.63572E+00 2.24503E+01-1.29818E+01 3.35238E+01-4.49842E+00 7.53304E+00
 -1      1406 2.24611E+01 1.77868E+01-1.68754E+01 1.35050E+01-1.30364E+00 2.68429E+00
 -1      1407 4.41083E+01 1.35894E+01-2.23318E+01-5.14387E+00 2.36453E+00-1.94572E-01
 -1      1408 6.09535E+01 1.81412E+01-3.02585E+01-3.54133E+01 1.22513E+00-1.39059E+00
 -1      1409 7.91484E+01 2.63205E+01-3.72915E+01-6.78984E+01 1.27484E+00-2.92349E+00
 -1      1410 7.78736E+01 4.99543E+01-5.52116E+01-1.07299E+02 4.29430E+00-2.98341E+00
 -1      1411 6.92938E+01 8.23045E+01-6.75939E+01-1.73771E+02 5.71991E+00-1.03255E+01
 -1      1412 1.07212E+01 1.81154E+02-6.14210E+01-1.73290E+02-4.75646E-01-1.49376E+01
 -1      1413-4.49968E+01 2.90237E+02-8.72542E+01-1.36163E+02 1.91311E+01-4.27455E+01
 -1      1414-6.20127E+00 1.60966E+00 1.11606E+00 7.24708E+00 1.41199E+01 1.67626E+00
 -1      1415-6.42255E-01 8.23264E+00-3.87575E+00 2.80650E+01-2.08794E+00 3.25610E+00
 -1      1416 2.27220E+01 1.38663E+01-1.41129E+01-8.85516E-01 5.53233E-01 9.62766E-01
 -1      1417 4.94022E+01 3.52167E+01-3.04066E+01-4.58204E+01-1.15231E+00 4.12880E-01
 -1      1418 3.90322E+01 8.42219E+01-5.35377E+01-1.07830E+02 3.32206E-02-6.07827E+00
 -1      1419-4.31628E+01 1.41505E+02-3.65060E+01-4.87166E+01 3.42358E+01-1.55973E+01
 -1      1420 5.55060E+00-3.09340E+01 1.07685E+01 1.16457E+01-9.67388E+00-5.45732E+00
 -1      1421-1.16255E-01-2.54502E+01 7.46762E+00 2.51390E+01-1.08940E+01-9.88953E-01
 -1      1422-4.70230E+00-1.58119E+01 9.44587E+00 3.22226E+01 1.40735E+00-2.27774E+00
 -1      1423-1.78943E+00-4.52159E+00 3.34919E+00 1.95521E+01-1.21298E+00-1.14933E+00
 -1      1424 3.93323E+00 6.71168E+00-4.45520E+00 6.20267E+00-2.55666E+00 2.17862E+00
 -1      1425 1.60429E+01 1.77790E+01-1.35046E+01-1.18881E+01-2.57311E+00-4.00127E-01
 -1      1426 2.61259E+01 3.14889E+01-2.40754E+01-2.99946E+01-1.64026E+00 3.11837E-01
 -1      1427 2.78691E+01 4.90766E+01-2.71965E+01-4.82854E+01-5.56181E-01 1.87360E+00
 -1      1428 1.88919E+01 7.27881E+01-3.11789E+01-7.14463E+01 3.91939E+00 3.77539E-01
 -1      1429-9.04176E+00 9.92264E+01-4.14410E+01-5.73037E+01-1.53613E+01 5.16701E+00
 -1      1430-2.81250E+01 1.00073E+02-3.44157E+01-3.06723E+01-1.65583E+01 6.91086E+00
 -1      1431 1.67559E+01-6.70023E+01 1.82714E+01 2.07200E+01 4.45012E+00-2.90108E-01
 -1      1432-1.23235E+01-4.20934E+01 2.08423E+01 5.20689E+01 2.20556E+00-8.09531E-01
 -1      1433-1.27228E+01-1.11047E+01 9.49745E+00 1.87647E+01 5.93707E-01 1.67681E+00
 -1      1434 8.50125E+00 1.41945E+01-9.02597E+00-1.72650E+01 5.78487E-01 1.63797E+00
 -1      1435 9.78156E+00 4.46219E+01-2.08775E+01-4.86055E+01 2.32937E+00-5.45328E-01
 -1      1436-1.73198E+01 6.92851E+01-1.84485E+01-1.83771E+01 3.78632E+00-1.81035E-01
 -1      1437 2.66969E+01-9.62553E+01 3.33552E+01 3.36066E+01-1.42956E+01 6.55151E+00
 -1      1438 6.54331E+00-9.51195E+01 4.02934E+01 6.09486E+01-1.43566E+01 5.40149E+00
 -1      1439-2.23454E+01-6.93294E+01 3.14777E+01 7.52967E+01 3.52247E+00-1.71263E-01
 -1      1440-3.21393E+01-4.54421E+01 2.74768E+01 5.06330E+01-7.53091E-01 1.65507E+00
 -1      1441-3.11813E+01-2.76121E+01 2.45437E+01 3.14383E+01-1.40608E+00 5.52751E-01
 -1      1442-2.03198E+01-1.46582E+01 1.39266E+01 1.31490E+01-2.50842E+00-3.74181E-01
 -1      1443-7.43935E+00-4.34620E+00 4.89099E+00-4.87017E+00-2.72249E+00 2.39345E+00
 -1      1444-1.03246E+00 6.61026E+00-3.05461E+00-1.76155E+01-1.33547E+00-1.35614E+00
 -1      1445 2.90300E+00 1.74515E+01-9.40448E+00-2.93025E+01 1.22900E+00-2.32338E+00
 -1      1446-5.13697E-01 2.59710E+01-7.33364E+00-2.25331E+01-1.11186E+01-9.29844E-01
 -1      1447-5.48656E+00 3.10898E+01-1.12975E+01-9.78557E+00-1.07386E+01-5.41928E+00
 -1      1448 4.07601E+01-1.36961E+02 3.53475E+01 5.22238E+01 3.32645E+01-1.57383E+01
 -1      1449-4.48189E+01-7.82501E+01 5.34052E+01 1.11146E+02 1.43482E+00-5.57272E+00
 -1      1450-5.44400E+01-3.18389E+01 3.09772E+01 4.64897E+01-1.42217E+00 1.61908E-01
 -1      1451-2.60838E+01-1.18407E+01 1.46187E+01 1.50478E+00 7.59729E-01 1.09954E+00
 -1      1452-2.13198E-01-7.96362E+00 4.12872E+00-2.60048E+01-2.51203E+00 3.47982E+00
 -1      1453 6.63436E+00-1.90120E+00-1.13368E+00-5.67225E+00 1.44284E+01 1.81651E+00
 -1      1454 4.31182E+01-2.68564E+02 8.32129E+01 1.35867E+02 2.20232E+01-4.63295E+01
 -1      1455-1.45629E+01-1.73820E+02 6.04479E+01 1.74294E+02-3.27956E+00-1.80715E+01
 -1      1456-7.69154E+01-7.57625E+01 6.80800E+01 1.76245E+02 7.36145E+00-8.96736E+00
 -1      1457-8.53630E+01-4.48471E+01 5.62912E+01 1.07875E+02 4.94219E+00-1.65987E+00
 -1      1458-8.43608E+01-2.33269E+01 3.77854E+01 6.74760E+01 7.44708E-01-3.51951E+00
 -1      1459-6.51159E+01-1.59706E+01 3.10726E+01 3.49657E+01 1.00098E+00-1.62214E+00
 -1      1460-4.72542E+01-1.21537E+01 2.30218E+01 4.86873E+00 2.49003E+00-7.56650E-02
 -1      1461-2.38565E+01-1.73931E+01 1.72459E+01-1.32394E+01-1.46690E+00 2.99598E+00
 -1      1462-6.73190E+00-2.29871E+01 1.32247E+01-3.24565E+01-4.97398E+00 8.01966E+00
 -1      1463 7.88026E-01-4.20260E+01 1.19439E+01-3.69805E+01 5.64060E+00-5.22599E+00
 -1      1464 1.12185E+01-1.03888E+02 2.33578E+01-3.13916E+01-7.74947E+00-3.15876E-02
 -1      1465-9.46190E+00-2.24963E+02 9.56939E+01 2.18431E+02 4.59638E+01 2.34557E+01
 -1      1466-1.75914E+02-1.36409E+01 6.12414E+01 1.73225E+02 1.96753E+01 4.08463E+00
 -1      1467-1.16146E+02 8.85404E+00 4.73402E+01 5.47077E+01-5.29945E+00 1.17081E+01
 -1      1468-6.71127E+01 3.40917E+00 2.43949E+01 2.67606E+00-1.10001E+00 6.20057E+00
 -1      1469-2.57522E+01-6.35423E+00 1.17204E+01-2.76924E+01 1.24101E+01-6.90186E+00
 -1      1470 2.87633E+01-1.66804E+02 6.73217E+01-4.82975E+01 7.13184E+00 4.97361E+00
 -1      1471-7.32582E+01-1.01531E+02-4.48006E+00 2.31027E+02 1.43695E+02-1.32121E+02
 -1      1472-2.02987E+02-1.50880E+01 8.68202E+01 2.17206E+02-2.55066E+01-4.61811E+01
 -1      1473-2.62575E+02 4.33712E+01 8.32251E+01 1.34681E+02 4.78571E+01-2.51263E+01
 -1      1474-1.50402E+02 4.30155E+01 3.94204E+01 5.20865E+01 1.62234E+01-3.09181E+01
 -1      1475-1.19316E+02 3.20577E+01 4.11817E+01 3.06413E+01-5.13759E+00 1.26283E+01
 -1      1476-1.01513E+02 2.54021E+01 2.74453E+01 1.35108E+01 3.39534E-01-2.82978E+00
 -1      1477-7.31885E+01 1.69616E+01 2.55965E+01-1.12827E+00 3.20725E+00 5.09742E+00
 -1      1478-5.39173E+01 9.60601E+00 1.56489E+01-1.31191E+01 4.38337E+00-2.28954E+00
 -1      1479 1.26035E+00 5.46504E+00 8.85852E+00-1.93734E+01 1.81577E+01 1.64595E+01
 -1      1480 8.44219E+01-3.35002E+01-3.21909E+01-3.45580E+01-1.43341E+01 1.02985E+01
 -1      1481 1.32151E+02-1.65603E+02-8.68768E-01-4.41859E+01 8.89904E+01-3.58355E+01
 -3
    1PSTEP                         8           1           1          
    1PGM                1.000000E+00                                  
    1PGK                9.543967E+10                                  
    1PHID                         -1                                  
    1PSUBC                         0                                  
    1PMODE                         2                                  
  100CL  102 49168.23204        1481                     2    2MODAL      1
 -4  ERROR       1    1
 -5  STR(%)      1    1    0    0
 -1         1 2.14122E+01
 -1         2 2.14122E+01
 -1         3 2.14122E+01
 -1         4 1.66480E+01
 -1         5 1.18839E+01
 -1         6 1.23064E+01
 -1         7 1.27290E+01
 -1         8 1.28114E+01
 -1         9 1.28939E+01
 -1        10 1.28939E+01
 -1        11 1.28939E+01
 -1        12 2.19540E+01
 -1        13 2.19540E+01
 -1        14 1.44722E+01
 -1        15 1.48947E+01
 -1        16 1.33571E+01
 -1        17 1.32118E+01
 -1        18 2.24959E+01
 -1        19 2.24959E+01
 -1        20 2.24959E+01
 -1        21 1.97782E+01
 -1        22 1.70604E+01
 -1        23 1.70604E+01
 -1        24 1.70604E+01
 -1        25 1.54403E+01
 -1        26 1.38202E+01
 -1        27 1.36749E+01
 -1        28 1.35297E+01
 -1        29 2.24959E+01
 -1        30 2.24959E+01
 -1        31 1.90263E+01
 -1        32 1.90263E+01
 -1        33 1.58409E+01
 -1        34 1.35297E+01
 -1        35 2.24959E+01
 -1        36 2.24959E+01
 -1        37 2.24959E+01
 -1        38 2.17441E+01
 -1        39 2.09922E+01
 -1        40 2.09922E+01
 -1        41 2.09922E+01
 -1        42 1.94269E+01
 -1        43 1.78615E+01
 -1        44 1.56956E+01
 -1        45 1.35297E+01
 -1        46 1.80436E+01
 -1        47 2.00421E+01
 -1        48 2.09922E+01
 -1        49 2.09922E+01
 -1        50 1.99201E+01
 -1        51 1.77542E+01
 -1        52 1.35913E+01
 -1        53 1.55898E+01
 -1        54 1.75884E+01
 -1        55 1.92903E+01
 -1        56 2.09922E+01
 -1        57 2.09922E+01
 -1        58 2.09922E+01
 -1        59 2.14855E+01
 -1        60 2.19787E+01
 -1        61 2.19787E+01
 -1        62 2.19787E+01
 -1        63 1.35913E+01
 -1        64 1.56616E+01
 -1        65 1.89039E+01
 -1        66 1.89545E+01
 -1        67 2.19787E+01
 -1        68 2.19787E+01
 -1        69 1.35913E+01
 -1        70 1.36631E+01
 -1        71 1.37349E+01
 -1        72 1.52752E+01
 -1        73 1.68155E+01
 -1        74 1.68661E+01
 -1        75 1.69167E+01
 -1        76 1.94477E+01
 -1        77 2.19787E+01
 -1        78 2.19787E+01
 -1        79 2.19787E+01
 -1        80 1.31887E+01
 -1        81 1.33357E+01
 -1        82 1.48760E+01
 -1        83 1.43547E+01
 -1        84 2.19536E+01
 -1        85 2.19536E+01
 -1        86 1.27861E+01
 -1        87 1.28614E+01
 -1        88 1.29366E+01
 -1        89 1.29366E+01
 -1        90 1.29366E+01
 -1        91 1.23646E+01
 -1        92 1.17927E+01
 -1        93 1.68606E+01
 -1        94 2.19285E+01
 -1        95 2.19285E+01
 -1        96 2.19285E+01
 -1        97 2.19871E+01
 -1        98 2.19871E+01
 -1        99 1.53603E+01
 -1       100 1.71883E+01
 -1       101 1.76600E+01
 -1       102 1.76600E+01
 -1       103 2.29907E+01
 -1       104 2.29907E+01
 -1       105 1.82766E+01
 -1       106 2.03079E+01
 -1       107 1.86878E+01
 -1       108 1.79779E+01
 -1       109 2.29907E+01
 -1       110 2.29907E+01
 -1       111 2.09922E+01
 -1       112 2.22738E+01
 -1       113 2.07085E+01
 -1       114 1.78813E+01
 -1       115 1.79526E+01
 -1       116 2.05798E+01
 -1       117 2.22817E+01
 -1       118 2.09922E+01
 -1       119 2.23882E+01
 -1       120 2.23882E+01
 -1       121 1.79526E+01
 -1       122 1.86531E+01
 -1       123 2.01934E+01
 -1       124 1.82286E+01
 -1       125 2.23882E+01
 -1       126 2.23882E+01
 -1       127 1.75476E+01
 -1       128 1.76228E+01
 -1       129 1.74037E+01
 -1       130 1.55263E+01
 -1       131 2.22328E+01
 -1       132 2.22328E+01
 -1       133 2.25621E+01
 -1       134 2.25621E+01
 -1       135 2.25621E+01
 -1       136 2.06994E+01
 -1       137 1.88367E+01
 -1       138 2.02421E+01
 -1       139 2.16476E+01
 -1       140 2.20368E+01
 -1       141 2.24261E+01
 -1       142 2.24261E+01
 -1       143 2.24261E+01
 -1       144 2.30238E+01
 -1       145 2.30238E+01
 -1       146 1.91648E+01
 -1       147 2.26015E+01
 -1       148 2.29907E+01
 -1       149 2.24261E+01
 -1       150 2.34854E+01
 -1       151 2.34854E+01
 -1       152 2.34854E+01
 -1       153 2.14891E+01
 -1       154 1.94929E+01
 -1       155 2.15241E+01
 -1       156 2.35554E+01
 -1       157 2.35554E+01
 -1       158 2.35554E+01
 -1       159 2.29907E+01
 -1       160 2.24261E+01
 -1       161 2.34854E+01
 -1       162 2.34854E+01
 -1       163 2.02426E+01
 -1       164 2.35554E+01
 -1       165 2.35554E+01
 -1       166 2.23295E+01
 -1       167 2.34854E+01
 -1       168 2.34854E+01
 -1       169 2.34854E+01
 -1       170 2.22388E+01
 -1       171 2.09922E+01
 -1       172 2.22738E+01
 -1       173 2.35554E+01
 -1       174 2.35554E+01
 -1       175 2.35554E+01
 -1       176 2.28941E+01
 -1       177 2.22329E+01
 -1       178 2.28996E+01
 -1       179 2.35283E+01
 -1       180 2.22817E+01
 -1       181 2.22738E+01
 -1       182 2.31765E+01
 -1       183 2.25153E+01
 -1       184 2.23138E+01
 -1       185 2.29426E+01
 -1       186 2.35713E+01
 -1       187 2.35713E+01
 -1       188 2.35713E+01
 -1       189 2.22817E+01
 -1       190 2.09922E+01
 -1       191 2.18949E+01
 -1       192 2.27976E+01
 -1       193 2.27976E+01
 -1       194 2.27976E+01
 -1       195 2.23138E+01
 -1       196 2.35713E+01
 -1       197 2.35713E+01
 -1       198 2.02664E+01
 -1       199 2.27976E+01
 -1       200 2.27976E+01
 -1       201 2.23138E+01
 -1       202 2.29426E+01
 -1       203 2.35713E+01
 -1       204 2.35713E+01
 -1       205 2.35713E+01
 -1       206 2.15559E+01
 -1       207 1.95406E+01
 -1       208 2.11691E+01
 -1       209 2.27976E+01
 -1       210 2.27976E+01
 -1       211 2.27976E+01
 -1       212 2.23115E+01
 -1       213 2.29402E+01
 -1       214 2.27210E+01
 -1       215 1.94002E+01
 -1       216 2.26674E+01
 -1       217 2.26674E+01
 -1       218 2.23091E+01
 -1       219 2.23091E+01
 -1       220 2.23091E+01
 -1       221 2.20900E+01
 -1       222 2.18708E+01
 -1       223 2.05653E+01
 -1       224 1.92598E+01
 -1       225 2.08985E+01
 -1       226 2.25372E+01
 -1       227 2.25372E+01
 -1       228 2.25372E+01
 -1       229 2.25621E+01
 -1       230 2.40444E+01
 -1       231 2.21817E+01
 -1       232 2.25240E+01
 -1       233 2.29133E+01
 -1       234 2.35707E+01
 -1       235 2.45953E+01
 -1       236 2.45953E+01
 -1       237 2.32302E+01
 -1       238 2.52614E+01
 -1       239 2.47918E+01
 -1       240 2.42271E+01
 -1       241 2.45953E+01
 -1       242 2.45953E+01
 -1       243 2.39798E+01
 -1       244 2.52614E+01
 -1       245 2.47918E+01
 -1       246 2.41305E+01
 -1       247 2.38521E+01
 -1       248 2.44808E+01
 -1       249 2.50523E+01
 -1       250 2.37628E+01
 -1       251 2.43349E+01
 -1       252 2.43349E+01
 -1       253 2.38521E+01
 -1       254 2.44808E+01
 -1       255 2.50523E+01
 -1       256 2.30370E+01
 -1       257 2.43349E+01
 -1       258 2.43349E+01
 -1       259 2.35473E+01
 -1       260 2.35585E+01
 -1       261 2.33394E+01
 -1       262 2.24540E+01
 -1       263 2.40926E+01
 -1       264 2.25372E+01
 -1       265 3.14331E+01
 -1       266 3.14331E+01
 -1       267 3.14331E+01
 -1       268 3.13998E+01
 -1       269 3.13666E+01
 -1       270 3.07781E+01
 -1       271 3.01897E+01
 -1       272 3.05950E+01
 -1       273 3.10003E+01
 -1       274 3.11997E+01
 -1       275 3.13992E+01
 -1       276 3.13992E+01
 -1       277 3.13992E+01
 -1       278 3.13909E+01
 -1       279 3.13827E+01
 -1       280 3.14331E+01
 -1       281 3.14331E+01
 -1       282 3.13666E+01
 -1       283 3.01897E+01
 -1       284 3.10003E+01
 -1       285 3.13992E+01
 -1       286 3.13992E+01
 -1       287 3.13827E+01
 -1       288 3.14331E+01
 -1       289 3.14331E+01
 -1       290 3.14331E+01
 -1       291 3.13998E+01
 -1       292 3.13666E+01
 -1       293 3.07781E+01
 -1       294 3.01897E+01
 -1       295 3.05950E+01
 -1       296 3.10003E+01
 -1       297 3.11997E+01
 -1       298 3.13992E+01
 -1       299 3.13992E+01
 -1       300 3.13992E+01
 -1       301 3.13909E+01
 -1       302 3.13827E+01
 -1       303 2.68547E+01
 -1       304 2.68547E+01
 -1       305 2.90472E+01
 -1       306 2.84587E+01
 -1       307 2.62688E+01
 -1       308 2.64682E+01
 -1       309 2.64621E+01
 -1       310 2.75424E+01
 -1       311 2.11148E+01
 -1       312 2.16955E+01
 -1       313 2.22763E+01
 -1       314 2.22763E+01
 -1       315 2.22763E+01
 -1       316 2.45021E+01
 -1       317 2.67278E+01
 -1       318 2.67278E+01
 -1       319 2.67278E+01
 -1       320 2.15373E+01
 -1       321 2.15373E+01
 -1       322 2.15373E+01
 -1       323 2.15311E+01
 -1       324 2.15250E+01
 -1       325 2.26135E+01
 -1       326 2.37021E+01
 -1       327 2.37021E+01
 -1       328 2.37021E+01
 -1       329 2.11206E+01
 -1       330 2.22763E+01
 -1       331 2.22763E+01
 -1       332 2.13545E+01
 -1       333 2.31202E+01
 -1       334 2.42087E+01
 -1       335 2.37021E+01
 -1       336 3.13220E+01
 -1       337 3.13220E+01
 -1       338 3.13220E+01
 -1       339 2.62242E+01
 -1       340 2.11265E+01
 -1       341 2.17014E+01
 -1       342 2.22763E+01
 -1       343 2.22763E+01
 -1       344 2.22763E+01
 -1       345 2.11718E+01
 -1       346 2.29436E+01
 -1       347 2.47154E+01
 -1       348 2.47154E+01
 -1       349 2.47154E+01
 -1       350 2.42087E+01
 -1       351 2.37021E+01
 -1       352 2.75366E+01
 -1       353 3.13712E+01
 -1       354 3.13712E+01
 -1       355 3.13712E+01
 -1       356 3.13220E+01
 -1       357 3.13220E+01
 -1       358 2.12124E+01
 -1       359 2.18624E+01
 -1       360 2.24192E+01
 -1       361 2.47154E+01
 -1       362 2.47154E+01
 -1       363 2.26050E+01
 -1       364 3.13712E+01
 -1       365 3.13712E+01
 -1       366 3.13220E+01
 -1       367 3.13220E+01
 -1       368 3.13220E+01
 -1       369 2.63101E+01
 -1       370 2.12982E+01
 -1       371 2.13733E+01
 -1       372 2.14485E+01
 -1       373 2.20053E+01
 -1       374 2.25621E+01
 -1       375 2.40444E+01
 -1       376 2.55268E+01
 -1       377 2.55268E+01
 -1       378 2.55268E+01
 -1       379 2.44637E+01
 -1       380 2.34005E+01
 -1       381 2.34005E+01
 -1       382 2.34005E+01
 -1       383 2.40580E+01
 -1       384 2.47154E+01
 -1       385 2.47154E+01
 -1       386 2.47154E+01
 -1       387 2.31116E+01
 -1       388 2.15079E+01
 -1       389 2.64395E+01
 -1       390 3.13712E+01
 -1       391 3.13712E+01
 -1       392 3.13712E+01
 -1       393 3.10328E+01
 -1       394 3.10328E+01
 -1       395 2.12982E+01
 -1       396 2.13733E+01
 -1       397 2.41336E+01
 -1       398 2.56160E+01
 -1       399 2.62471E+01
 -1       400 2.51840E+01
 -1       401 2.47143E+01
 -1       402 2.53718E+01
 -1       403 2.15079E+01
 -1       404 3.11504E+01
 -1       405 3.11504E+01
 -1       406 3.07435E+01
 -1       407 3.07435E+01
 -1       408 3.07435E+01
 -1       409 2.60209E+01
 -1       410 2.12982E+01
 -1       411 2.12982E+01
 -1       412 2.12982E+01
 -1       413 2.57052E+01
 -1       414 2.57052E+01
 -1       415 2.57052E+01
 -1       416 2.63363E+01
 -1       417 2.69674E+01
 -1       418 2.69674E+01
 -1       419 2.69674E+01
 -1       420 2.64978E+01
 -1       421 2.60281E+01
 -1       422 2.60281E+01
 -1       423 2.60281E+01
 -1       424 2.15079E+01
 -1       425 2.62187E+01
 -1       426 3.09295E+01
 -1       427 3.09295E+01
 -1       428 3.09295E+01
 -1       429 2.94507E+01
 -1       430 2.94507E+01
 -1       431 2.11549E+01
 -1       432 2.57052E+01
 -1       433 2.57052E+01
 -1       434 2.69674E+01
 -1       435 2.69674E+01
 -1       436 2.60281E+01
 -1       437 2.60281E+01
 -1       438 3.00708E+01
 -1       439 3.00708E+01
 -1       440 2.81579E+01
 -1       441 2.81579E+01
 -1       442 2.81579E+01
 -1       443 2.45847E+01
 -1       444 2.10116E+01
 -1       445 2.57052E+01
 -1       446 2.57052E+01
 -1       447 2.57052E+01
 -1       448 2.63363E+01
 -1       449 2.69674E+01
 -1       450 2.69674E+01
 -1       451 2.69674E+01
 -1       452 2.64978E+01
 -1       453 2.60281E+01
 -1       454 2.60281E+01
 -1       455 2.60281E+01
 -1       456 2.92121E+01
 -1       457 2.92121E+01
 -1       458 2.92121E+01
 -1       459 2.95556E+01
 -1       460 2.95556E+01
 -1       461 2.55477E+01
 -1       462 2.55477E+01
 -1       463 2.67504E+01
 -1       464 2.67504E+01
 -1       465 2.59501E+01
 -1       466 2.59501E+01
 -1       467 2.99730E+01
 -1       468 2.99730E+01
 -1       469 3.09534E+01
 -1       470 3.09534E+01
 -1       471 3.09534E+01
 -1       472 2.62353E+01
 -1       473 2.15172E+01
 -1       474 2.53903E+01
 -1       475 2.53903E+01
 -1       476 2.53903E+01
 -1       477 2.59618E+01
 -1       478 2.65334E+01
 -1       479 2.65334E+01
 -1       480 2.65334E+01
 -1       481 2.62027E+01
 -1       482 2.58721E+01
 -1       483 2.58721E+01
 -1       484 2.58721E+01
 -1       485 2.10216E+01
 -1       486 2.58777E+01
 -1       487 3.07339E+01
 -1       488 3.07339E+01
 -1       489 3.07339E+01
 -1       490 3.11696E+01
 -1       491 3.11696E+01
 -1       492 2.15172E+01
 -1       493 2.53903E+01
 -1       494 2.53903E+01
 -1       495 2.65334E+01
 -1       496 2.65334E+01
 -1       497 2.58721E+01
 -1       498 2.58721E+01
 -1       499 2.12504E+01
 -1       500 3.10017E+01
 -1       501 3.10017E+01
 -1       502 3.13858E+01
 -1       503 3.13858E+01
 -1       504 3.13858E+01
 -1       505 2.64515E+01
 -1       506 2.15172E+01
 -1       507 2.11861E+01
 -1       508 2.08551E+01
 -1       509 2.53903E+01
 -1       510 2.53903E+01
 -1       511 2.53903E+01
 -1       512 2.59618E+01
 -1       513 2.65334E+01
 -1       514 2.65334E+01
 -1       515 2.65334E+01
 -1       516 2.62027E+01
 -1       517 2.58721E+01
 -1       518 2.58721E+01
 -1       519 2.58721E+01
 -1       520 2.14791E+01
 -1       521 2.14791E+01
 -1       522 2.14791E+01
 -1       523 2.63744E+01
 -1       524 3.12696E+01
 -1       525 3.12696E+01
 -1       526 3.12696E+01
 -1       527 3.13878E+01
 -1       528 3.13878E+01
 -1       529 2.14986E+01
 -1       530 2.28203E+01
 -1       531 2.50879E+01
 -1       532 2.50991E+01
 -1       533 2.56707E+01
 -1       534 2.60907E+01
 -1       535 2.57601E+01
 -1       536 2.42047E+01
 -1       537 2.18842E+01
 -1       538 2.18224E+01
 -1       539 3.13377E+01
 -1       540 3.13377E+01
 -1       541 3.13898E+01
 -1       542 3.13898E+01
 -1       543 3.13898E+01
 -1       544 2.64349E+01
 -1       545 2.14800E+01
 -1       546 2.31328E+01
 -1       547 2.47855E+01
 -1       548 2.47855E+01
 -1       549 2.47855E+01
 -1       550 2.47967E+01
 -1       551 2.48079E+01
 -1       552 2.48079E+01
 -1       553 2.48079E+01
 -1       554 2.52280E+01
 -1       555 2.56481E+01
 -1       556 2.56481E+01
 -1       557 2.56481E+01
 -1       558 2.40926E+01
 -1       559 2.25372E+01
 -1       560 2.24132E+01
 -1       561 2.22892E+01
 -1       562 2.22274E+01
 -1       563 2.21656E+01
 -1       564 2.67857E+01
 -1       565 3.14058E+01
 -1       566 3.14058E+01
 -1       567 3.14058E+01
 -1       568 3.13898E+01
 -1       569 3.13898E+01
 -1       570 2.24349E+01
 -1       571 2.47855E+01
 -1       572 2.47855E+01
 -1       573 2.24132E+01
 -1       574 2.23590E+01
 -1       575 2.22972E+01
 -1       576 3.14058E+01
 -1       577 3.14058E+01
 -1       578 3.13898E+01
 -1       579 3.13898E+01
 -1       580 3.13898E+01
 -1       581 2.73897E+01
 -1       582 2.33897E+01
 -1       583 2.40876E+01
 -1       584 2.47855E+01
 -1       585 2.47855E+01
 -1       586 2.47855E+01
 -1       587 2.31297E+01
 -1       588 2.14740E+01
 -1       589 2.11345E+01
 -1       590 2.17119E+01
 -1       591 2.22892E+01
 -1       592 2.23590E+01
 -1       593 2.24289E+01
 -1       594 2.24289E+01
 -1       595 2.24289E+01
 -1       596 2.69173E+01
 -1       597 3.14058E+01
 -1       598 3.14058E+01
 -1       599 3.14058E+01
 -1       600 2.33897E+01
 -1       601 2.40876E+01
 -1       602 2.34652E+01
 -1       603 2.18095E+01
 -1       604 2.13668E+01
 -1       605 2.19441E+01
 -1       606 2.24289E+01
 -1       607 2.24289E+01
 -1       608 2.33897E+01
 -1       609 2.33897E+01
 -1       610 2.33897E+01
 -1       611 2.27674E+01
 -1       612 2.21450E+01
 -1       613 2.21450E+01
 -1       614 2.21450E+01
 -1       615 2.15990E+01
 -1       616 2.15990E+01
 -1       617 2.15990E+01
 -1       618 2.20139E+01
 -1       619 2.24289E+01
 -1       620 2.24289E+01
 -1       621 2.24289E+01
 -1       622 2.74227E+01
 -1       623 2.68003E+01
 -1       624 2.66158E+01
 -1       625 2.63544E+01
 -1       626 2.65350E+01
 -1       627 2.69499E+01
 -1       628 3.14556E+01
 -1       629 3.14556E+01
 -1       630 3.14556E+01
 -1       631 3.12711E+01
 -1       632 3.10867E+01
 -1       633 3.04218E+01
 -1       634 2.97569E+01
 -1       635 2.99542E+01
 -1       636 3.01515E+01
 -1       637 3.06307E+01
 -1       638 3.11099E+01
 -1       639 3.12904E+01
 -1       640 3.14710E+01
 -1       641 3.14710E+01
 -1       642 3.14710E+01
 -1       643 3.14556E+01
 -1       644 3.14556E+01
 -1       645 3.10867E+01
 -1       646 2.97569E+01
 -1       647 3.01515E+01
 -1       648 3.11099E+01
 -1       649 3.14710E+01
 -1       650 3.14710E+01
 -1       651 3.14556E+01
 -1       652 3.14556E+01
 -1       653 3.14556E+01
 -1       654 3.12711E+01
 -1       655 3.10867E+01
 -1       656 3.04218E+01
 -1       657 2.97569E+01
 -1       658 2.99542E+01
 -1       659 3.01515E+01
 -1       660 3.06307E+01
 -1       661 3.11099E+01
 -1       662 3.12904E+01
 -1       663 3.14710E+01
 -1       664 3.14710E+01
 -1       665 3.14710E+01
 -1       666 3.14331E+01
 -1       667 3.14331E+01
 -1       668 3.13666E+01
 -1       669 3.01897E+01
 -1       670 3.10003E+01
 -1       671 3.13992E+01
 -1       672 3.13992E+01
 -1       673 3.13827E+01
 -1       674 3.14331E+01
 -1       675 3.14331E+01
 -1       676 3.13666E+01
 -1       677 3.01897E+01
 -1       678 3.10003E+01
 -1       679 3.13992E+01
 -1       680 3.13992E+01
 -1       681 3.13827E+01
 -1       682 2.11148E+01
 -1       683 2.22763E+01
 -1       684 2.22763E+01
 -1       685 2.67278E+01
 -1       686 2.67278E+01
 -1       687 2.15373E+01
 -1       688 2.15373E+01
 -1       689 2.15250E+01
 -1       690 2.37021E+01
 -1       691 2.37021E+01
 -1       692 3.13220E+01
 -1       693 3.13220E+01
 -1       694 2.11265E+01
 -1       695 2.22763E+01
 -1       696 2.22763E+01
 -1       697 2.11718E+01
 -1       698 2.47154E+01
 -1       699 2.47154E+01
 -1       700 2.37021E+01
 -1       701 3.13712E+01
 -1       702 3.13712E+01
 -1       703 3.13220E+01
 -1       704 3.13220E+01
 -1       705 2.12982E+01
 -1       706 2.14485E+01
 -1       707 2.25621E+01
 -1       708 2.55268E+01
 -1       709 2.55268E+01
 -1       710 2.34005E+01
 -1       711 2.34005E+01
 -1       712 2.47154E+01
 -1       713 2.47154E+01
 -1       714 2.15079E+01
 -1       715 3.13712E+01
 -1       716 3.13712E+01
 -1       717 3.07435E+01
 -1       718 3.07435E+01
 -1       719 2.12982E+01
 -1       720 2.12982E+01
 -1       721 2.57052E+01
 -1       722 2.57052E+01
 -1       723 2.69674E+01
 -1       724 2.69674E+01
 -1       725 2.60281E+01
 -1       726 2.60281E+01
 -1       727 2.15079E+01
 -1       728 3.09295E+01
 -1       729 3.09295E+01
 -1       730 2.81579E+01
 -1       731 2.81579E+01
 -1       732 2.10116E+01
 -1       733 2.57052E+01
 -1       734 2.57052E+01
 -1       735 2.69674E+01
 -1       736 2.69674E+01
 -1       737 2.60281E+01
 -1       738 2.60281E+01
 -1       739 2.92121E+01
 -1       740 2.92121E+01
 -1       741 3.09534E+01
 -1       742 3.09534E+01
 -1       743 2.15172E+01
 -1       744 2.53903E+01
 -1       745 2.53903E+01
 -1       746 2.65334E+01
 -1       747 2.65334E+01
 -1       748 2.58721E+01
 -1       749 2.58721E+01
 -1       750 2.10216E+01
 -1       751 3.07339E+01
 -1       752 3.07339E+01
 -1       753 3.13858E+01
 -1       754 3.13858E+01
 -1       755 2.15172E+01
 -1       756 2.08551E+01
 -1       757 2.53903E+01
 -1       758 2.53903E+01
 -1       759 2.65334E+01
 -1       760 2.65334E+01
 -1       761 2.58721E+01
 -1       762 2.58721E+01
 -1       763 2.14791E+01
 -1       764 2.14791E+01
 -1       765 3.12696E+01
 -1       766 3.12696E+01
 -1       767 3.13898E+01
 -1       768 3.13898E+01
 -1       769 2.14800E+01
 -1       770 2.47855E+01
 -1       771 2.47855E+01
 -1       772 2.48079E+01
 -1       773 2.48079E+01
 -1       774 2.56481E+01
 -1       775 2.56481E+01
 -1       776 2.25372E+01
 -1       777 2.22892E+01
 -1       778 2.21656E+01
 -1       779 3.14058E+01
 -1       780 3.14058E+01
 -1       781 3.13898E+01
 -1       782 3.13898E+01
 -1       783 2.33897E+01
 -1       784 2.47855E+01
 -1       785 2.47855E+01
 -1       786 2.14740E+01
 -1       787 2.11345E+01
 -1       788 2.22892E+01
 -1       789 2.24289E+01
 -1       790 2.24289E+01
 -1       791 3.14058E+01
 -1       792 3.14058E+01
 -1       793 2.33897E+01
 -1       794 2.33897E+01
 -1       795 2.21450E+01
 -1       796 2.21450E+01
 -1       797 2.15990E+01
 -1       798 2.15990E+01
 -1       799 2.24289E+01
 -1       800 2.24289E+01
 -1       801 3.14556E+01
 -1       802 3.14556E+01
 -1       803 3.10867E+01
 -1       804 2.97569E+01
 -1       805 3.01515E+01
 -1       806 3.11099E+01
 -1       807 3.14710E+01
 -1       808 3.14710E+01
 -1       809 3.14556E+01
 -1       810 3.14556E+01
 -1       811 3.10867E+01
 -1       812 2.97569E+01
 -1       813 3.01515E+01
 -1       814 3.11099E+01
 -1       815 3.14710E+01
 -1       816 3.14710E+01
 -1       817 3.14331E+01
 -1       818 3.14331E+01
 -1       819 3.14331E+01
 -1       820 3.13998E+01
 -1       821 3.13666E+01
 -1       822 3.07781E+01
 -1       823 3.01897E+01
 -1       824 3.05950E+01
 -1       825 3.10003E+01
 -1       826 3.11997E+01
 -1       827 3.13992E+01
 -1       828 3.13992E+01
 -1       829 3.13992E+01
 -1       830 3.13909E+01
 -1       831 3.13827E+01
 -1       832 3.14331E+01
 -1       833 3.14331E+01
 -1       834 3.13666E+01
 -1       835 3.01897E+01
 -1       836 3.10003E+01
 -1       837 3.13992E+01
 -1       838 3.13992E+01
 -1       839 3.13827E+01
 -1       840 3.14331E+01
 -1       841 3.14331E+01
 -1       842 3.14331E+01
 -1       843 3.13998E+01
 -1       844 3.13666E+01
 -1       845 3.07781E+01
 -1       846 3.01897E+01
 -1       847 3.05950E+01
 -1       848 3.10003E+01
 -1       849 3.11997E+01
 -1       850 3.13992E+01
 -1       851 3.13992E+01
 -1       852 3.13992E+01
 -1       853 3.13909E+01
 -1       854 3.13827E+01
 -1       855 2.68547E+01
 -1       856 2.68547E+01
 -1       857 2.90472E+01
 -1       858 2.84587E+01
 -1       859 2.62688E+01
 -1       860 2.64682E+01
 -1       861 2.64621E+01
 -1       862 2.75424E+01
 -1       863 2.11148E+01
 -1       864 2.16955E+01
 -1       865 2.22763E+01
 -1       866 2.22763E+01
 -1       867 2.22763E+01
 -1       868 2.45021E+01
 -1       869 2.67278E+01
 -1       870 2.67278E+01
 -1       871 2.67278E+01
 -1       872 2.15373E+01
 -1       873 2.15373E+01
 -1       874 2.15373E+01
 -1       875 2.15311E+01
 -1       876 2.15250E+01
 -1       877 2.26135E+01
 -1       878 2.37021E+01
 -1       879 2.37021E+01
 -1       880 2.37021E+01
 -1       881 2.11206E+01
 -1       882 2.22763E+01
 -1       883 2.22763E+01
 -1       884 2.13545E+01
 -1       885 2.31202E+01
 -1       886 2.42087E+01
 -1       887 2.37021E+01
 -1       888 3.13220E+01
 -1       889 3.13220E+01
 -1       890 3.13220E+01
 -1       891 2.62242E+01
 -1       892 2.11265E+01
 -1       893 2.17014E+01
 -1       894 2.22763E+01
 -1       895 2.22763E+01
 -1       896 2.22763E+01
 -1       897 2.11718E+01
 -1       898 2.29436E+01
 -1       899 2.47154E+01
 -1       900 2.47154E+01
 -1       901 2.47154E+01
 -1       902 2.42087E+01
 -1       903 2.37021E+01
 -1       904 2.75366E+01
 -1       905 3.13712E+01
 -1       906 3.13712E+01
 -1       907 3.13712E+01
 -1       908 3.13220E+01
 -1       909 3.13220E+01
 -1       910 2.12124E+01
 -1       911 2.18624E+01
 -1       912 2.24192E+01
 -1       913 2.47154E+01
 -1       914 2.47154E+01
 -1       915 2.26050E+01
 -1       916 3.13712E+01
 -1       917 3.13712E+01
 -1       918 3.13220E+01
 -1       919 3.13220E+01
 -1       920 3.13220E+01
 -1       921 2.63101E+01
 -1       922 2.12982E+01
 -1       923 2.13733E+01
 -1       924 2.14485E+01
 -1       925 2.20053E+01
 -1       926 2.25621E+01
 -1       927 2.40444E+01
 -1       928 2.55268E+01
 -1       929 2.55268E+01
 -1       930 2.55268E+01
 -1       931 2.44637E+01
 -1       932 2.34005E+01
 -1       933 2.34005E+01
 -1       934 2.34005E+01
 -1       935 2.40580E+01
 -1       936 2.47154E+01
 -1       937 2.47154E+01
 -1       938 2.47154E+01
 -1       939 2.31116E+01
 -1       940 2.15079E+01
 -1       941 2.64395E+01
 -1       942 3.13712E+01
 -1       943 3.13712E+01
 -1       944 3.13712E+01
 -1       945 3.10328E+01
 -1       946 3.10328E+01
 -1       947 2.12982E+01
 -1       948 2.13733E+01
 -1       949 2.41336E+01
 -1       950 2.56160E+01
 -1       951 2.62471E+01
 -1       952 2.51840E+01
 -1       953 2.47143E+01
 -1       954 2.53718E+01
 -1       955 2.15079E+01
 -1       956 3.11504E+01
 -1       957 3.11504E+01
 -1       958 3.07435E+01
 -1       959 3.07435E+01
 -1       960 3.07435E+01
 -1       961 2.60209E+01
 -1       962 2.12982E+01
 -1       963 2.12982E+01
 -1       964 2.12982E+01
 -1       965 2.57052E+01
 -1       966 2.57052E+01
 -1       967 2.57052E+01
 -1       968 2.63363E+01
 -1       969 2.69674E+01
 -1       970 2.69674E+01
 -1       971 2.69674E+01
 -1       972 2.64978E+01
 -1       973 2.60281E+01
 -1       974 2.60281E+01
 -1       975 2.60281E+01
 -1       976 2.15079E+01
 -1       977 2.62187E+01
 -1       978 3.09295E+01
 -1       979 3.09295E+01
 -1       980 3.09295E+01
 -1       981 2.94507E+01
 -1       982 2.94507E+01
 -1       983 2.11549E+01
 -1       984 2.57052E+01
 -1       985 2.57052E+01
 -1       986 2.69674E+01
 -1       987 2.69674E+01
 -1       988 2.60281E+01
 -1       989 2.60281E+01
 -1       990 3.00708E+01
 -1       991 3.00708E+01
 -1       992 2.81579E+01
 -1       993 2.81579E+01
 -1       994 2.81579E+01
 -1       995 2.45847E+01
 -1       996 2.10116E+01
 -1       997 2.57052E+01
 -1       998 2.57052E+01
 -1       999 2.57052E+01
 -1      1000 2.63363E+01
 -1      1001 2.69674E+01
 -1      1002 2.69674E+01
 -1      1003 2.69674E+01
 -1      1004 2.64978E+01
 -1      1005 2.60281E+01
 -1      1006 2.60281E+01
 -1      1007 2.60281E+01
 -1      1008 2.92121E+01
 -1      1009 2.92121E+01
 -1      1010 2.92121E+01
 -1      1011 2.95556E+01
 -1      1012 2.95556E+01
 -1      1013 2.55477E+01
 -1      1014 2.55477E+01
 -1      1015 2.67504E+01
 -1      1016 2.67504E+01
 -1      1017 2.59501E+01
 -1      1018 2.59501E+01
 -1      1019 2.99730E+01
 -1      1020 2.99730E+01
 -1      1021 3.09534E+01
 -1      1022 3.09534E+01
 -1      1023 3.09534E+01
 -1      1024 2.62353E+01
 -1      1025 2.15172E+01
 -1      1026 2.53903E+01
 -1      1027 2.53903E+01
 -1      1028 2.53903E+01
 -1      1029 2.59618E+01
 -1      1030 2.65334E+01
 -1      1031 2.65334E+01
 -1      1032 2.65334E+01
 -1      1033 2.62027E+01
 -1      1034 2.58721E+01
 -1      1035 2.58721E+01
 -1      1036 2.58721E+01
 -1      1037 2.10216E+01
 -1      1038 2.58777E+01
 -1      1039 3.07339E+01
 -1      1040 3.07339E+01
 -1      1041 3.07339E+01
 -1      1042 3.11696E+01
 -1      1043 3.11696E+01
 -1      1044 2.15172E+01
 -1      1045 2.53903E+01
 -1      1046 2.53903E+01
 -1      1047 2.65334E+01
 -1      1048 2.65334E+01
 -1      1049 2.58721E+01
 -1      1050 2.58721E+01
 -1      1051 2.12504E+01
 -1      1052 3.10017E+01
 -1      1053 3.10017E+01
 -1      1054 3.13858E+01
 -1      1055 3.13858E+01
 -1      1056 3.13858E+01
 -1      1057 2.64515E+01
 -1      1058 2.15172E+01
 -1      1059 2.11861E+01
 -1      1060 2.08551E+01
 -1      1061 2.53903E+01
 -1      1062 2.53903E+01
 -1      1063 2.53903E+01
 -1      1064 2.59618E+01
 -1      1065 2.65334E+01
 -1      1066 2.65334E+01
 -1      1067 2.65334E+01
 -1      1068 2.62027E+01
 -1      1069 2.58721E+01
 -1      1070 2.58721E+01
 -1      1071 2.58721E+01
 -1      1072 2.14791E+01
 -1      1073 2.14791E+01
 -1      1074 2.14791E+01
 -1      1075 2.63744E+01
 -1      1076 3.12696E+01
 -1      1077 3.12696E+01
 -1      1078 3.12696E+01
 -1      1079 3.13878E+01
 -1      1080 3.13878E+01
 -1      1081 2.14986E+01
 -1      1082 2.28203E+01
 -1      1083 2.50879E+01
 -1      1084 2.50991E+01
 -1      1085 2.56707E+01
 -1      1086 2.60907E+01
 -1      1087 2.57601E+01
 -1      1088 2.42047E+01
 -1      1089 2.18842E+01
 -1      1090 2.18224E+01
 -1      1091 3.13377E+01
 -1      1092 3.13377E+01
 -1      1093 3.13898E+01
 -1      1094 3.13898E+01
 -1      1095 3.13898E+01
 -1      1096 2.64349E+01
 -1      1097 2.14800E+01
 -1      1098 2.31328E+01
 -1      1099 2.47855E+01
 -1      1100 2.47855E+01
 -1      1101 2.47855E+01
 -1      1102 2.47967E+01
 -1      1103 2.48079E+01
 -1      1104 2.48079E+01
 -1      1105 2.48079E+01
 -1      1106 2.52280E+01
 -1      1107 2.56481E+01
 -1      1108 2.56481E+01
 -1      1109 2.56481E+01
 -1      1110 2.40926E+01
 -1      1111 2.25372E+01
 -1      1112 2.24132E+01
 -1      1113 2.22892E+01
 -1      1114 2.22274E+01
 -1      1115 2.21656E+01
 -1      1116 2.67857E+01
 -1      1117 3.14058E+01
 -1      1118 3.14058E+01
 -1      1119 3.14058E+01
 -1      1120 3.13898E+01
 -1      1121 3.13898E+01
 -1      1122 2.24349E+01
 -1      1123 2.47855E+01
 -1      1124 2.47855E+01
 -1      1125 2.24132E+01
 -1      1126 2.23590E+01
 -1      1127 2.22972E+01
 -1      1128 3.14058E+01
 -1      1129 3.14058E+01
 -1      1130 3.13898E+01
 -1      1131 3.13898E+01
 -1      1132 3.13898E+01
 -1      1133 2.73897E+01
 -1      1134 2.33897E+01
 -1      1135 2.40876E+01
 -1      1136 2.47855E+01
 -1      1137 2.47855E+01
 -1      1138 2.47855E+01
 -1      1139 2.31297E+01
 -1      1140 2.14740E+01
 -1      1141 2.11345E+01
 -1      1142 2.17119E+01
 -1      1143 2.22892E+01
 -1      1144 2.23590E+01
 -1      1145 2.24289E+01
 -1      1146 2.24289E+01
 -1      1147 2.24289E+01
 -1      1148 2.69173E+01
 -1      1149 3.14058E+01
 -1      1150 3.14058E+01
 -1      1151 3.14058E+01
 -1      1152 2.33897E+01
 -1      1153 2.40876E+01
 -1      1154 2.34652E+01
 -1      1155 2.18095E+01
 -1      1156 2.13668E+01
 -1      1157 2.19441E+01
 -1      1158 2.24289E+01
 -1      1159 2.24289E+01
 -1      1160 2.33897E+01
 -1      1161 2.33897E+01
 -1      1162 2.33897E+01
 -1      1163 2.27674E+01
 -1      1164 2.21450E+01
 -1      1165 2.21450E+01
 -1      1166 2.21450E+01
 -1      1167 2.15990E+01
 -1      1168 2.15990E+01
 -1      1169 2.15990E+01
 -1      1170 2.20139E+01
 -1      1171 2.24289E+01
 -1      1172 2.24289E+01
 -1      1173 2.24289E+01
 -1      1174 2.74227E+01
 -1      1175 2.68003E+01
 -1      1176 2.66158E+01
 -1      1177 2.63544E+01
 -1      1178 2.65350E+01
 -1      1179 2.69499E+01
 -1      1180 3.14556E+01
 -1      1181 3.14556E+01
 -1      1182 3.14556E+01
 -1      1183 3.12711E+01
 -1      1184 3.10867E+01
 -1      1185 3.04218E+01
 -1      1186 2.97569E+01
 -1      1187 2.99542E+01
 -1      1188 3.01515E+01
 -1      1189 3.06307E+01
 -1      1190 3.11099E+01
 -1      1191 3.12904E+01
 -1      1192 3.14710E+01
 -1      1193 3.14710E+01
 -1      1194 3.14710E+01
 -1      1195 3.14556E+01
 -1      1196 3.14556E+01
 -1      1197 3.10867E+01
 -1      1198 2.97569E+01
 -1      1199 3.01515E+01
 -1      1200 3.11099E+01
 -1      1201 3.14710E+01
 -1      1202 3.14710E+01
 -1      1203 3.14556E+01
 -1      1204 3.14556E+01
 -1      1205 3.14556E+01
 -1      1206 3.12711E+01
 -1      1207 3.10867E+01
 -1      1208 3.04218E+01
 -1      1209 2.97569E+01
 -1      1210 2.99542E+01
 -1      1211 3.01515E+01
 -1      1212 3.06307E+01
 -1      1213 3.11099E+01
 -1      1214 3.12904E+01
 -1      1215 3.14710E+01
 -1      1216 3.14710E+01
 -1      1217 3.14710E+01
 -1      1218 2.25621E+01
 -1      1219 2.40444E+01
 -1      1220 2.21817E+01
 -1      1221 2.25240E+01
 -1      1222 2.29133E+01
 -1      1223 2.35707E+01
 -1      1224 2.45953E+01
 -1      1225 2.45953E+01
 -1      1226 2.32302E+01
 -1      1227 2.52614E+01
 -1      1228 2.47918E+01
 -1      1229 2.42271E+01
 -1      1230 2.45953E+01
 -1      1231 2.45953E+01
 -1      1232 2.39798E+01
 -1      1233 2.52614E+01
 -1      1234 2.47918E+01
 -1      1235 2.41305E+01
 -1      1236 2.38521E+01
 -1      1237 2.44808E+01
 -1      1238 2.50523E+01
 -1      1239 2.37628E+01
 -1      1240 2.43349E+01
 -1      1241 2.43349E+01
 -1      1242 2.38521E+01
 -1      1243 2.44808E+01
 -1      1244 2.50523E+01
 -1      1245 2.30370E+01
 -1      1246 2.43349E+01
 -1      1247 2.43349E+01
 -1      1248 2.35473E+01
 -1      1249 2.35585E+01
 -1      1250 2.33394E+01
 -1      1251 2.24540E+01
 -1      1252 2.40926E+01
 -1      1253 2.25372E+01
 -1      1254 2.25621E+01
 -1      1255 2.25621E+01
 -1      1256 2.25621E+01
 -1      1257 2.06994E+01
 -1      1258 1.88367E+01
 -1      1259 2.02421E+01
 -1      1260 2.16476E+01
 -1      1261 2.20368E+01
 -1      1262 2.24261E+01
 -1      1263 2.24261E+01
 -1      1264 2.24261E+01
 -1      1265 2.30238E+01
 -1      1266 2.30238E+01
 -1      1267 1.91648E+01
 -1      1268 2.26015E+01
 -1      1269 2.29907E+01
 -1      1270 2.24261E+01
 -1      1271 2.34854E+01
 -1      1272 2.34854E+01
 -1      1273 2.34854E+01
 -1      1274 2.14891E+01
 -1      1275 1.94929E+01
 -1      1276 2.15241E+01
 -1      1277 2.35554E+01
 -1      1278 2.35554E+01
 -1      1279 2.35554E+01
 -1      1280 2.29907E+01
 -1      1281 2.24261E+01
 -1      1282 2.34854E+01
 -1      1283 2.34854E+01
 -1      1284 2.02426E+01
 -1      1285 2.35554E+01
 -1      1286 2.35554E+01
 -1      1287 2.23295E+01
 -1      1288 2.34854E+01
 -1      1289 2.34854E+01
 -1      1290 2.34854E+01
 -1      1291 2.22388E+01
 -1      1292 2.09922E+01
 -1      1293 2.22738E+01
 -1      1294 2.35554E+01
 -1      1295 2.35554E+01
 -1      1296 2.35554E+01
 -1      1297 2.28941E+01
 -1      1298 2.22329E+01
 -1      1299 2.28996E+01
 -1      1300 2.35283E+01
 -1      1301 2.22817E+01
 -1      1302 2.22738E+01
 -1      1303 2.31765E+01
 -1      1304 2.25153E+01
 -1      1305 2.23138E+01
 -1      1306 2.29426E+01
 -1      1307 2.35713E+01
 -1      1308 2.35713E+01
 -1      1309 2.35713E+01
 -1      1310 2.22817E+01
 -1      1311 2.09922E+01
 -1      1312 2.18949E+01
 -1      1313 2.27976E+01
 -1      1314 2.27976E+01
 -1      1315 2.27976E+01
 -1      1316 2.23138E+01
 -1      1317 2.35713E+01
 -1      1318 2.35713E+01
 -1      1319 2.02664E+01
 -1      1320 2.27976E+01
 -1      1321 2.27976E+01
 -1      1322 2.23138E+01
 -1      1323 2.29426E+01
 -1      1324 2.35713E+01
 -1      1325 2.35713E+01
 -1      1326 2.35713E+01
 -1      1327 2.15559E+01
 -1      1328 1.95406E+01
 -1      1329 2.11691E+01
 -1      1330 2.27976E+01
 -1      1331 2.27976E+01
 -1      1332 2.27976E+01
 -1      1333 2.23115E+01
 -1      1334 2.29402E+01
 -1      1335 2.27210E+01
 -1      1336 1.94002E+01
 -1      1337 2.26674E+01
 -1      1338 2.26674E+01
 -1      1339 2.23091E+01
 -1      1340 2.23091E+01
 -1      1341 2.23091E+01
 -1      1342 2.20900E+01
 -1      1343 2.18708E+01
 -1      1344 2.05653E+01
 -1      1345 1.92598E+01
 -1      1346 2.08985E+01
 -1      1347 2.25372E+01
 -1      1348 2.25372E+01
 -1      1349 2.25372E+01
 -1      1350 2.19871E+01
 -1      1351 2.19871E+01
 -1      1352 1.53603E+01
 -1      1353 1.71883E+01
 -1      1354 1.76600E+01
 -1      1355 1.76600E+01
 -1      1356 2.29907E+01
 -1      1357 2.29907E+01
 -1      1358 1.82766E+01
 -1      1359 2.03079E+01
 -1      1360 1.86878E+01
 -1      1361 1.79779E+01
 -1      1362 2.29907E+01
 -1      1363 2.29907E+01
 -1      1364 2.09922E+01
 -1      1365 2.22738E+01
 -1      1366 2.07085E+01
 -1      1367 1.78813E+01
 -1      1368 1.79526E+01
 -1      1369 2.05798E+01
 -1      1370 2.22817E+01
 -1      1371 2.09922E+01
 -1      1372 2.23882E+01
 -1      1373 2.23882E+01
 -1      1374 1.79526E+01
 -1      1375 1.86531E+01
 -1      1376 2.01934E+01
 -1      1377 1.82286E+01
 -1      1378 2.23882E+01
 -1      1379 2.23882E+01
 -1      1380 1.75476E+01
 -1      1381 1.76228E+01
 -1      1382 1.74037E+01
 -1      1383 1.55263E+01
 -1      1384 2.22328E+01
 -1      1385 2.22328E+01
 -1      1386 2.14122E+01
 -1      1387 2.14122E+01
 -1      1388 2.14122E+01
 -1      1389 1.66480E+01
 -1      1390 1.18839E+01
 -1      1391 1.23064E+01
 -1      1392 1.27290E+01
 -1      1393 1.28114E+01
 -1      1394 1.28939E+01
 -1      1395 1.28939E+01
 -1      1396 1.28939E+01
 -1      1397 2.19540E+01
 -1      1398 2.19540E+01
 -1      1399 1.44722E+01
 -1      1400 1.48947E+01
 -1      1401 1.33571E+01
 -1      1402 1.32118E+01
 -1      1403 2.24959E+01
 -1      1404 2.24959E+01
 -1      1405 2.24959E+01
 -1      1406 1.97782E+01
 -1      1407 1.70604E+01
 -1      1408 1.70604E+01
 -1      1409 1.70604E+01
 -1      1410 1.54403E+01
 -1      1411 1.38202E+01
 -1      1412 1.36749E+01
 -1      1413 1.35297E+01
 -1      1414 2.24959E+01
 -1      1415 2.24959E+01
 -1      1416 1.90263E+01
 -1      1417 1.90263E+01
 -1      1418 1.58409E+01
 -1      1419 1.35297E+01
 -1      1420 2.24959E+01
 -1      1421 2.24959E+01
 -1      1422 2.24959E+01
 -1      1423 2.17441E+01
 -1      1424 2.09922E+01
 -1      1425 2.09922E+01
 -1      1426 2.09922E+01
 -1      1427 1.94269E+01
 -1      1428 1.78615E+01
 -1      1429 1.56956E+01
 -1      1430 1.35297E+01
 -1      1431 1.80436E+01
 -1      1432 2.00421E+01
 -1      1433 2.09922E+01
 -1      1434 2.09922E+01
 -1      1435 1.99201E+01
 -1      1436 1.77542E+01
 -1      1437 1.35913E+01
 -1      1438 1.55898E+01
 -1      1439 1.75884E+01
 -1      1440 1.92903E+01
 -1      1441 2.09922E+01
 -1      1442 2.09922E+01
 -1      1443 2.09922E+01
 -1      1444 2.14855E+01
 -1      1445 2.19787E+01
 -1      1446 2.19787E+01
 -1      1447 2.19787E+01
 -1      1448 1.35913E+01
 -1      1449 1.56616E+01
 -1      1450 1.89039E+01
 -1      1451 1.89545E+01
 -1      1452 2.19787E+01
 -1      1453 2.19787E+01
 -1      1454 1.35913E+01
 -1      1455 1.36631E+01
 -1      1456 1.37349E+01
 -1      1457 1.52752E+01
 -1      1458 1.68155E+01
 -1      1459 1.68661E+01
 -1      1460 1.69167E+01
 -1      1461 1.94477E+01
 -1      1462 2.19787E+01
 -1      1463 2.19787E+01
 -1      1464 2.19787E+01
 -1      1465 1.31887E+01
 -1      1466 1.33357E+01
 -1      1467 1.48760E+01
 -1      1468 1.43547E+01
 -1      1469 2.19536E+01
 -1      1470 2.19536E+01
 -1      1471 1.27861E+01
 -1      1472 1.28614E+01
 -1      1473 1.29366E+01
 -1      1474 1.29366E+01
 -1      1475 1.29366E+01
 -1      1476 1.23646E+01
 -1      1477 1.17927E+01
 -1      1478 1.68606E+01
 -1      1479 2.19285E+01
 -1      1480 2.19285E+01
 -1      1481 2.19285E+01
 -3
    1PSTEP                         9           1           1          
    1PGM                1.000000E+00                                  
    1PGK                9.703723E+10                                  
    1PHID                         -1                                  
    1PSUBC                         0                                  
    1PMODE                         3                                  
  100CL  103 49578.03666        1481                     2    3MODAL      1
 -4  DISP        4    1
 -5  D1          1    2    1    0
 -5  D2          1    2    2    0
 -5  D3          1    2    3    0
 -5  ALL         1    2    0    0    1ALL
 -1         1-3.49743E+03-2.32706E+03 3.81814E+04
 -1         2-3.53867E+03-2.36696E+03 3.38139E+04
 -1         3-3.60442E+03-2.43517E+03 2.93994E+04
 -1         4-3.63912E+03-2.46518E+03 2.48961E+04
 -1         5-3.66301E+03-2.48360E+03 2.03485E+04
 -1         6-3.68215E+03-2.49397E+03 1.57632E+04
 -1         7-3.69275E+03-2.49987E+03 1.11543E+04
 -1         8-3.69707E+03-2.50314E+03 6.53646E+03
 -1         9-3.69387E+03-2.50802E+03 1.91640E+03
 -1        10-3.66312E+03-2.51431E+03-2.68646E+03
 -1        11-3.63247E+03-2.48660E+03-7.27288E+03
 -1        12-3.56760E+03-2.34748E+03 3.53171E+04
 -1        13-3.61384E+03-2.43170E+03 2.63620E+04
 -1        14-3.66805E+03-2.47975E+03 1.72459E+04
 -1        15-3.69557E+03-2.49906E+03 8.03148E+03
 -1        16-3.69402E+03-2.50902E+03-1.21959E+03
 -1        17-3.67944E+03-2.50640E+03-1.04346E+04
 -1        18-3.64059E+03-2.39518E+03 3.24135E+04
 -1        19-3.63805E+03-2.40606E+03 2.78694E+04
 -1        20-3.64751E+03-2.43981E+03 2.33141E+04
 -1        21-3.66531E+03-2.46299E+03 1.87429E+04
 -1        22-3.68232E+03-2.47994E+03 1.41486E+04
 -1        23-3.69413E+03-2.49169E+03 9.53329E+03
 -1        24-3.70160E+03-2.49941E+03 4.90620E+03
 -1        25-3.70269E+03-2.50435E+03 2.74983E+02
 -1        26-3.69982E+03-2.50810E+03-4.35396E+03
 -1        27-3.69769E+03-2.51389E+03-8.97721E+03
 -1        28-3.69766E+03-2.51722E+03-1.35980E+04
 -1        29-3.67104E+03-2.42922E+03 2.94255E+04
 -1        30-3.67123E+03-2.45568E+03 2.02545E+04
 -1        31-3.69423E+03-2.48588E+03 1.10424E+04
 -1        32-3.70632E+03-2.49967E+03 1.78042E+03
 -1        33-3.70404E+03-2.50543E+03-7.48955E+03
 -1        34-3.70304E+03-2.50872E+03-1.67483E+04
 -1        35-3.69061E+03-2.45510E+03 2.63906E+04
 -1        36-3.68677E+03-2.45938E+03 2.17802E+04
 -1        37-3.68788E+03-2.47269E+03 1.71734E+04
 -1        38-3.69518E+03-2.48396E+03 1.25559E+04
 -1        39-3.70260E+03-2.49197E+03 7.92873E+03
 -1        40-3.70717E+03-2.49706E+03 3.29302E+03
 -1        41-3.70906E+03-2.49957E+03-1.34644E+03
 -1        42-3.70722E+03-2.49972E+03-5.98516E+03
 -1        43-3.70479E+03-2.49899E+03-1.06201E+04
 -1        44-3.70417E+03-2.49761E+03-1.52512E+04
 -1        45-3.70615E+03-2.49640E+03-1.98812E+04
 -1        46-3.70018E+03-2.47818E+03 2.33141E+04
 -1        47-3.69787E+03-2.48701E+03 1.40702E+04
 -1        48-3.70719E+03-2.49653E+03 4.80765E+03
 -1        49-3.70836E+03-2.49685E+03-4.47201E+03
 -1        50-3.70083E+03-2.48796E+03-1.37400E+04
 -1        51-3.70337E+03-2.47950E+03-2.29922E+04
 -1        52-3.70306E+03-2.49577E+03 2.02043E+04
 -1        53-3.70108E+03-2.49704E+03 1.55784E+04
 -1        54-3.70203E+03-2.49848E+03 1.09512E+04
 -1        55-3.70528E+03-2.49932E+03 6.31926E+03
 -1        56-3.70818E+03-2.49939E+03 1.68241E+03
 -1        57-3.70750E+03-2.49718E+03-2.95669E+03
 -1        58-3.70413E+03-2.49244E+03-7.59357E+03
 -1        59-3.69776E+03-2.48486E+03-1.22234E+04
 -1        60-3.69126E+03-2.47410E+03-1.68447E+04
 -1        61-3.69044E+03-2.46132E+03-2.14562E+04
 -1        62-3.69425E+03-2.45718E+03-2.60713E+04
 -1        63-3.69966E+03-2.50873E+03 1.70716E+04
 -1        64-3.70124E+03-2.50519E+03 7.82101E+03
 -1        65-3.70570E+03-2.49954E+03-1.44428E+03
 -1        66-3.69618E+03-2.48645E+03-1.07079E+04
 -1        67-3.67530E+03-2.45748E+03-1.99279E+04
 -1        68-3.67556E+03-2.43210E+03-2.91101E+04
 -1        69-3.69386E+03-2.51774E+03 1.39202E+04
 -1        70-3.69402E+03-2.51407E+03 9.30434E+03
 -1        71-3.69676E+03-2.50787E+03 4.68569E+03
 -1        72-3.70092E+03-2.50407E+03 5.99022E+01
 -1        73-3.70120E+03-2.49925E+03-4.56988E+03
 -1        74-3.69513E+03-2.49182E+03-9.19734E+03
 -1        75-3.68474E+03-2.48052E+03-1.38148E+04
 -1        76-3.66908E+03-2.46420E+03-1.84131E+04
 -1        77-3.65251E+03-2.44183E+03-2.29899E+04
 -1        78-3.64364E+03-2.40924E+03-2.75522E+04
 -1        79-3.64623E+03-2.39887E+03-3.21036E+04
 -1        80-3.67382E+03-2.50530E+03 1.07547E+04
 -1        81-3.69058E+03-2.50868E+03 1.55187E+03
 -1        82-3.69532E+03-2.49864E+03-7.69485E+03
 -1        83-3.67102E+03-2.48010E+03-1.69128E+04
 -1        84-3.61999E+03-2.43373E+03-2.60402E+04
 -1        85-3.57587E+03-2.35089E+03-3.50143E+04
 -1        86-3.62157E+03-2.48305E+03 7.59088E+03
 -1        87-3.65585E+03-2.51415E+03 3.01310E+03
 -1        88-3.69053E+03-2.50733E+03-1.58344E+03
 -1        89-3.69532E+03-2.50213E+03-6.20024E+03
 -1        90-3.69252E+03-2.49905E+03-1.08168E+04
 -1        91-3.68362E+03-2.49346E+03-1.54269E+04
 -1        92-3.66617E+03-2.48356E+03-2.00155E+04
 -1        93-3.64383E+03-2.46579E+03-2.45688E+04
 -1        94-3.61078E+03-2.43691E+03-2.90800E+04
 -1        95-3.54856E+03-2.37047E+03-3.35056E+04
 -1        96-3.51027E+03-2.32927E+03-3.78864E+04
 -1        97-2.80089E+03-1.86922E+03 3.81811E+04
 -1        98-2.90352E+03-1.95745E+03 2.94020E+04
 -1        99-2.94650E+03-1.99667E+03 2.03495E+04
 -1       100-2.96877E+03-2.00986E+03 1.11546E+04
 -1       101-2.97068E+03-2.01593E+03 1.91577E+03
 -1       102-2.90762E+03-1.98885E+03-7.27282E+03
 -1       103-2.92623E+03-1.93120E+03 3.24159E+04
 -1       104-2.93187E+03-1.96078E+03 2.33161E+04
 -1       105-2.95947E+03-1.99381E+03 1.41495E+04
 -1       106-2.97498E+03-2.00899E+03 4.90651E+03
 -1       107-2.97435E+03-2.01652E+03-4.35430E+03
 -1       108-2.97218E+03-2.02274E+03-1.35982E+04
 -1       109-2.96711E+03-1.97554E+03 2.63918E+04
 -1       110-2.96478E+03-1.98734E+03 1.71745E+04
 -1       111-2.97606E+03-2.00293E+03 7.92946E+03
 -1       112-2.98132E+03-2.00917E+03-1.34653E+03
 -1       113-2.97805E+03-2.00844E+03-1.06208E+04
 -1       114-2.97963E+03-2.00643E+03-1.98819E+04
 -1       115-2.97716E+03-2.00591E+03 2.02050E+04
 -1       116-2.97585E+03-2.00801E+03 1.09519E+04
 -1       117-2.98062E+03-2.00903E+03 1.68257E+03
 -1       118-2.97728E+03-2.00332E+03-7.59422E+03
 -1       119-2.96748E+03-1.98847E+03-1.68458E+04
 -1       120-2.97002E+03-1.97714E+03-2.60724E+04
 -1       121-2.96909E+03-2.02311E+03 1.39204E+04
 -1       122-2.97194E+03-2.01638E+03 4.68609E+03
 -1       123-2.97465E+03-2.00886E+03-4.57012E+03
 -1       124-2.96142E+03-1.99427E+03-1.38156E+04
 -1       125-2.93586E+03-1.96243E+03-2.29918E+04
 -1       126-2.93080E+03-1.93403E+03-3.21059E+04
 -1       127-2.89754E+03-1.98468E+03 7.59081E+03
 -1       128-2.96814E+03-2.01535E+03-1.58271E+03
 -1       129-2.96861E+03-2.00920E+03-1.08171E+04
 -1       130-2.94895E+03-1.99663E+03-2.00165E+04
 -1       131-2.90842E+03-1.95883E+03-2.90825E+04
 -1       132-2.81216E+03-1.87016E+03-3.78860E+04
 -1       133-2.09480E+03-1.40292E+03 3.81803E+04
 -1       134-2.14557E+03-1.43797E+03 3.38201E+04
 -1       135-2.20262E+03-1.48123E+03 2.94041E+04
 -1       136-2.21414E+03-1.49972E+03 2.48978E+04
 -1       137-2.22925E+03-1.50925E+03 2.03503E+04
 -1       138-2.23847E+03-1.51575E+03 1.57641E+04
 -1       139-2.24472E+03-1.51989E+03 1.11549E+04
 -1       140-2.24704E+03-1.52120E+03 6.53657E+03
 -1       141-2.24849E+03-1.52380E+03 1.91520E+03
 -1       142-2.21877E+03-1.52825E+03-2.69022E+03
 -1       143-2.17984E+03-1.49138E+03-7.27269E+03
 -1       144-2.16763E+03-1.42738E+03 3.53209E+04
 -1       145-2.19754E+03-1.47707E+03 2.63650E+04
 -1       146-2.22943E+03-1.50723E+03 1.72482E+04
 -1       147-2.24609E+03-1.51904E+03 8.03188E+03
 -1       148-2.24439E+03-1.52451E+03-1.22011E+03
 -1       149-2.23611E+03-1.51672E+03-1.04326E+04
 -1       150-2.21359E+03-1.46642E+03 3.24178E+04
 -1       151-2.20976E+03-1.46414E+03 2.78724E+04
 -1       152-2.21653E+03-1.48224E+03 2.33176E+04
 -1       153-2.22821E+03-1.49654E+03 1.87457E+04
 -1       154-2.23710E+03-1.50759E+03 1.41502E+04
 -1       155-2.24481E+03-1.51448E+03 9.53442E+03
 -1       156-2.24877E+03-1.51879E+03 4.90675E+03
 -1       157-2.25060E+03-1.52218E+03 2.74837E+02
 -1       158-2.24881E+03-1.52470E+03-4.35455E+03
 -1       159-2.24654E+03-1.52665E+03-8.97775E+03
 -1       160-2.24723E+03-1.52936E+03-1.35984E+04
 -1       161-2.23263E+03-1.47905E+03 2.94273E+04
 -1       162-2.23100E+03-1.49281E+03 2.02574E+04
 -1       163-2.24466E+03-1.51051E+03 1.10438E+04
 -1       164-2.25189E+03-1.51902E+03 1.78067E+03
 -1       165-2.25119E+03-1.52279E+03-7.49034E+03
 -1       166-2.25099E+03-1.52399E+03-1.67490E+04
 -1       167-2.24305E+03-1.49527E+03 2.63926E+04
 -1       168-2.24095E+03-1.49476E+03 2.17827E+04
 -1       169-2.24167E+03-1.50230E+03 1.71754E+04
 -1       170-2.24538E+03-1.50935E+03 1.25575E+04
 -1       171-2.24983E+03-1.51414E+03 7.93001E+03
 -1       172-2.25264E+03-1.51731E+03 3.29354E+03
 -1       173-2.25385E+03-1.51894E+03-1.34660E+03
 -1       174-2.25279E+03-1.51874E+03-5.98583E+03
 -1       175-2.25149E+03-1.51816E+03-1.06212E+04
 -1       176-2.25152E+03-1.51801E+03-1.52523E+04
 -1       177-2.25297E+03-1.51659E+03-1.98824E+04
 -1       178-2.24889E+03-1.50670E+03 2.33154E+04
 -1       179-2.24761E+03-1.51129E+03 1.40718E+04
 -1       180-2.25266E+03-1.51699E+03 4.80839E+03
 -1       181-2.25336E+03-1.51719E+03-4.47262E+03
 -1       182-2.24938E+03-1.51187E+03-1.37415E+04
 -1       183-2.25082E+03-1.50747E+03-2.29934E+04
 -1       184-2.25111E+03-1.51618E+03 2.02055E+04
 -1       185-2.24967E+03-1.51768E+03 1.55796E+04
 -1       186-2.24985E+03-1.51782E+03 1.09524E+04
 -1       187-2.25161E+03-1.51848E+03 6.32005E+03
 -1       188-2.25333E+03-1.51883E+03 1.68270E+03
 -1       189-2.25284E+03-1.51739E+03-2.95709E+03
 -1       190-2.25075E+03-1.51443E+03-7.59472E+03
 -1       191-2.24694E+03-1.50989E+03-1.22249E+04
 -1       192-2.24370E+03-1.50315E+03-1.68466E+04
 -1       193-2.24317E+03-1.49594E+03-2.14585E+04
 -1       194-2.24526E+03-1.49641E+03-2.60732E+04
 -1       195-2.24895E+03-1.52395E+03 1.70723E+04
 -1       196-2.24953E+03-1.52267E+03 7.82190E+03
 -1       197-2.25151E+03-1.51894E+03-1.44441E+03
 -1       198-2.24584E+03-1.51086E+03-1.07092E+04
 -1       199-2.23344E+03-1.49392E+03-1.99306E+04
 -1       200-2.23534E+03-1.48066E+03-2.91118E+04
 -1       201-2.24490E+03-1.52970E+03 1.39206E+04
 -1       202-2.24423E+03-1.52664E+03 9.30493E+03
 -1       203-2.24701E+03-1.52461E+03 4.68639E+03
 -1       204-2.24958E+03-1.52204E+03 6.01719E+01
 -1       205-2.24852E+03-1.51869E+03-4.57032E+03
 -1       206-2.24542E+03-1.51454E+03-9.19834E+03
 -1       207-2.23857E+03-1.50793E+03-1.38163E+04
 -1       208-2.23045E+03-1.49729E+03-1.84158E+04
 -1       209-2.21953E+03-1.48350E+03-2.29932E+04
 -1       210-2.21322E+03-1.46598E+03-2.75551E+04
 -1       211-2.21702E+03-1.46850E+03-3.21078E+04
 -1       212-2.23270E+03-1.51519E+03 1.07524E+04
 -1       213-2.24227E+03-1.52423E+03 1.55249E+03
 -1       214-2.24597E+03-1.51879E+03-7.69511E+03
 -1       215-2.23121E+03-1.50744E+03-1.69149E+04
 -1       216-2.20127E+03-1.47827E+03-2.60431E+04
 -1       217-2.17265E+03-1.42890E+03-3.50182E+04
 -1       218-2.17028E+03-1.48657E+03 7.59066E+03
 -1       219-2.21355E+03-1.52812E+03 3.01730E+03
 -1       220-2.24683E+03-1.52334E+03-1.58206E+03
 -1       221-2.24599E+03-1.52056E+03-6.20025E+03
 -1       222-2.24459E+03-1.51938E+03-1.08173E+04
 -1       223-2.23931E+03-1.51546E+03-1.54277E+04
 -1       224-2.23105E+03-1.50923E+03-2.00172E+04
 -1       225-2.21688E+03-1.50005E+03-2.45704E+04
 -1       226-2.20604E+03-1.48224E+03-2.90846E+04
 -1       227-2.15215E+03-1.44008E+03-3.35114E+04
 -1       228-2.10484E+03-1.40271E+03-3.78853E+04
 -1       229-1.31733E+03-8.77168E+02 3.81711E+04
 -1       230-1.49442E+03-1.00093E+03 2.94036E+04
 -1       231-1.50828E+03-1.01995E+03 2.03486E+04
 -1       232-1.51962E+03-1.02915E+03 1.11562E+04
 -1       233-1.52426E+03-1.03189E+03 1.91596E+03
 -1       234-1.42565E+03-9.91292E+02-7.27110E+03
 -1       235-1.49639E+03-9.95027E+02 3.24179E+04
 -1       236-1.50823E+03-1.00933E+03 2.33221E+04
 -1       237-1.51425E+03-1.02070E+03 1.41503E+04
 -1       238-1.52295E+03-1.02895E+03 4.90719E+03
 -1       239-1.52613E+03-1.03344E+03-4.35537E+03
 -1       240-1.52090E+03-1.03642E+03-1.35990E+04
 -1       241-1.51620E+03-1.01177E+03 2.63916E+04
 -1       242-1.51790E+03-1.01672E+03 1.71756E+04
 -1       243-1.52376E+03-1.02543E+03 7.93032E+03
 -1       244-1.52658E+03-1.02886E+03-1.34664E+03
 -1       245-1.52509E+03-1.02838E+03-1.06217E+04
 -1       246-1.52474E+03-1.02688E+03-1.98831E+04
 -1       247-1.52332E+03-1.02650E+03 2.02064E+04
 -1       248-1.52396E+03-1.02813E+03 1.09529E+04
 -1       249-1.52623E+03-1.02879E+03 1.68277E+03
 -1       250-1.52438E+03-1.02563E+03-7.59499E+03
 -1       251-1.51928E+03-1.01729E+03-1.68468E+04
 -1       252-1.51782E+03-1.01248E+03-2.60722E+04
 -1       253-1.51921E+03-1.03673E+03 1.39214E+04
 -1       254-1.52521E+03-1.03353E+03 4.68728E+03
 -1       255-1.52272E+03-1.02886E+03-4.57072E+03
 -1       256-1.51531E+03-1.02093E+03-1.38163E+04
 -1       257-1.50997E+03-1.01021E+03-2.29977E+04
 -1       258-1.49886E+03-9.96449E+02-3.21078E+04
 -1       259-1.41405E+03-9.84933E+02 7.58888E+03
 -1       260-1.52328E+03-1.03151E+03-1.58291E+03
 -1       261-1.51938E+03-1.02871E+03-1.08186E+04
 -1       262-1.50961E+03-1.01991E+03-2.00156E+04
 -1       263-1.49660E+03-1.00163E+03-2.90841E+04
 -1       264-1.32870E+03-8.76026E+02-3.78764E+04
 -1       265 0.00000E+00 0.00000E+00 0.00000E+00
 -1       266 0.00000E+00 0.00000E+00 0.00000E+00
 -1       267 0.00000E+00 0.00000E+00 0.00000E+00
 -1       268 0.00000E+00 0.00000E+00 0.00000E+00
 -1       269 0.00000E+00 0.00000E+00 0.00000E+00
 -1       270 0.00000E+00 0.00000E+00 0.00000E+00
 -1       271 0.00000E+00 0.00000E+00 0.00000E+00
 -1       272 0.00000E+00 0.00000E+00 0.00000E+00
 -1       273 0.00000E+00 0.00000E+00 0.00000E+00
 -1       274 0.00000E+00 0.00000E+00 0.00000E+00
 -1       275 0.00000E+00 0.00000E+00 0.00000E+00
 -1       276 0.00000E+00 0.00000E+00 0.00000E+00
 -1       277 0.00000E+00 0.00000E+00 0.00000E+00
 -1       278 0.00000E+00 0.00000E+00 0.00000E+00
 -1       279 0.00000E+00 0.00000E+00 0.00000E+00
 -1       280 6.01941E+01 3.61230E+02 9.88341E+02
 -1       281-1.05026E+01 3.99166E+02 1.20170E+03
 -1       282-4.10476E+01 3.18955E+02 9.47298E+02
 -1       283-5.14263E+01 1.59602E+02 4.50350E+02
 -1       284-2.00907E+01 1.85009E+01 8.61180E+01
 -1       285-9.03292E+00-2.79254E+01-7.61933E+01
 -1       286-2.50898E+00-4.53628E+01-1.36574E+02
 -1       287 4.77543E+00-4.93154E+01-1.36355E+02
 -1       288 1.16096E+02 7.28655E+02 4.16293E+03
 -1       289 3.47485E+01 7.67290E+02 4.59076E+03
 -1       290-2.61522E+01 7.52411E+02 4.62993E+03
 -1       291-7.05547E+01 7.12132E+02 4.30618E+03
 -1       292-1.35572E+02 6.14459E+02 3.70327E+03
 -1       293-1.59838E+02 4.79874E+02 2.84199E+03
 -1       294-1.77157E+02 3.35208E+02 1.84619E+03
 -1       295-1.28640E+02 1.51779E+02 8.99607E+02
 -1       296-7.37381E+01 1.39229E+01 1.94164E+02
 -1       297-4.52529E+01-2.58511E+01-1.18652E+02
 -1       298-2.46026E+01-5.17674E+01-3.16606E+02
 -1       299-1.77187E+01-7.41367E+01-4.46411E+02
 -1       300-1.12730E+01-8.76880E+01-5.29207E+02
 -1       301-4.48301E+00-9.67461E+01-5.72522E+02
 -1       302 6.62873E+00-9.94514E+01-5.71773E+02
 -1       303 1.80371E+02 8.86747E+02 8.88219E+03
 -1       304-4.67564E+01 1.01718E+03 9.73573E+03
 -1       305-2.74085E+02 7.82502E+02 7.77921E+03
 -1       306-3.00339E+02 5.30245E+02 4.44003E+03
 -1       307-8.17865E+01-3.87936E+01 8.09581E+01
 -1       308-5.19285E+01-7.97306E+01-6.99593E+02
 -1       309-2.45591E+01-1.23799E+02-1.14580E+03
 -1       310 9.71821E-01-1.38590E+02-1.26318E+03
 -1       311 6.67985E+02 6.42417E+02 8.21070E+03
 -1       312 5.30790E+02 7.79267E+02 1.16805E+04
 -1       313 3.55004E+02 9.49678E+02 1.41952E+04
 -1       314 1.92661E+02 1.12430E+03 1.57916E+04
 -1       315-4.07504E+01 1.29794E+03 1.63712E+04
 -1       316-2.98856E+02 1.11516E+03 1.50479E+04
 -1       317-4.43267E+02 9.01762E+02 1.26700E+04
 -1       318-4.07723E+02 7.56563E+02 1.02361E+04
 -1       319-3.83405E+02 6.68935E+02 7.89635E+03
 -1       320-9.51864E+01-7.38580E+01-2.41783E+02
 -1       321-8.67684E+01-8.20516E+01-7.69741E+02
 -1       322-7.27775E+01-1.12543E+02-1.23666E+03
 -1       323-6.23799E+01-1.30505E+02-1.64186E+03
 -1       324-4.76986E+01-1.56333E+02-1.95258E+03
 -1       325-1.65900E+01-1.68901E+02-2.12250E+03
 -1       326 1.73499E+00-1.76880E+02-2.17943E+03
 -1       327 5.82243E+01-1.71246E+02-1.97144E+03
 -1       328 1.04268E+02-1.51780E+02-1.49701E+03
 -1       329 7.84728E+02 5.35906E+02 1.16517E+04
 -1       330 5.43975E+02 8.79920E+02 1.95280E+04
 -1       331 3.46416E+02 1.34315E+03 2.44445E+04
 -1       332-8.62861E+01-1.31219E+02-1.97740E+03
 -1       333-7.33967E+01-1.73284E+02-2.90677E+03
 -1       334 2.43410E+01-2.10423E+02-3.29107E+03
 -1       335 1.25909E+02-1.55397E+02-2.38968E+03
 -1       336 0.00000E+00 0.00000E+00 0.00000E+00
 -1       337 3.61018E+02 6.48730E+01 9.75909E+02
 -1       338 7.26360E+02 1.36412E+02 4.12223E+03
 -1       339 8.83449E+02 2.23926E+02 8.81660E+03
 -1       340 9.66472E+02 3.61790E+02 1.41801E+04
 -1       341 8.96422E+02 5.59584E+02 1.96002E+04
 -1       342 7.97344E+02 8.25703E+02 2.45512E+04
 -1       343 6.34606E+02 1.04751E+03 2.85309E+04
 -1       344 6.32633E+02 1.22918E+03 3.23163E+04
 -1       345-9.09541E+01-1.41249E+02-2.77969E+03
 -1       346-1.06654E+02-1.65330E+02-3.36545E+03
 -1       347-1.29255E+02-1.85886E+02-4.01336E+03
 -1       348-7.09424E+01-2.62661E+02-4.57675E+03
 -1       349 5.41164E+01-2.55299E+02-4.66416E+03
 -1       350 1.22760E+02-1.98887E+02-4.13304E+03
 -1       351 1.82131E+02-1.49172E+02-3.22840E+03
 -1       352 1.98863E+02-7.95654E+01-2.13229E+03
 -1       353 1.81027E+02-4.45280E+01-1.01747E+03
 -1       354 8.91417E+01-1.96194E+01-2.37143E+02
 -1       355 0.00000E+00 0.00000E+00 0.00000E+00
 -1       356 0.00000E+00 0.00000E+00 0.00000E+00
 -1       357 7.86428E+02 6.77697E+01 4.71189E+03
 -1       358 1.10378E+03 2.38276E+02 1.59437E+04
 -1       359 1.05847E+03 6.13042E+02 2.85781E+04
 -1       360 3.68345E+02 5.12215E+02 3.70865E+04
 -1       361-3.35883E+02-3.00874E+02-5.18947E+03
 -1       362 1.24822E+02-3.36049E+02-6.32876E+03
 -1       363 2.63560E+02-1.10926E+02-4.00066E+03
 -1       364 2.02297E+02-2.28095E+01-1.21505E+03
 -1       365 0.00000E+00 0.00000E+00 0.00000E+00
 -1       366 0.00000E+00 0.00000E+00 0.00000E+00
 -1       367 4.27828E+02-4.10094E-01 1.28823E+03
 -1       368 8.12603E+02 9.64482E+00 4.94694E+03
 -1       369 1.03668E+03 3.46994E+01 1.03221E+04
 -1       370 1.22759E+03 9.67018E+01 1.69032E+04
 -1       371 1.28015E+03 2.47459E+02 2.42070E+04
 -1       372 1.31231E+03 4.43430E+02 3.17797E+04
 -1       373 5.47334E+02 4.07955E+02 3.72254E+04
 -1       374-5.26668E+02-3.38976E+02 3.81690E+04
 -1       375-7.42739E+02-5.01147E+02 3.38345E+04
 -1       376-7.90078E+02-5.24317E+02 2.94009E+04
 -1       377-7.93036E+02-5.39817E+02 2.49014E+04
 -1       378-7.86127E+02-5.29554E+02 2.03474E+04
 -1       379-7.92004E+02-5.36372E+02 1.57642E+04
 -1       380-7.94589E+02-5.38850E+02 1.11571E+04
 -1       381-8.01026E+02-5.41022E+02 6.53553E+03
 -1       382-8.01477E+02-5.39462E+02 1.91711E+03
 -1       383-7.76195E+02-5.42041E+02-2.69840E+03
 -1       384-6.68249E+02-4.92681E+02-7.27084E+03
 -1       385-1.15161E+02-5.11561E+02-9.07699E+03
 -1       386 2.75552E+02-4.03736E+02-8.46690E+03
 -1       387 3.33022E+02-2.30283E+02-6.65847E+03
 -1       388 3.52182E+02-5.98913E+01-4.51208E+03
 -1       389 2.78719E+02-1.64380E+01-2.70432E+03
 -1       390 2.10235E+02-2.72963E+00-1.29513E+03
 -1       391 1.12229E+02-1.49467E-01-3.33707E+02
 -1       392 0.00000E+00 0.00000E+00 0.00000E+00
 -1       393 0.00000E+00 0.00000E+00 0.00000E+00
 -1       394 8.03312E+02-3.75774E+01 4.83699E+03
 -1       395 1.28938E+03-4.66034E+01 1.70752E+04
 -1       396 1.48264E+03 1.13362E+02 3.33001E+04
 -1       397-7.58503E+02-4.94528E+02 3.53304E+04
 -1       398-7.66154E+02-5.11115E+02 2.63595E+04
 -1       399-7.92443E+02-5.35713E+02 1.72503E+04
 -1       400-7.97195E+02-5.38427E+02 8.03150E+03
 -1       401-7.89294E+02-5.38259E+02-1.21789E+03
 -1       402-7.89581E+02-5.32718E+02-1.04288E+04
 -1       403 3.47854E+02 2.92616E+01-4.52320E+03
 -1       404 2.05356E+02 1.87713E+01-1.23237E+03
 -1       405 0.00000E+00 0.00000E+00 0.00000E+00
 -1       406 0.00000E+00 0.00000E+00 0.00000E+00
 -1       407 3.88764E+02-2.10636E+01 1.14544E+03
 -1       408 7.53000E+02-7.76563E+01 4.52252E+03
 -1       409 1.02138E+03-1.56103E+02 9.65778E+03
 -1       410 1.28813E+03-2.17380E+02 1.63381E+04
 -1       411 1.46097E+03-1.62965E+02 2.44354E+04
 -1       412 1.58383E+03-9.45709E+01 3.33326E+04
 -1       413-7.83074E+02-5.26818E+02 3.24159E+04
 -1       414-7.66681E+02-5.09916E+02 2.78678E+04
 -1       415-7.98828E+02-5.35476E+02 2.33266E+04
 -1       416-7.93864E+02-5.31959E+02 1.87479E+04
 -1       417-7.91924E+02-5.34138E+02 1.41500E+04
 -1       418-7.94937E+02-5.36570E+02 9.53452E+03
 -1       419-7.97272E+02-5.39027E+02 4.90763E+03
 -1       420-8.00233E+02-5.40621E+02 2.75131E+02
 -1       421-8.03156E+02-5.42245E+02-4.35618E+03
 -1       422-7.88898E+02-5.38869E+02-8.97810E+03
 -1       423-7.95456E+02-5.43626E+02-1.35993E+04
 -1       424 3.35154E+02 8.93640E+01-4.16429E+03
 -1       425 2.74092E+02 6.24677E+01-2.39295E+03
 -1       426 1.80188E+02 4.54354E+01-1.05436E+03
 -1       427 8.97753E+01 1.32065E+01-2.74403E+02
 -1       428 0.00000E+00 0.00000E+00 0.00000E+00
 -1       429 0.00000E+00 0.00000E+00 0.00000E+00
 -1       430 6.58604E+02-1.27418E+02 3.89921E+03
 -1       431 1.13948E+03-3.36857E+02 1.45917E+04
 -1       432-8.02097E+02-5.30207E+02 2.94303E+04
 -1       433-7.93196E+02-5.31994E+02 2.02599E+04
 -1       434-7.96355E+02-5.35974E+02 1.10447E+04
 -1       435-7.98661E+02-5.38768E+02 1.78081E+03
 -1       436-7.99759E+02-5.40961E+02-7.49144E+03
 -1       437-8.03217E+02-5.42088E+02-1.67491E+04
 -1       438 1.46424E+02-4.77636E+00-9.15014E+02
 -1       439 0.00000E+00 0.00000E+00 0.00000E+00
 -1       440 0.00000E+00 0.00000E+00 0.00000E+00
 -1       441 2.57330E+02-5.74132E+01 7.49950E+02
 -1       442 5.22868E+02-1.83976E+02 2.98669E+03
 -1       443 8.24077E+02-2.94397E+02 6.99698E+03
 -1       444 1.02019E+03-4.16599E+02 1.23400E+04
 -1       445-7.88317E+02-5.27026E+02 2.63908E+04
 -1       446-7.96022E+02-5.31441E+02 2.17848E+04
 -1       447-7.94470E+02-5.31627E+02 1.71754E+04
 -1       448-7.96605E+02-5.35646E+02 1.25585E+04
 -1       449-7.97740E+02-5.36709E+02 7.93051E+03
 -1       450-7.98983E+02-5.38210E+02 3.29385E+03
 -1       451-7.99507E+02-5.38968E+02-1.34666E+03
 -1       452-7.99123E+02-5.38524E+02-5.98621E+03
 -1       453-7.98734E+02-5.38577E+02-1.06220E+04
 -1       454-7.98581E+02-5.38489E+02-1.52527E+04
 -1       455-7.96545E+02-5.37651E+02-1.98837E+04
 -1       456 1.55685E+02-6.92857E+01-1.03752E+03
 -1       457 9.31231E+01-1.81778E+01-3.14852E+02
 -1       458 0.00000E+00 0.00000E+00 0.00000E+00
 -1       459 0.00000E+00 0.00000E+00 0.00000E+00
 -1       460 3.43606E+02-1.13158E+02 2.05539E+03
 -1       461-7.95605E+02-5.33233E+02 2.33156E+04
 -1       462-7.96166E+02-5.35236E+02 1.40719E+04
 -1       463-7.99081E+02-5.38055E+02 4.80883E+03
 -1       464-7.99313E+02-5.38124E+02-4.47300E+03
 -1       465-7.96861E+02-5.35456E+02-1.37416E+04
 -1       466-7.96398E+02-5.33547E+02-2.29936E+04
 -1       467 2.99824E+02-1.42120E+02-1.80120E+03
 -1       468 0.00000E+00 0.00000E+00 0.00000E+00
 -1       469 0.00000E+00 0.00000E+00 0.00000E+00
 -1       470 1.32664E+02-4.63914E+00 4.27630E+02
 -1       471 2.36499E+02-2.82230E+01 1.51350E+03
 -1       472 2.84823E+02 7.05892E+00 3.00971E+03
 -1       473 3.15504E+02 3.96821E+01 4.75091E+03
 -1       474-7.95564E+02-5.37322E+02 2.02070E+04
 -1       475-7.97955E+02-5.38438E+02 1.55800E+04
 -1       476-7.98128E+02-5.38404E+02 1.09532E+04
 -1       477-7.98700E+02-5.38410E+02 6.32049E+03
 -1       478-7.99324E+02-5.38938E+02 1.68282E+03
 -1       479-7.99057E+02-5.38249E+02-2.95733E+03
 -1       480-7.98069E+02-5.36821E+02-7.59515E+03
 -1       481-7.97155E+02-5.35819E+02-1.22258E+04
 -1       482-7.95208E+02-5.31906E+02-1.68466E+04
 -1       483-7.96794E+02-5.31893E+02-2.14606E+04
 -1       484-7.89383E+02-5.27327E+02-2.60714E+04
 -1       485 1.01924E+03-4.32371E+02-1.21793E+04
 -1       486 8.18258E+02-3.10050E+02-6.85520E+03
 -1       487 5.10591E+02-1.99838E+02-2.89025E+03
 -1       488 2.49189E+02-6.11490E+01-7.17917E+02
 -1       489 0.00000E+00 0.00000E+00 0.00000E+00
 -1       490 0.00000E+00 0.00000E+00 0.00000E+00
 -1       491 2.37910E+02-9.42599E+00 1.45308E+03
 -1       492 3.54365E+02 2.35560E+01 4.96051E+03
 -1       493-8.02921E+02-5.42293E+02 1.70724E+04
 -1       494-7.99290E+02-5.41017E+02 7.82311E+03
 -1       495-7.98513E+02-5.38731E+02-1.44448E+03
 -1       496-7.96784E+02-5.36094E+02-1.07100E+04
 -1       497-7.93955E+02-5.32418E+02-1.99331E+04
 -1       498-8.02663E+02-5.30781E+02-2.91148E+04
 -1       499 1.13691E+03-3.52301E+02-1.45192E+04
 -1       500 6.53992E+02-1.37118E+02-3.86727E+03
 -1       501 0.00000E+00 0.00000E+00 0.00000E+00
 -1       502 0.00000E+00 0.00000E+00 0.00000E+00
 -1       503 1.23016E+02-2.63671E+00 3.72266E+02
 -1       504 2.41980E+02 9.82903E-01 1.44479E+03
 -1       505 3.14593E+02-7.08555E-01 3.05374E+03
 -1       506 3.79172E+02 1.47458E+00 5.08092E+03
 -1       507 4.22989E+02-2.90549E+01 7.41857E+03
 -1       508 4.57054E+02-5.66644E+01 9.98351E+03
 -1       509-7.94474E+02-5.43962E+02 1.39217E+04
 -1       510-7.87275E+02-5.38423E+02 9.30536E+03
 -1       511-8.03073E+02-5.42512E+02 4.68816E+03
 -1       512-8.00037E+02-5.40646E+02 5.99121E+01
 -1       513-7.97073E+02-5.38957E+02-4.57113E+03
 -1       514-7.95148E+02-5.36561E+02-9.19840E+03
 -1       515-7.92551E+02-5.34263E+02-1.38160E+04
 -1       516-7.94522E+02-5.32262E+02-1.84179E+04
 -1       517-7.99357E+02-5.35969E+02-2.30020E+04
 -1       518-7.68620E+02-5.10425E+02-2.75505E+04
 -1       519-7.84482E+02-5.27605E+02-3.21057E+04
 -1       520 1.57551E+03-1.08398E+02-3.32793E+04
 -1       521 1.45445E+03-1.80416E+02-2.44240E+04
 -1       522 1.28706E+03-2.31836E+02-1.63504E+04
 -1       523 1.02143E+03-1.67703E+02-9.67435E+03
 -1       524 7.54544E+02-8.34280E+01-4.53349E+03
 -1       525 3.89908E+02-2.32309E+01-1.14776E+03
 -1       526 0.00000E+00 0.00000E+00 0.00000E+00
 -1       527 0.00000E+00 0.00000E+00 0.00000E+00
 -1       528 2.35644E+02-5.43766E+00 1.41613E+03
 -1       529 3.63315E+02-4.69160E+01 4.92523E+03
 -1       530 3.99214E+02-1.44988E+02 9.39436E+03
 -1       531-7.88037E+02-5.31377E+02 1.07481E+04
 -1       532-7.87844E+02-5.37708E+02 1.55010E+03
 -1       533-7.97270E+02-5.38359E+02-7.69467E+03
 -1       534-7.92952E+02-5.35778E+02-1.69169E+04
 -1       535-7.68117E+02-5.11410E+02-2.60378E+04
 -1       536-7.60556E+02-4.94879E+02-3.50279E+04
 -1       537 1.46887E+03 9.52614E+01-3.33375E+04
 -1       538 1.29109E+03-6.44190E+01-1.71822E+04
 -1       539 8.10910E+02-4.41432E+01-4.88616E+03
 -1       540 0.00000E+00 0.00000E+00 0.00000E+00
 -1       541 0.00000E+00 0.00000E+00 0.00000E+00
 -1       542 1.18866E+02-2.31849E+00 3.57390E+02
 -1       543 2.24234E+02-1.51227E+01 1.36886E+03
 -1       544 2.75372E+02-3.77262E+01 2.81888E+03
 -1       545 3.17477E+02-8.25028E+01 4.54857E+03
 -1       546 3.19610E+02-1.60755E+02 6.40959E+03
 -1       547 3.18214E+02-2.82730E+02 8.21939E+03
 -1       548-7.26309E+01-4.58072E+02 9.16913E+03
 -1       549-6.54344E+02-4.84813E+02 7.58850E+03
 -1       550-7.73267E+02-5.41911E+02 3.02633E+03
 -1       551-8.01315E+02-5.39169E+02-1.58417E+03
 -1       552-8.00986E+02-5.40987E+02-6.19900E+03
 -1       553-7.94220E+02-5.38482E+02-1.08196E+04
 -1       554-7.92295E+02-5.36241E+02-1.54278E+04
 -1       555-7.87044E+02-5.29513E+02-2.00144E+04
 -1       556-7.93646E+02-5.39974E+02-2.45739E+04
 -1       557-7.90893E+02-5.24659E+02-2.90815E+04
 -1       558-7.46159E+02-5.01887E+02-3.35251E+04
 -1       559-5.39727E+02-3.37091E+02-3.78745E+04
 -1       560 5.02969E+02 3.67822E+02-3.71436E+04
 -1       561 1.29031E+03 4.18700E+02-3.19310E+04
 -1       562 1.27498E+03 2.24415E+02-2.44297E+04
 -1       563 1.23402E+03 7.58559E+01-1.71205E+04
 -1       564 1.04781E+03 2.08520E+01-1.04861E+04
 -1       565 8.26472E+02 2.25032E+00-5.03572E+03
 -1       566 4.35517E+02-2.50664E+00-1.31309E+03
 -1       567 0.00000E+00 0.00000E+00 0.00000E+00
 -1       568 0.00000E+00 0.00000E+00 0.00000E+00
 -1       569 2.05260E+02-3.05672E+01 1.23529E+03
 -1       570 2.60374E+02-1.04547E+02 4.02749E+03
 -1       571 1.57022E+02-2.89446E+02 6.52746E+03
 -1       572-3.27718E+02-2.78154E+02 5.61783E+03
 -1       573 2.70979E+02 5.12444E+02-3.67662E+04
 -1       574 1.04274E+03 5.81554E+02-2.88959E+04
 -1       575 1.11580E+03 2.18651E+02-1.62774E+04
 -1       576 8.07201E+02 5.97462E+01-4.84542E+03
 -1       577 0.00000E+00 0.00000E+00 0.00000E+00
 -1       578 0.00000E+00 0.00000E+00 0.00000E+00
 -1       579 8.90692E+01-2.02431E+01 2.37321E+02
 -1       580 1.79604E+02-4.59177E+01 1.00920E+03
 -1       581 2.05239E+02-8.36568E+01 2.13402E+03
 -1       582 2.04439E+02-1.33402E+02 3.31777E+03
 -1       583 1.48217E+02-1.81472E+02 4.35766E+03
 -1       584 7.02351E+01-2.47917E+02 4.99277E+03
 -1       585-5.70192E+01-2.57673E+02 5.00660E+03
 -1       586-1.06896E+02-1.82643E+02 4.55118E+03
 -1       587-7.83784E+01-1.75779E+02 4.05791E+03
 -1       588-5.86896E+01-1.56605E+02 3.65278E+03
 -1       589 9.55961E+01 1.50942E+03-3.48311E+04
 -1       590 2.33111E+02 1.41746E+03-3.38778E+04
 -1       591 4.48887E+02 1.21739E+03-3.19326E+04
 -1       592 5.70208E+02 1.02839E+03-2.88409E+04
 -1       593 7.88793E+02 7.96272E+02-2.50234E+04
 -1       594 8.98182E+02 5.35755E+02-2.01037E+04
 -1       595 9.82001E+02 3.41795E+02-1.46351E+04
 -1       596 9.06555E+02 2.08122E+02-9.15045E+03
 -1       597 7.53845E+02 1.28502E+02-4.30344E+03
 -1       598 3.76599E+02 6.27371E+01-1.02636E+03
 -1       599 0.00000E+00 0.00000E+00 0.00000E+00
 -1       600 1.43502E+02-1.43958E+02 2.57137E+03
 -1       601 3.48447E+01-2.11812E+02 3.64881E+03
 -1       602-5.73551E+01-1.87390E+02 3.40344E+03
 -1       603-5.90847E+01-1.59019E+02 2.72404E+03
 -1       604 1.52325E+01 1.49028E+03-2.60675E+04
 -1       605 2.74578E+02 1.26802E+03-2.46045E+04
 -1       606 5.32517E+02 8.95125E+02-2.00830E+04
 -1       607 7.88881E+02 5.14440E+02-1.22310E+04
 -1       608 1.19412E+02-1.39261E+02 1.74663E+03
 -1       609 6.39076E+01-1.72718E+02 2.27012E+03
 -1       610 4.42098E+00-1.88570E+02 2.49968E+03
 -1       611-1.05193E+01-1.87308E+02 2.46581E+03
 -1       612-4.04682E+01-1.82482E+02 2.33481E+03
 -1       613-4.95937E+01-1.64145E+02 2.08415E+03
 -1       614-5.29568E+01-1.60619E+02 1.77925E+03
 -1       615-6.41855E+01 1.47788E+03-1.74609E+04
 -1       616 1.68918E+01 1.37566E+03-1.75923E+04
 -1       617 1.01706E+02 1.26961E+03-1.72200E+04
 -1       618 2.29161E+02 1.12175E+03-1.62665E+04
 -1       619 3.29848E+02 9.77356E+02-1.46420E+04
 -1       620 5.12050E+02 7.83535E+02-1.22566E+04
 -1       621 6.48167E+02 6.34399E+02-8.90636E+03
 -1       622 1.08671E+00-1.56592E+02 1.49222E+03
 -1       623-2.35567E+01-1.46214E+02 1.38551E+03
 -1       624-4.42048E+01-1.21441E+02 9.78955E+02
 -1       625-1.56307E+02 1.15717E+03-9.67301E+03
 -1       626 2.04483E+01 1.05135E+03-1.04751E+04
 -1       627 2.00602E+02 9.11204E+02-9.16094E+03
 -1       628 8.05791E+00-1.19211E+02 6.85663E+02
 -1       629-4.27596E+00-1.15980E+02 6.91091E+02
 -1       630-1.16949E+01-1.07220E+02 6.45671E+02
 -1       631-2.03964E+01-9.31571E+01 5.53335E+02
 -1       632-2.99699E+01-7.13457E+01 4.06828E+02
 -1       633-3.69448E+01-3.37565E+01 1.98047E+02
 -1       634-4.80514E+01 9.07266E+00-5.73745E+01
 -1       635-1.06331E+02 8.33770E+01-5.50236E+02
 -1       636-1.75555E+02 1.98665E+02-1.31356E+03
 -1       637-2.06219E+02 4.31220E+02-2.61353E+03
 -1       638-1.91379E+02 7.13258E+02-4.01617E+03
 -1       639-8.51912E+01 7.93716E+02-4.75769E+03
 -1       640 1.07566E+00 8.21945E+02-5.00798E+03
 -1       641 6.04891E+01 8.06579E+02-4.83320E+03
 -1       642 1.33478E+02 7.56043E+02-4.27254E+03
 -1       643 5.53748E+00-5.93460E+01 1.65428E+02
 -1       644-2.91663E+00-5.60560E+01 1.65359E+02
 -1       645-9.50158E+00-3.47427E+01 1.00377E+02
 -1       646-1.66896E+01 3.63833E+00-3.05847E+01
 -1       647-4.71355E+01 1.18651E+02-3.83645E+02
 -1       648-6.26327E+01 3.47969E+02-9.82500E+02
 -1       649-1.29093E+00 4.37278E+02-1.29793E+03
 -1       650 6.46804E+01 3.72666E+02-1.00756E+03
 -1       651 0.00000E+00 0.00000E+00 0.00000E+00
 -1       652 0.00000E+00 0.00000E+00 0.00000E+00
 -1       653 0.00000E+00 0.00000E+00 0.00000E+00
 -1       654 0.00000E+00 0.00000E+00 0.00000E+00
 -1       655 0.00000E+00 0.00000E+00 0.00000E+00
 -1       656 0.00000E+00 0.00000E+00 0.00000E+00
 -1       657 0.00000E+00 0.00000E+00 0.00000E+00
 -1       658 0.00000E+00 0.00000E+00 0.00000E+00
 -1       659 0.00000E+00 0.00000E+00 0.00000E+00
 -1       660 0.00000E+00 0.00000E+00 0.00000E+00
 -1       661 0.00000E+00 0.00000E+00 0.00000E+00
 -1       662 0.00000E+00 0.00000E+00 0.00000E+00
 -1       663 0.00000E+00 0.00000E+00 0.00000E+00
 -1       664 0.00000E+00 0.00000E+00 0.00000E+00
 -1       665 0.00000E+00 0.00000E+00 0.00000E+00
 -1       666 0.00000E+00 0.00000E+00 0.00000E+00
 -1       667 0.00000E+00 0.00000E+00 0.00000E+00
 -1       668 0.00000E+00 0.00000E+00 0.00000E+00
 -1       669 0.00000E+00 0.00000E+00 0.00000E+00
 -1       670 0.00000E+00 0.00000E+00 0.00000E+00
 -1       671 0.00000E+00 0.00000E+00 0.00000E+00
 -1       672 0.00000E+00 0.00000E+00 0.00000E+00
 -1       673 0.00000E+00 0.00000E+00 0.00000E+00
 -1       674 2.07299E-12 1.62825E-12 4.15227E+03
 -1       675 1.20675E-11 4.03332E-11 4.61742E+03
 -1       676 3.58994E-12 2.54631E-11 3.69342E+03
 -1       677-7.99051E-12 2.46218E-12 1.83773E+03
 -1       678-1.26943E-11-1.22513E-11 1.93433E+02
 -1       679-1.33697E-11-4.34299E-11-3.15700E+02
 -1       680 6.89371E-12-6.64171E-11-5.27703E+02
 -1       681 3.29045E-11-7.75579E-11-5.69914E+02
 -1       682-1.32120E-10-1.33158E-10 8.21921E+03
 -1       683-6.23009E-11-4.63171E-11 1.42019E+04
 -1       684-2.32209E-11 6.35787E-11 1.63722E+04
 -1       685 2.23199E-11 4.36832E-11 1.26715E+04
 -1       686-2.04378E-12 1.52299E-11 7.89254E+03
 -1       687 9.11981E-13-1.99189E-11-2.40514E+02
 -1       688-6.08797E-12-9.00014E-11-1.23641E+03
 -1       689 3.88344E-12-1.61080E-10-1.95242E+03
 -1       690 6.07111E-11-1.01543E-10-2.17958E+03
 -1       691 1.08010E-10 1.52537E-10-1.49827E+03
 -1       692 0.00000E+00 0.00000E+00 0.00000E+00
 -1       693-1.09026E-10-5.60606E-11 4.11128E+03
 -1       694-1.68542E-10-1.70568E-10 1.41871E+04
 -1       695-1.68064E-10-1.28577E-10 2.45585E+04
 -1       696-1.47582E-10 2.03163E-10 3.23310E+04
 -1       697 2.50881E-11-1.19730E-10-2.77877E+03
 -1       698-3.03140E-11-3.48985E-10-4.01326E+03
 -1       699-9.17240E-11-6.08642E-11-4.66503E+03
 -1       700-1.39103E-10 1.18600E-10-3.23101E+03
 -1       701-1.10287E-10 5.70390E-11-1.01515E+03
 -1       702 0.00000E+00 0.00000E+00 0.00000E+00
 -1       703 0.00000E+00 0.00000E+00 0.00000E+00
 -1       704-5.32867E-11-3.26054E-11 4.93402E+03
 -1       705-1.24536E-10-1.08053E-10 1.69031E+04
 -1       706-3.65580E-10-1.51225E-10 3.17970E+04
 -1       707-1.38131E-09 4.90976E-10 3.82095E+04
 -1       708-1.80149E-09 9.61666E-11 2.93914E+04
 -1       709-1.70720E-09-4.13969E-10 2.03503E+04
 -1       710-1.64501E-09-8.33258E-10 1.11560E+04
 -1       711-1.56579E-09-1.23525E-09 1.91873E+03
 -1       712-1.33384E-09-1.35869E-09-7.27821E+03
 -1       713-4.90154E-10-6.79498E-11-8.47191E+03
 -1       714-1.71372E-10 9.03827E-11-4.51286E+03
 -1       715-6.08667E-11 2.30932E-11-1.29195E+03
 -1       716 0.00000E+00 0.00000E+00 0.00000E+00
 -1       717 0.00000E+00 0.00000E+00 0.00000E+00
 -1       718-1.83551E-11-1.79500E-11 4.50925E+03
 -1       719-3.99976E-11-8.63604E-11 1.63381E+04
 -1       720-4.17553E-11-1.76993E-10 3.33317E+04
 -1       721-1.23187E-09 5.78779E-10 3.24061E+04
 -1       722-1.23322E-09 7.30815E-11 2.33293E+04
 -1       723-1.25383E-09-4.14829E-10 1.41494E+04
 -1       724-1.21590E-09-8.43994E-10 4.90797E+03
 -1       725-1.21428E-09-1.24239E-09-4.35667E+03
 -1       726-1.22774E-09-1.59003E-09-1.35974E+04
 -1       727 1.23118E-12 8.49923E-11-4.16509E+03
 -1       728-4.61451E-12 5.76973E-12-1.05034E+03
 -1       729 0.00000E+00 0.00000E+00 0.00000E+00
 -1       730 0.00000E+00 0.00000E+00 0.00000E+00
 -1       731 9.60131E-12-1.26360E-11 2.97429E+03
 -1       732-6.83687E-12-2.79456E-11 1.23384E+04
 -1       733-7.24899E-10 5.69867E-10 2.63935E+04
 -1       734-7.61361E-10 8.57012E-11 1.71750E+04
 -1       735-7.80134E-10-3.83418E-10 7.93075E+03
 -1       736-7.68139E-10-7.99330E-10-1.34670E+03
 -1       737-8.19756E-10-1.21889E-09-1.06222E+04
 -1       738-7.76616E-10-1.70861E-09-1.98836E+04
 -1       739 6.63555E-12-1.58508E-11-1.03158E+03
 -1       740 0.00000E+00 0.00000E+00 0.00000E+00
 -1       741 0.00000E+00 0.00000E+00 0.00000E+00
 -1       742 1.10236E-11 7.18113E-12 1.50737E+03
 -1       743 2.80812E-11 3.39956E-11 4.75194E+03
 -1       744-2.81925E-10 5.43214E-10 2.02069E+04
 -1       745-2.56476E-10 9.30302E-11 1.09533E+04
 -1       746-2.91204E-10-3.49232E-10 1.68287E+03
 -1       747-2.96892E-10-7.67048E-10-7.59539E+03
 -1       748-2.90007E-10-1.21893E-09-1.68461E+04
 -1       749-2.91031E-10-1.72217E-09-2.60741E+04
 -1       750 4.59155E-11-1.90862E-10-1.21772E+04
 -1       751 4.81493E-11-6.80246E-11-2.87867E+03
 -1       752 0.00000E+00 0.00000E+00 0.00000E+00
 -1       753 0.00000E+00 0.00000E+00 0.00000E+00
 -1       754 9.28323E-12 1.37870E-11 1.44048E+03
 -1       755 2.18315E-11 2.59939E-11 5.08103E+03
 -1       756 6.34941E-11 3.72325E-11 9.98402E+03
 -1       757 1.99996E-10 4.58675E-10 1.39196E+04
 -1       758 1.56736E-10 8.12107E-11 4.68871E+03
 -1       759 1.58227E-10-3.48983E-10-4.57147E+03
 -1       760 1.82378E-10-7.89054E-10-1.38154E+04
 -1       761 1.87631E-10-1.20719E-09-2.30048E+04
 -1       762 1.84734E-10-1.62896E-09-3.20959E+04
 -1       763 4.43258E-11-3.72562E-10-3.32783E+04
 -1       764 3.51809E-11-2.50412E-10-1.63505E+04
 -1       765 1.48951E-11-1.09058E-10-4.52010E+03
 -1       766 0.00000E+00 0.00000E+00 0.00000E+00
 -1       767 0.00000E+00 0.00000E+00 0.00000E+00
 -1       768 2.02265E-11 7.51071E-12 1.36534E+03
 -1       769 4.79393E-11 1.56351E-11 4.54864E+03
 -1       770 1.05024E-10 2.13565E-11 8.22573E+03
 -1       771 4.72090E-10 3.78664E-10 7.59657E+03
 -1       772 5.41897E-10 5.53297E-11-1.58592E+03
 -1       773 5.67586E-10-3.39172E-10-1.08185E+04
 -1       774 6.01497E-10-7.46995E-10-2.00173E+04
 -1       775 5.94642E-10-1.18318E-09-2.90718E+04
 -1       776 4.69948E-10-1.39273E-09-3.79152E+04
 -1       777-7.87834E-11-3.91574E-10-3.19487E+04
 -1       778-7.20477E-11-2.94099E-10-1.71207E+04
 -1       779-3.77300E-11-1.20850E-10-5.02264E+03
 -1       780 0.00000E+00 0.00000E+00 0.00000E+00
 -1       781 0.00000E+00 0.00000E+00 0.00000E+00
 -1       782 2.09093E-11 2.06221E-12 1.00682E+03
 -1       783 4.42120E-11-4.57070E-12 3.32010E+03
 -1       784 4.11598E-11 3.35594E-11 4.99471E+03
 -1       785 2.26660E-11 9.66169E-11 4.55155E+03
 -1       786 1.65119E-11 5.49774E-11 3.65218E+03
 -1       787-3.21973E-10 2.52882E-10-3.48322E+04
 -1       788-2.56822E-10-2.95676E-10-3.19489E+04
 -1       789-2.44166E-10-3.57673E-10-2.50330E+04
 -1       790-2.08037E-10-4.12200E-10-1.46421E+04
 -1       791-1.57254E-10-1.52506E-10-4.29226E+03
 -1       792 0.00000E+00 0.00000E+00 0.00000E+00
 -1       793-1.14448E-11-1.83758E-11 1.74845E+03
 -1       794-3.50620E-12 3.17321E-11 2.50001E+03
 -1       795 1.10134E-11 4.94288E-11 2.33464E+03
 -1       796 1.74013E-11 4.96434E-11 1.77895E+03
 -1       797-2.32695E-11 1.12601E-10-1.74599E+04
 -1       798-4.81249E-11-6.93333E-11-1.72190E+04
 -1       799-4.38889E-11-2.58049E-10-1.46489E+04
 -1       800-8.16098E-11-5.28959E-10-8.91534E+03
 -1       801-5.55797E-12 2.36447E-11 6.83598E+02
 -1       802 5.13693E-13 2.26736E-11 6.43885E+02
 -1       803 3.62349E-12 1.94152E-11 4.05142E+02
 -1       804 2.48504E-12 1.63037E-12-5.65783E+01
 -1       805 5.11035E-12-3.39809E-13-1.30734E+03
 -1       806 2.96951E-11-6.22541E-12-4.00044E+03
 -1       807 3.05231E-11-4.62553E-11-4.99570E+03
 -1       808-6.04476E-12-1.04661E-10-4.26105E+03
 -1       809 0.00000E+00 0.00000E+00 0.00000E+00
 -1       810 0.00000E+00 0.00000E+00 0.00000E+00
 -1       811 0.00000E+00 0.00000E+00 0.00000E+00
 -1       812 0.00000E+00 0.00000E+00 0.00000E+00
 -1       813 0.00000E+00 0.00000E+00 0.00000E+00
 -1       814 0.00000E+00 0.00000E+00 0.00000E+00
 -1       815 0.00000E+00 0.00000E+00 0.00000E+00
 -1       816 0.00000E+00 0.00000E+00 0.00000E+00
 -1       817 0.00000E+00 0.00000E+00 0.00000E+00
 -1       818 0.00000E+00 0.00000E+00 0.00000E+00
 -1       819 0.00000E+00 0.00000E+00 0.00000E+00
 -1       820 0.00000E+00 0.00000E+00 0.00000E+00
 -1       821 0.00000E+00 0.00000E+00 0.00000E+00
 -1       822 0.00000E+00 0.00000E+00 0.00000E+00
 -1       823 0.00000E+00 0.00000E+00 0.00000E+00
 -1       824 0.00000E+00 0.00000E+00 0.00000E+00
 -1       825 0.00000E+00 0.00000E+00 0.00000E+00
 -1       826 0.00000E+00 0.00000E+00 0.00000E+00
 -1       827 0.00000E+00 0.00000E+00 0.00000E+00
 -1       828 0.00000E+00 0.00000E+00 0.00000E+00
 -1       829 0.00000E+00 0.00000E+00 0.00000E+00
 -1       830 0.00000E+00 0.00000E+00 0.00000E+00
 -1       831 0.00000E+00 0.00000E+00 0.00000E+00
 -1       832-6.01941E+01-3.61230E+02 9.88341E+02
 -1       833 1.05026E+01-3.99166E+02 1.20170E+03
 -1       834 4.10476E+01-3.18955E+02 9.47298E+02
 -1       835 5.14263E+01-1.59602E+02 4.50350E+02
 -1       836 2.00907E+01-1.85009E+01 8.61180E+01
 -1       837 9.03292E+00 2.79254E+01-7.61933E+01
 -1       838 2.50898E+00 4.53628E+01-1.36574E+02
 -1       839-4.77543E+00 4.93154E+01-1.36355E+02
 -1       840-1.16096E+02-7.28655E+02 4.16293E+03
 -1       841-3.47485E+01-7.67290E+02 4.59076E+03
 -1       842 2.61522E+01-7.52411E+02 4.62993E+03
 -1       843 7.05547E+01-7.12132E+02 4.30618E+03
 -1       844 1.35572E+02-6.14459E+02 3.70327E+03
 -1       845 1.59838E+02-4.79874E+02 2.84199E+03
 -1       846 1.77157E+02-3.35208E+02 1.84619E+03
 -1       847 1.28640E+02-1.51779E+02 8.99607E+02
 -1       848 7.37381E+01-1.39229E+01 1.94164E+02
 -1       849 4.52529E+01 2.58511E+01-1.18652E+02
 -1       850 2.46026E+01 5.17674E+01-3.16606E+02
 -1       851 1.77187E+01 7.41367E+01-4.46411E+02
 -1       852 1.12730E+01 8.76880E+01-5.29207E+02
 -1       853 4.48301E+00 9.67461E+01-5.72522E+02
 -1       854-6.62873E+00 9.94514E+01-5.71773E+02
 -1       855-1.80371E+02-8.86747E+02 8.88219E+03
 -1       856 4.67564E+01-1.01718E+03 9.73573E+03
 -1       857 2.74085E+02-7.82502E+02 7.77921E+03
 -1       858 3.00339E+02-5.30245E+02 4.44003E+03
 -1       859 8.17865E+01 3.87936E+01 8.09581E+01
 -1       860 5.19285E+01 7.97306E+01-6.99593E+02
 -1       861 2.45591E+01 1.23799E+02-1.14580E+03
 -1       862-9.71821E-01 1.38590E+02-1.26318E+03
 -1       863-6.67985E+02-6.42417E+02 8.21070E+03
 -1       864-5.30790E+02-7.79267E+02 1.16805E+04
 -1       865-3.55004E+02-9.49678E+02 1.41952E+04
 -1       866-1.92661E+02-1.12430E+03 1.57916E+04
 -1       867 4.07504E+01-1.29794E+03 1.63712E+04
 -1       868 2.98856E+02-1.11516E+03 1.50479E+04
 -1       869 4.43267E+02-9.01762E+02 1.26700E+04
 -1       870 4.07723E+02-7.56563E+02 1.02361E+04
 -1       871 3.83405E+02-6.68935E+02 7.89635E+03
 -1       872 9.51864E+01 7.38580E+01-2.41783E+02
 -1       873 8.67684E+01 8.20516E+01-7.69741E+02
 -1       874 7.27775E+01 1.12543E+02-1.23666E+03
 -1       875 6.23799E+01 1.30505E+02-1.64186E+03
 -1       876 4.76986E+01 1.56333E+02-1.95258E+03
 -1       877 1.65900E+01 1.68901E+02-2.12250E+03
 -1       878-1.73499E+00 1.76880E+02-2.17943E+03
 -1       879-5.82243E+01 1.71246E+02-1.97144E+03
 -1       880-1.04268E+02 1.51780E+02-1.49701E+03
 -1       881-7.84728E+02-5.35906E+02 1.16517E+04
 -1       882-5.43975E+02-8.79920E+02 1.95280E+04
 -1       883-3.46416E+02-1.34315E+03 2.44445E+04
 -1       884 8.62861E+01 1.31219E+02-1.97740E+03
 -1       885 7.33967E+01 1.73284E+02-2.90677E+03
 -1       886-2.43410E+01 2.10423E+02-3.29107E+03
 -1       887-1.25909E+02 1.55397E+02-2.38968E+03
 -1       888 0.00000E+00 0.00000E+00 0.00000E+00
 -1       889-3.61018E+02-6.48730E+01 9.75909E+02
 -1       890-7.26360E+02-1.36412E+02 4.12223E+03
 -1       891-8.83449E+02-2.23926E+02 8.81660E+03
 -1       892-9.66472E+02-3.61790E+02 1.41801E+04
 -1       893-8.96422E+02-5.59584E+02 1.96002E+04
 -1       894-7.97344E+02-8.25703E+02 2.45512E+04
 -1       895-6.34606E+02-1.04751E+03 2.85309E+04
 -1       896-6.32633E+02-1.22918E+03 3.23163E+04
 -1       897 9.09541E+01 1.41249E+02-2.77969E+03
 -1       898 1.06654E+02 1.65330E+02-3.36545E+03
 -1       899 1.29255E+02 1.85886E+02-4.01336E+03
 -1       900 7.09424E+01 2.62661E+02-4.57675E+03
 -1       901-5.41164E+01 2.55299E+02-4.66416E+03
 -1       902-1.22760E+02 1.98887E+02-4.13304E+03
 -1       903-1.82131E+02 1.49172E+02-3.22840E+03
 -1       904-1.98863E+02 7.95654E+01-2.13229E+03
 -1       905-1.81027E+02 4.45280E+01-1.01747E+03
 -1       906-8.91417E+01 1.96194E+01-2.37143E+02
 -1       907 0.00000E+00 0.00000E+00 0.00000E+00
 -1       908 0.00000E+00 0.00000E+00 0.00000E+00
 -1       909-7.86428E+02-6.77697E+01 4.71189E+03
 -1       910-1.10378E+03-2.38276E+02 1.59437E+04
 -1       911-1.05847E+03-6.13042E+02 2.85781E+04
 -1       912-3.68345E+02-5.12215E+02 3.70865E+04
 -1       913 3.35883E+02 3.00874E+02-5.18947E+03
 -1       914-1.24822E+02 3.36049E+02-6.32876E+03
 -1       915-2.63560E+02 1.10926E+02-4.00066E+03
 -1       916-2.02297E+02 2.28095E+01-1.21505E+03
 -1       917 0.00000E+00 0.00000E+00 0.00000E+00
 -1       918 0.00000E+00 0.00000E+00 0.00000E+00
 -1       919-4.27828E+02 4.10094E-01 1.28823E+03
 -1       920-8.12603E+02-9.64482E+00 4.94694E+03
 -1       921-1.03668E+03-3.46994E+01 1.03221E+04
 -1       922-1.22759E+03-9.67018E+01 1.69032E+04
 -1       923-1.28015E+03-2.47459E+02 2.42070E+04
 -1       924-1.31231E+03-4.43430E+02 3.17797E+04
 -1       925-5.47334E+02-4.07955E+02 3.72254E+04
 -1       926 5.26668E+02 3.38976E+02 3.81690E+04
 -1       927 7.42739E+02 5.01147E+02 3.38345E+04
 -1       928 7.90078E+02 5.24317E+02 2.94009E+04
 -1       929 7.93036E+02 5.39817E+02 2.49014E+04
 -1       930 7.86127E+02 5.29554E+02 2.03474E+04
 -1       931 7.92004E+02 5.36372E+02 1.57642E+04
 -1       932 7.94589E+02 5.38850E+02 1.11571E+04
 -1       933 8.01026E+02 5.41022E+02 6.53553E+03
 -1       934 8.01477E+02 5.39462E+02 1.91711E+03
 -1       935 7.76195E+02 5.42041E+02-2.69840E+03
 -1       936 6.68249E+02 4.92681E+02-7.27084E+03
 -1       937 1.15161E+02 5.11561E+02-9.07699E+03
 -1       938-2.75552E+02 4.03736E+02-8.46690E+03
 -1       939-3.33022E+02 2.30283E+02-6.65847E+03
 -1       940-3.52182E+02 5.98913E+01-4.51208E+03
 -1       941-2.78719E+02 1.64380E+01-2.70432E+03
 -1       942-2.10235E+02 2.72963E+00-1.29513E+03
 -1       943-1.12229E+02 1.49467E-01-3.33707E+02
 -1       944 0.00000E+00 0.00000E+00 0.00000E+00
 -1       945 0.00000E+00 0.00000E+00 0.00000E+00
 -1       946-8.03312E+02 3.75774E+01 4.83699E+03
 -1       947-1.28938E+03 4.66034E+01 1.70752E+04
 -1       948-1.48264E+03-1.13362E+02 3.33001E+04
 -1       949 7.58503E+02 4.94528E+02 3.53304E+04
 -1       950 7.66154E+02 5.11115E+02 2.63595E+04
 -1       951 7.92443E+02 5.35713E+02 1.72503E+04
 -1       952 7.97195E+02 5.38427E+02 8.03150E+03
 -1       953 7.89294E+02 5.38259E+02-1.21789E+03
 -1       954 7.89581E+02 5.32718E+02-1.04288E+04
 -1       955-3.47854E+02-2.92616E+01-4.52320E+03
 -1       956-2.05356E+02-1.87713E+01-1.23237E+03
 -1       957 0.00000E+00 0.00000E+00 0.00000E+00
 -1       958 0.00000E+00 0.00000E+00 0.00000E+00
 -1       959-3.88764E+02 2.10636E+01 1.14544E+03
 -1       960-7.53000E+02 7.76563E+01 4.52252E+03
 -1       961-1.02138E+03 1.56103E+02 9.65778E+03
 -1       962-1.28813E+03 2.17380E+02 1.63381E+04
 -1       963-1.46097E+03 1.62965E+02 2.44354E+04
 -1       964-1.58383E+03 9.45709E+01 3.33326E+04
 -1       965 7.83074E+02 5.26818E+02 3.24159E+04
 -1       966 7.66681E+02 5.09916E+02 2.78678E+04
 -1       967 7.98828E+02 5.35476E+02 2.33266E+04
 -1       968 7.93864E+02 5.31959E+02 1.87479E+04
 -1       969 7.91924E+02 5.34138E+02 1.41500E+04
 -1       970 7.94937E+02 5.36570E+02 9.53452E+03
 -1       971 7.97272E+02 5.39027E+02 4.90763E+03
 -1       972 8.00233E+02 5.40621E+02 2.75131E+02
 -1       973 8.03156E+02 5.42245E+02-4.35618E+03
 -1       974 7.88898E+02 5.38869E+02-8.97810E+03
 -1       975 7.95456E+02 5.43626E+02-1.35993E+04
 -1       976-3.35154E+02-8.93640E+01-4.16429E+03
 -1       977-2.74092E+02-6.24677E+01-2.39295E+03
 -1       978-1.80188E+02-4.54354E+01-1.05436E+03
 -1       979-8.97753E+01-1.32065E+01-2.74403E+02
 -1       980 0.00000E+00 0.00000E+00 0.00000E+00
 -1       981 0.00000E+00 0.00000E+00 0.00000E+00
 -1       982-6.58604E+02 1.27418E+02 3.89921E+03
 -1       983-1.13948E+03 3.36857E+02 1.45917E+04
 -1       984 8.02097E+02 5.30207E+02 2.94303E+04
 -1       985 7.93196E+02 5.31994E+02 2.02599E+04
 -1       986 7.96355E+02 5.35974E+02 1.10447E+04
 -1       987 7.98661E+02 5.38768E+02 1.78081E+03
 -1       988 7.99759E+02 5.40961E+02-7.49144E+03
 -1       989 8.03217E+02 5.42088E+02-1.67491E+04
 -1       990-1.46424E+02 4.77636E+00-9.15014E+02
 -1       991 0.00000E+00 0.00000E+00 0.00000E+00
 -1       992 0.00000E+00 0.00000E+00 0.00000E+00
 -1       993-2.57330E+02 5.74132E+01 7.49950E+02
 -1       994-5.22868E+02 1.83976E+02 2.98669E+03
 -1       995-8.24077E+02 2.94397E+02 6.99698E+03
 -1       996-1.02019E+03 4.16599E+02 1.23400E+04
 -1       997 7.88317E+02 5.27026E+02 2.63908E+04
 -1       998 7.96022E+02 5.31441E+02 2.17848E+04
 -1       999 7.94470E+02 5.31627E+02 1.71754E+04
 -1      1000 7.96605E+02 5.35646E+02 1.25585E+04
 -1      1001 7.97740E+02 5.36709E+02 7.93051E+03
 -1      1002 7.98983E+02 5.38210E+02 3.29385E+03
 -1      1003 7.99507E+02 5.38968E+02-1.34666E+03
 -1      1004 7.99123E+02 5.38524E+02-5.98621E+03
 -1      1005 7.98734E+02 5.38577E+02-1.06220E+04
 -1      1006 7.98581E+02 5.38489E+02-1.52527E+04
 -1      1007 7.96545E+02 5.37651E+02-1.98837E+04
 -1      1008-1.55685E+02 6.92857E+01-1.03752E+03
 -1      1009-9.31231E+01 1.81778E+01-3.14852E+02
 -1      1010 0.00000E+00 0.00000E+00 0.00000E+00
 -1      1011 0.00000E+00 0.00000E+00 0.00000E+00
 -1      1012-3.43606E+02 1.13158E+02 2.05539E+03
 -1      1013 7.95605E+02 5.33233E+02 2.33156E+04
 -1      1014 7.96166E+02 5.35236E+02 1.40719E+04
 -1      1015 7.99081E+02 5.38055E+02 4.80883E+03
 -1      1016 7.99313E+02 5.38124E+02-4.47300E+03
 -1      1017 7.96861E+02 5.35456E+02-1.37416E+04
 -1      1018 7.96398E+02 5.33547E+02-2.29936E+04
 -1      1019-2.99824E+02 1.42120E+02-1.80120E+03
 -1      1020 0.00000E+00 0.00000E+00 0.00000E+00
 -1      1021 0.00000E+00 0.00000E+00 0.00000E+00
 -1      1022-1.32664E+02 4.63914E+00 4.27630E+02
 -1      1023-2.36499E+02 2.82230E+01 1.51350E+03
 -1      1024-2.84823E+02-7.05892E+00 3.00971E+03
 -1      1025-3.15504E+02-3.96821E+01 4.75091E+03
 -1      1026 7.95564E+02 5.37322E+02 2.02070E+04
 -1      1027 7.97955E+02 5.38438E+02 1.55800E+04
 -1      1028 7.98128E+02 5.38404E+02 1.09532E+04
 -1      1029 7.98700E+02 5.38410E+02 6.32049E+03
 -1      1030 7.99324E+02 5.38938E+02 1.68282E+03
 -1      1031 7.99057E+02 5.38249E+02-2.95733E+03
 -1      1032 7.98069E+02 5.36821E+02-7.59515E+03
 -1      1033 7.97155E+02 5.35819E+02-1.22258E+04
 -1      1034 7.95208E+02 5.31906E+02-1.68466E+04
 -1      1035 7.96794E+02 5.31893E+02-2.14606E+04
 -1      1036 7.89383E+02 5.27327E+02-2.60714E+04
 -1      1037-1.01924E+03 4.32371E+02-1.21793E+04
 -1      1038-8.18258E+02 3.10050E+02-6.85520E+03
 -1      1039-5.10591E+02 1.99838E+02-2.89025E+03
 -1      1040-2.49189E+02 6.11490E+01-7.17917E+02
 -1      1041 0.00000E+00 0.00000E+00 0.00000E+00
 -1      1042 0.00000E+00 0.00000E+00 0.00000E+00
 -1      1043-2.37910E+02 9.42599E+00 1.45308E+03
 -1      1044-3.54365E+02-2.35560E+01 4.96051E+03
 -1      1045 8.02921E+02 5.42293E+02 1.70724E+04
 -1      1046 7.99290E+02 5.41017E+02 7.82311E+03
 -1      1047 7.98513E+02 5.38731E+02-1.44448E+03
 -1      1048 7.96784E+02 5.36094E+02-1.07100E+04
 -1      1049 7.93955E+02 5.32418E+02-1.99331E+04
 -1      1050 8.02663E+02 5.30781E+02-2.91148E+04
 -1      1051-1.13691E+03 3.52301E+02-1.45192E+04
 -1      1052-6.53992E+02 1.37118E+02-3.86727E+03
 -1      1053 0.00000E+00 0.00000E+00 0.00000E+00
 -1      1054 0.00000E+00 0.00000E+00 0.00000E+00
 -1      1055-1.23016E+02 2.63671E+00 3.72266E+02
 -1      1056-2.41980E+02-9.82903E-01 1.44479E+03
 -1      1057-3.14593E+02 7.08555E-01 3.05374E+03
 -1      1058-3.79172E+02-1.47458E+00 5.08092E+03
 -1      1059-4.22989E+02 2.90549E+01 7.41857E+03
 -1      1060-4.57054E+02 5.66644E+01 9.98351E+03
 -1      1061 7.94474E+02 5.43962E+02 1.39217E+04
 -1      1062 7.87275E+02 5.38423E+02 9.30536E+03
 -1      1063 8.03073E+02 5.42512E+02 4.68816E+03
 -1      1064 8.00037E+02 5.40646E+02 5.99121E+01
 -1      1065 7.97073E+02 5.38957E+02-4.57113E+03
 -1      1066 7.95148E+02 5.36561E+02-9.19840E+03
 -1      1067 7.92551E+02 5.34263E+02-1.38160E+04
 -1      1068 7.94522E+02 5.32262E+02-1.84179E+04
 -1      1069 7.99357E+02 5.35969E+02-2.30020E+04
 -1      1070 7.68620E+02 5.10425E+02-2.75505E+04
 -1      1071 7.84482E+02 5.27605E+02-3.21057E+04
 -1      1072-1.57551E+03 1.08398E+02-3.32793E+04
 -1      1073-1.45445E+03 1.80416E+02-2.44240E+04
 -1      1074-1.28706E+03 2.31836E+02-1.63504E+04
 -1      1075-1.02143E+03 1.67703E+02-9.67435E+03
 -1      1076-7.54544E+02 8.34280E+01-4.53349E+03
 -1      1077-3.89908E+02 2.32309E+01-1.14776E+03
 -1      1078 0.00000E+00 0.00000E+00 0.00000E+00
 -1      1079 0.00000E+00 0.00000E+00 0.00000E+00
 -1      1080-2.35644E+02 5.43766E+00 1.41613E+03
 -1      1081-3.63315E+02 4.69160E+01 4.92523E+03
 -1      1082-3.99214E+02 1.44988E+02 9.39436E+03
 -1      1083 7.88037E+02 5.31377E+02 1.07481E+04
 -1      1084 7.87844E+02 5.37708E+02 1.55010E+03
 -1      1085 7.97270E+02 5.38359E+02-7.69467E+03
 -1      1086 7.92952E+02 5.35778E+02-1.69169E+04
 -1      1087 7.68117E+02 5.11410E+02-2.60378E+04
 -1      1088 7.60556E+02 4.94879E+02-3.50279E+04
 -1      1089-1.46887E+03-9.52614E+01-3.33375E+04
 -1      1090-1.29109E+03 6.44190E+01-1.71822E+04
 -1      1091-8.10910E+02 4.41432E+01-4.88616E+03
 -1      1092 0.00000E+00 0.00000E+00 0.00000E+00
 -1      1093 0.00000E+00 0.00000E+00 0.00000E+00
 -1      1094-1.18866E+02 2.31849E+00 3.57390E+02
 -1      1095-2.24234E+02 1.51227E+01 1.36886E+03
 -1      1096-2.75372E+02 3.77262E+01 2.81888E+03
 -1      1097-3.17477E+02 8.25028E+01 4.54857E+03
 -1      1098-3.19610E+02 1.60755E+02 6.40959E+03
 -1      1099-3.18214E+02 2.82730E+02 8.21939E+03
 -1      1100 7.26309E+01 4.58072E+02 9.16913E+03
 -1      1101 6.54344E+02 4.84813E+02 7.58850E+03
 -1      1102 7.73267E+02 5.41911E+02 3.02633E+03
 -1      1103 8.01315E+02 5.39169E+02-1.58417E+03
 -1      1104 8.00986E+02 5.40987E+02-6.19900E+03
 -1      1105 7.94220E+02 5.38482E+02-1.08196E+04
 -1      1106 7.92295E+02 5.36241E+02-1.54278E+04
 -1      1107 7.87044E+02 5.29513E+02-2.00144E+04
 -1      1108 7.93646E+02 5.39974E+02-2.45739E+04
 -1      1109 7.90893E+02 5.24659E+02-2.90815E+04
 -1      1110 7.46159E+02 5.01887E+02-3.35251E+04
 -1      1111 5.39727E+02 3.37091E+02-3.78745E+04
 -1      1112-5.02969E+02-3.67822E+02-3.71436E+04
 -1      1113-1.29031E+03-4.18700E+02-3.19310E+04
 -1      1114-1.27498E+03-2.24415E+02-2.44297E+04
 -1      1115-1.23402E+03-7.58559E+01-1.71205E+04
 -1      1116-1.04781E+03-2.08520E+01-1.04861E+04
 -1      1117-8.26472E+02-2.25032E+00-5.03572E+03
 -1      1118-4.35517E+02 2.50664E+00-1.31309E+03
 -1      1119 0.00000E+00 0.00000E+00 0.00000E+00
 -1      1120 0.00000E+00 0.00000E+00 0.00000E+00
 -1      1121-2.05260E+02 3.05672E+01 1.23529E+03
 -1      1122-2.60374E+02 1.04547E+02 4.02749E+03
 -1      1123-1.57022E+02 2.89446E+02 6.52746E+03
 -1      1124 3.27718E+02 2.78154E+02 5.61783E+03
 -1      1125-2.70979E+02-5.12444E+02-3.67662E+04
 -1      1126-1.04274E+03-5.81554E+02-2.88959E+04
 -1      1127-1.11580E+03-2.18651E+02-1.62774E+04
 -1      1128-8.07201E+02-5.97462E+01-4.84542E+03
 -1      1129 0.00000E+00 0.00000E+00 0.00000E+00
 -1      1130 0.00000E+00 0.00000E+00 0.00000E+00
 -1      1131-8.90692E+01 2.02431E+01 2.37321E+02
 -1      1132-1.79604E+02 4.59177E+01 1.00920E+03
 -1      1133-2.05239E+02 8.36568E+01 2.13402E+03
 -1      1134-2.04439E+02 1.33402E+02 3.31777E+03
 -1      1135-1.48217E+02 1.81472E+02 4.35766E+03
 -1      1136-7.02351E+01 2.47917E+02 4.99277E+03
 -1      1137 5.70192E+01 2.57673E+02 5.00660E+03
 -1      1138 1.06896E+02 1.82643E+02 4.55118E+03
 -1      1139 7.83784E+01 1.75779E+02 4.05791E+03
 -1      1140 5.86896E+01 1.56605E+02 3.65278E+03
 -1      1141-9.55961E+01-1.50942E+03-3.48311E+04
 -1      1142-2.33111E+02-1.41746E+03-3.38778E+04
 -1      1143-4.48887E+02-1.21739E+03-3.19326E+04
 -1      1144-5.70208E+02-1.02839E+03-2.88409E+04
 -1      1145-7.88793E+02-7.96272E+02-2.50234E+04
 -1      1146-8.98182E+02-5.35755E+02-2.01037E+04
 -1      1147-9.82001E+02-3.41795E+02-1.46351E+04
 -1      1148-9.06555E+02-2.08122E+02-9.15045E+03
 -1      1149-7.53845E+02-1.28502E+02-4.30344E+03
 -1      1150-3.76599E+02-6.27371E+01-1.02636E+03
 -1      1151 0.00000E+00 0.00000E+00 0.00000E+00
 -1      1152-1.43502E+02 1.43958E+02 2.57137E+03
 -1      1153-3.48447E+01 2.11812E+02 3.64881E+03
 -1      1154 5.73551E+01 1.87390E+02 3.40344E+03
 -1      1155 5.90847E+01 1.59019E+02 2.72404E+03
 -1      1156-1.52325E+01-1.49028E+03-2.60675E+04
 -1      1157-2.74578E+02-1.26802E+03-2.46045E+04
 -1      1158-5.32517E+02-8.95125E+02-2.00830E+04
 -1      1159-7.88881E+02-5.14440E+02-1.22310E+04
 -1      1160-1.19412E+02 1.39261E+02 1.74663E+03
 -1      1161-6.39076E+01 1.72718E+02 2.27012E+03
 -1      1162-4.42098E+00 1.88570E+02 2.49968E+03
 -1      1163 1.05193E+01 1.87308E+02 2.46581E+03
 -1      1164 4.04682E+01 1.82482E+02 2.33481E+03
 -1      1165 4.95937E+01 1.64145E+02 2.08415E+03
 -1      1166 5.29568E+01 1.60619E+02 1.77925E+03
 -1      1167 6.41855E+01-1.47788E+03-1.74609E+04
 -1      1168-1.68918E+01-1.37566E+03-1.75923E+04
 -1      1169-1.01706E+02-1.26961E+03-1.72200E+04
 -1      1170-2.29161E+02-1.12175E+03-1.62665E+04
 -1      1171-3.29848E+02-9.77356E+02-1.46420E+04
 -1      1172-5.12050E+02-7.83535E+02-1.22566E+04
 -1      1173-6.48167E+02-6.34399E+02-8.90636E+03
 -1      1174-1.08671E+00 1.56592E+02 1.49222E+03
 -1      1175 2.35567E+01 1.46214E+02 1.38551E+03
 -1      1176 4.42048E+01 1.21441E+02 9.78955E+02
 -1      1177 1.56307E+02-1.15717E+03-9.67301E+03
 -1      1178-2.04483E+01-1.05135E+03-1.04751E+04
 -1      1179-2.00602E+02-9.11204E+02-9.16094E+03
 -1      1180-8.05791E+00 1.19211E+02 6.85663E+02
 -1      1181 4.27596E+00 1.15980E+02 6.91091E+02
 -1      1182 1.16949E+01 1.07220E+02 6.45671E+02
 -1      1183 2.03964E+01 9.31571E+01 5.53335E+02
 -1      1184 2.99699E+01 7.13457E+01 4.06828E+02
 -1      1185 3.69448E+01 3.37565E+01 1.98047E+02
 -1      1186 4.80514E+01-9.07266E+00-5.73745E+01
 -1      1187 1.06331E+02-8.33770E+01-5.50236E+02
 -1      1188 1.75555E+02-1.98665E+02-1.31356E+03
 -1      1189 2.06219E+02-4.31220E+02-2.61353E+03
 -1      1190 1.91379E+02-7.13258E+02-4.01617E+03
 -1      1191 8.51912E+01-7.93716E+02-4.75769E+03
 -1      1192-1.07566E+00-8.21945E+02-5.00798E+03
 -1      1193-6.04891E+01-8.06579E+02-4.83320E+03
 -1      1194-1.33478E+02-7.56043E+02-4.27254E+03
 -1      1195-5.53748E+00 5.93460E+01 1.65428E+02
 -1      1196 2.91663E+00 5.60560E+01 1.65359E+02
 -1      1197 9.50158E+00 3.47427E+01 1.00377E+02
 -1      1198 1.66896E+01-3.63833E+00-3.05847E+01
 -1      1199 4.71355E+01-1.18651E+02-3.83645E+02
 -1      1200 6.26327E+01-3.47969E+02-9.82500E+02
 -1      1201 1.29093E+00-4.37278E+02-1.29793E+03
 -1      1202-6.46804E+01-3.72666E+02-1.00756E+03
 -1      1203 0.00000E+00 0.00000E+00 0.00000E+00
 -1      1204 0.00000E+00 0.00000E+00 0.00000E+00
 -1      1205 0.00000E+00 0.00000E+00 0.00000E+00
 -1      1206 0.00000E+00 0.00000E+00 0.00000E+00
 -1      1207 0.00000E+00 0.00000E+00 0.00000E+00
 -1      1208 0.00000E+00 0.00000E+00 0.00000E+00
 -1      1209 0.00000E+00 0.00000E+00 0.00000E+00
 -1      1210 0.00000E+00 0.00000E+00 0.00000E+00
 -1      1211 0.00000E+00 0.00000E+00 0.00000E+00
 -1      1212 0.00000E+00 0.00000E+00 0.00000E+00
 -1      1213 0.00000E+00 0.00000E+00 0.00000E+00
 -1      1214 0.00000E+00 0.00000E+00 0.00000E+00
 -1      1215 0.00000E+00 0.00000E+00 0.00000E+00
 -1      1216 0.00000E+00 0.00000E+00 0.00000E+00
 -1      1217 0.00000E+00 0.00000E+00 0.00000E+00
 -1      1218 1.31733E+03 8.77168E+02 3.81711E+04
 -1      1219 1.49442E+03 1.00093E+03 2.94036E+04
 -1      1220 1.50828E+03 1.01995E+03 2.03486E+04
 -1      1221 1.51962E+03 1.02915E+03 1.11562E+04
 -1      1222 1.52426E+03 1.03189E+03 1.91596E+03
 -1      1223 1.42565E+03 9.91292E+02-7.27110E+03
 -1      1224 1.49639E+03 9.95027E+02 3.24179E+04
 -1      1225 1.50823E+03 1.00933E+03 2.33221E+04
 -1      1226 1.51425E+03 1.02070E+03 1.41503E+04
 -1      1227 1.52295E+03 1.02895E+03 4.90719E+03
 -1      1228 1.52613E+03 1.03344E+03-4.35537E+03
 -1      1229 1.52090E+03 1.03642E+03-1.35990E+04
 -1      1230 1.51620E+03 1.01177E+03 2.63916E+04
 -1      1231 1.51790E+03 1.01672E+03 1.71756E+04
 -1      1232 1.52376E+03 1.02543E+03 7.93032E+03
 -1      1233 1.52658E+03 1.02886E+03-1.34664E+03
 -1      1234 1.52509E+03 1.02838E+03-1.06217E+04
 -1      1235 1.52474E+03 1.02688E+03-1.98831E+04
 -1      1236 1.52332E+03 1.02650E+03 2.02064E+04
 -1      1237 1.52396E+03 1.02813E+03 1.09529E+04
 -1      1238 1.52623E+03 1.02879E+03 1.68277E+03
 -1      1239 1.52438E+03 1.02563E+03-7.59499E+03
 -1      1240 1.51928E+03 1.01729E+03-1.68468E+04
 -1      1241 1.51782E+03 1.01248E+03-2.60722E+04
 -1      1242 1.51921E+03 1.03673E+03 1.39214E+04
 -1      1243 1.52521E+03 1.03353E+03 4.68728E+03
 -1      1244 1.52272E+03 1.02886E+03-4.57072E+03
 -1      1245 1.51531E+03 1.02093E+03-1.38163E+04
 -1      1246 1.50997E+03 1.01021E+03-2.29977E+04
 -1      1247 1.49886E+03 9.96449E+02-3.21078E+04
 -1      1248 1.41405E+03 9.84933E+02 7.58888E+03
 -1      1249 1.52328E+03 1.03151E+03-1.58291E+03
 -1      1250 1.51938E+03 1.02871E+03-1.08186E+04
 -1      1251 1.50961E+03 1.01991E+03-2.00156E+04
 -1      1252 1.49660E+03 1.00163E+03-2.90841E+04
 -1      1253 1.32870E+03 8.76026E+02-3.78764E+04
 -1      1254 2.09480E+03 1.40292E+03 3.81803E+04
 -1      1255 2.14557E+03 1.43797E+03 3.38201E+04
 -1      1256 2.20262E+03 1.48123E+03 2.94041E+04
 -1      1257 2.21414E+03 1.49972E+03 2.48978E+04
 -1      1258 2.22925E+03 1.50925E+03 2.03503E+04
 -1      1259 2.23847E+03 1.51575E+03 1.57641E+04
 -1      1260 2.24472E+03 1.51989E+03 1.11549E+04
 -1      1261 2.24704E+03 1.52120E+03 6.53657E+03
 -1      1262 2.24849E+03 1.52380E+03 1.91520E+03
 -1      1263 2.21877E+03 1.52825E+03-2.69022E+03
 -1      1264 2.17984E+03 1.49138E+03-7.27269E+03
 -1      1265 2.16763E+03 1.42738E+03 3.53209E+04
 -1      1266 2.19754E+03 1.47707E+03 2.63650E+04
 -1      1267 2.22943E+03 1.50723E+03 1.72482E+04
 -1      1268 2.24609E+03 1.51904E+03 8.03188E+03
 -1      1269 2.24439E+03 1.52451E+03-1.22011E+03
 -1      1270 2.23611E+03 1.51672E+03-1.04326E+04
 -1      1271 2.21359E+03 1.46642E+03 3.24178E+04
 -1      1272 2.20976E+03 1.46414E+03 2.78724E+04
 -1      1273 2.21653E+03 1.48224E+03 2.33176E+04
 -1      1274 2.22821E+03 1.49654E+03 1.87457E+04
 -1      1275 2.23710E+03 1.50759E+03 1.41502E+04
 -1      1276 2.24481E+03 1.51448E+03 9.53442E+03
 -1      1277 2.24877E+03 1.51879E+03 4.90675E+03
 -1      1278 2.25060E+03 1.52218E+03 2.74837E+02
 -1      1279 2.24881E+03 1.52470E+03-4.35455E+03
 -1      1280 2.24654E+03 1.52665E+03-8.97775E+03
 -1      1281 2.24723E+03 1.52936E+03-1.35984E+04
 -1      1282 2.23263E+03 1.47905E+03 2.94273E+04
 -1      1283 2.23100E+03 1.49281E+03 2.02574E+04
 -1      1284 2.24466E+03 1.51051E+03 1.10438E+04
 -1      1285 2.25189E+03 1.51902E+03 1.78067E+03
 -1      1286 2.25119E+03 1.52279E+03-7.49034E+03
 -1      1287 2.25099E+03 1.52399E+03-1.67490E+04
 -1      1288 2.24305E+03 1.49527E+03 2.63926E+04
 -1      1289 2.24095E+03 1.49476E+03 2.17827E+04
 -1      1290 2.24167E+03 1.50230E+03 1.71754E+04
 -1      1291 2.24538E+03 1.50935E+03 1.25575E+04
 -1      1292 2.24983E+03 1.51414E+03 7.93001E+03
 -1      1293 2.25264E+03 1.51731E+03 3.29354E+03
 -1      1294 2.25385E+03 1.51894E+03-1.34660E+03
 -1      1295 2.25279E+03 1.51874E+03-5.98583E+03
 -1      1296 2.25149E+03 1.51816E+03-1.06212E+04
 -1      1297 2.25152E+03 1.51801E+03-1.52523E+04
 -1      1298 2.25297E+03 1.51659E+03-1.98824E+04
 -1      1299 2.24889E+03 1.50670E+03 2.33154E+04
 -1      1300 2.24761E+03 1.51129E+03 1.40718E+04
 -1      1301 2.25266E+03 1.51699E+03 4.80839E+03
 -1      1302 2.25336E+03 1.51719E+03-4.47262E+03
 -1      1303 2.24938E+03 1.51187E+03-1.37415E+04
 -1      1304 2.25082E+03 1.50747E+03-2.29934E+04
 -1      1305 2.25111E+03 1.51618E+03 2.02055E+04
 -1      1306 2.24967E+03 1.51768E+03 1.55796E+04
 -1      1307 2.24985E+03 1.51782E+03 1.09524E+04
 -1      1308 2.25161E+03 1.51848E+03 6.32005E+03
 -1      1309 2.25333E+03 1.51883E+03 1.68270E+03
 -1      1310 2.25284E+03 1.51739E+03-2.95709E+03
 -1      1311 2.25075E+03 1.51443E+03-7.59472E+03
 -1      1312 2.24694E+03 1.50989E+03-1.22249E+04
 -1      1313 2.24370E+03 1.50315E+03-1.68466E+04
 -1      1314 2.24317E+03 1.49594E+03-2.14585E+04
 -1      1315 2.24526E+03 1.49641E+03-2.60732E+04
 -1      1316 2.24895E+03 1.52395E+03 1.70723E+04
 -1      1317 2.24953E+03 1.52267E+03 7.82190E+03
 -1      1318 2.25151E+03 1.51894E+03-1.44441E+03
 -1      1319 2.24584E+03 1.51086E+03-1.07092E+04
 -1      1320 2.23344E+03 1.49392E+03-1.99306E+04
 -1      1321 2.23534E+03 1.48066E+03-2.91118E+04
 -1      1322 2.24490E+03 1.52970E+03 1.39206E+04
 -1      1323 2.24423E+03 1.52664E+03 9.30493E+03
 -1      1324 2.24701E+03 1.52461E+03 4.68639E+03
 -1      1325 2.24958E+03 1.52204E+03 6.01719E+01
 -1      1326 2.24852E+03 1.51869E+03-4.57032E+03
 -1      1327 2.24542E+03 1.51454E+03-9.19834E+03
 -1      1328 2.23857E+03 1.50793E+03-1.38163E+04
 -1      1329 2.23045E+03 1.49729E+03-1.84158E+04
 -1      1330 2.21953E+03 1.48350E+03-2.29932E+04
 -1      1331 2.21322E+03 1.46598E+03-2.75551E+04
 -1      1332 2.21702E+03 1.46850E+03-3.21078E+04
 -1      1333 2.23270E+03 1.51519E+03 1.07524E+04
 -1      1334 2.24227E+03 1.52423E+03 1.55249E+03
 -1      1335 2.24597E+03 1.51879E+03-7.69511E+03
 -1      1336 2.23121E+03 1.50744E+03-1.69149E+04
 -1      1337 2.20127E+03 1.47827E+03-2.60431E+04
 -1      1338 2.17265E+03 1.42890E+03-3.50182E+04
 -1      1339 2.17028E+03 1.48657E+03 7.59066E+03
 -1      1340 2.21355E+03 1.52812E+03 3.01730E+03
 -1      1341 2.24683E+03 1.52334E+03-1.58206E+03
 -1      1342 2.24599E+03 1.52056E+03-6.20025E+03
 -1      1343 2.24459E+03 1.51938E+03-1.08173E+04
 -1      1344 2.23931E+03 1.51546E+03-1.54277E+04
 -1      1345 2.23105E+03 1.50923E+03-2.00172E+04
 -1      1346 2.21688E+03 1.50005E+03-2.45704E+04
 -1      1347 2.20604E+03 1.48224E+03-2.90846E+04
 -1      1348 2.15215E+03 1.44008E+03-3.35114E+04
 -1      1349 2.10484E+03 1.40271E+03-3.78853E+04
 -1      1350 2.80089E+03 1.86922E+03 3.81811E+04
 -1      1351 2.90352E+03 1.95745E+03 2.94020E+04
 -1      1352 2.94650E+03 1.99667E+03 2.03495E+04
 -1      1353 2.96877E+03 2.00986E+03 1.11546E+04
 -1      1354 2.97068E+03 2.01593E+03 1.91577E+03
 -1      1355 2.90762E+03 1.98885E+03-7.27282E+03
 -1      1356 2.92623E+03 1.93120E+03 3.24159E+04
 -1      1357 2.93187E+03 1.96078E+03 2.33161E+04
 -1      1358 2.95947E+03 1.99381E+03 1.41495E+04
 -1      1359 2.97498E+03 2.00899E+03 4.90651E+03
 -1      1360 2.97435E+03 2.01652E+03-4.35430E+03
 -1      1361 2.97218E+03 2.02274E+03-1.35982E+04
 -1      1362 2.96711E+03 1.97554E+03 2.63918E+04
 -1      1363 2.96478E+03 1.98734E+03 1.71745E+04
 -1      1364 2.97606E+03 2.00293E+03 7.92946E+03
 -1      1365 2.98132E+03 2.00917E+03-1.34653E+03
 -1      1366 2.97805E+03 2.00844E+03-1.06208E+04
 -1      1367 2.97963E+03 2.00643E+03-1.98819E+04
 -1      1368 2.97716E+03 2.00591E+03 2.02050E+04
 -1      1369 2.97585E+03 2.00801E+03 1.09519E+04
 -1      1370 2.98062E+03 2.00903E+03 1.68257E+03
 -1      1371 2.97728E+03 2.00332E+03-7.59422E+03
 -1      1372 2.96748E+03 1.98847E+03-1.68458E+04
 -1      1373 2.97002E+03 1.97714E+03-2.60724E+04
 -1      1374 2.96909E+03 2.02311E+03 1.39204E+04
 -1      1375 2.97194E+03 2.01638E+03 4.68609E+03
 -1      1376 2.97465E+03 2.00886E+03-4.57012E+03
 -1      1377 2.96142E+03 1.99427E+03-1.38156E+04
 -1      1378 2.93586E+03 1.96243E+03-2.29918E+04
 -1      1379 2.93080E+03 1.93403E+03-3.21059E+04
 -1      1380 2.89754E+03 1.98468E+03 7.59081E+03
 -1      1381 2.96814E+03 2.01535E+03-1.58271E+03
 -1      1382 2.96861E+03 2.00920E+03-1.08171E+04
 -1      1383 2.94895E+03 1.99663E+03-2.00165E+04
 -1      1384 2.90842E+03 1.95883E+03-2.90825E+04
 -1      1385 2.81216E+03 1.87016E+03-3.78860E+04
 -1      1386 3.49743E+03 2.32706E+03 3.81814E+04
 -1      1387 3.53867E+03 2.36696E+03 3.38139E+04
 -1      1388 3.60442E+03 2.43517E+03 2.93994E+04
 -1      1389 3.63912E+03 2.46518E+03 2.48961E+04
 -1      1390 3.66301E+03 2.48360E+03 2.03485E+04
 -1      1391 3.68215E+03 2.49397E+03 1.57632E+04
 -1      1392 3.69275E+03 2.49987E+03 1.11543E+04
 -1      1393 3.69707E+03 2.50314E+03 6.53646E+03
 -1      1394 3.69387E+03 2.50802E+03 1.91640E+03
 -1      1395 3.66312E+03 2.51431E+03-2.68646E+03
 -1      1396 3.63247E+03 2.48660E+03-7.27288E+03
 -1      1397 3.56760E+03 2.34748E+03 3.53171E+04
 -1      1398 3.61384E+03 2.43170E+03 2.63620E+04
 -1      1399 3.66805E+03 2.47975E+03 1.72459E+04
 -1      1400 3.69557E+03 2.49906E+03 8.03148E+03
 -1      1401 3.69402E+03 2.50902E+03-1.21959E+03
 -1      1402 3.67944E+03 2.50640E+03-1.04346E+04
 -1      1403 3.64059E+03 2.39518E+03 3.24135E+04
 -1      1404 3.63805E+03 2.40606E+03 2.78694E+04
 -1      1405 3.64751E+03 2.43981E+03 2.33141E+04
 -1      1406 3.66531E+03 2.46299E+03 1.87429E+04
 -1      1407 3.68232E+03 2.47994E+03 1.41486E+04
 -1      1408 3.69413E+03 2.49169E+03 9.53329E+03
 -1      1409 3.70160E+03 2.49941E+03 4.90620E+03
 -1      1410 3.70269E+03 2.50435E+03 2.74983E+02
 -1      1411 3.69982E+03 2.50810E+03-4.35396E+03
 -1      1412 3.69769E+03 2.51389E+03-8.97721E+03
 -1      1413 3.69766E+03 2.51722E+03-1.35980E+04
 -1      1414 3.67104E+03 2.42922E+03 2.94255E+04
 -1      1415 3.67123E+03 2.45568E+03 2.02545E+04
 -1      1416 3.69423E+03 2.48588E+03 1.10424E+04
 -1      1417 3.70632E+03 2.49967E+03 1.78042E+03
 -1      1418 3.70404E+03 2.50543E+03-7.48955E+03
 -1      1419 3.70304E+03 2.50872E+03-1.67483E+04
 -1      1420 3.69061E+03 2.45510E+03 2.63906E+04
 -1      1421 3.68677E+03 2.45938E+03 2.17802E+04
 -1      1422 3.68788E+03 2.47269E+03 1.71734E+04
 -1      1423 3.69518E+03 2.48396E+03 1.25559E+04
 -1      1424 3.70260E+03 2.49197E+03 7.92873E+03
 -1      1425 3.70717E+03 2.49706E+03 3.29302E+03
 -1      1426 3.70906E+03 2.49957E+03-1.34644E+03
 -1      1427 3.70722E+03 2.49972E+03-5.98516E+03
 -1      1428 3.70479E+03 2.49899E+03-1.06201E+04
 -1      1429 3.70417E+03 2.49761E+03-1.52512E+04
 -1      1430 3.70615E+03 2.49640E+03-1.98812E+04
 -1      1431 3.70018E+03 2.47818E+03 2.33141E+04
 -1      1432 3.69787E+03 2.48701E+03 1.40702E+04
 -1      1433 3.70719E+03 2.49653E+03 4.80765E+03
 -1      1434 3.70836E+03 2.49685E+03-4.47201E+03
 -1      1435 3.70083E+03 2.48796E+03-1.37400E+04
 -1      1436 3.70337E+03 2.47950E+03-2.29922E+04
 -1      1437 3.70306E+03 2.49577E+03 2.02043E+04
 -1      1438 3.70108E+03 2.49704E+03 1.55784E+04
 -1      1439 3.70203E+03 2.49848E+03 1.09512E+04
 -1      1440 3.70528E+03 2.49932E+03 6.31926E+03
 -1      1441 3.70818E+03 2.49939E+03 1.68241E+03
 -1      1442 3.70750E+03 2.49718E+03-2.95669E+03
 -1      1443 3.70413E+03 2.49244E+03-7.59357E+03
 -1      1444 3.69776E+03 2.48486E+03-1.22234E+04
 -1      1445 3.69126E+03 2.47410E+03-1.68447E+04
 -1      1446 3.69044E+03 2.46132E+03-2.14562E+04
 -1      1447 3.69425E+03 2.45718E+03-2.60713E+04
 -1      1448 3.69966E+03 2.50873E+03 1.70716E+04
 -1      1449 3.70124E+03 2.50519E+03 7.82101E+03
 -1      1450 3.70570E+03 2.49954E+03-1.44428E+03
 -1      1451 3.69618E+03 2.48645E+03-1.07079E+04
 -1      1452 3.67530E+03 2.45748E+03-1.99279E+04
 -1      1453 3.67556E+03 2.43210E+03-2.91101E+04
 -1      1454 3.69386E+03 2.51774E+03 1.39202E+04
 -1      1455 3.69402E+03 2.51407E+03 9.30434E+03
 -1      1456 3.69676E+03 2.50787E+03 4.68569E+03
 -1      1457 3.70092E+03 2.50407E+03 5.99022E+01
 -1      1458 3.70120E+03 2.49925E+03-4.56988E+03
 -1      1459 3.69513E+03 2.49182E+03-9.19734E+03
 -1      1460 3.68474E+03 2.48052E+03-1.38148E+04
 -1      1461 3.66908E+03 2.46420E+03-1.84131E+04
 -1      1462 3.65251E+03 2.44183E+03-2.29899E+04
 -1      1463 3.64364E+03 2.40924E+03-2.75522E+04
 -1      1464 3.64623E+03 2.39887E+03-3.21036E+04
 -1      1465 3.67382E+03 2.50530E+03 1.07547E+04
 -1      1466 3.69058E+03 2.50868E+03 1.55187E+03
 -1      1467 3.69532E+03 2.49864E+03-7.69485E+03
 -1      1468 3.67102E+03 2.48010E+03-1.69128E+04
 -1      1469 3.61999E+03 2.43373E+03-2.60402E+04
 -1      1470 3.57587E+03 2.35089E+03-3.50143E+04
 -1      1471 3.62157E+03 2.48305E+03 7.59088E+03
 -1      1472 3.65585E+03 2.51415E+03 3.01310E+03
 -1      1473 3.69053E+03 2.50733E+03-1.58344E+03
 -1      1474 3.69532E+03 2.50213E+03-6.20024E+03
 -1      1475 3.69252E+03 2.49905E+03-1.08168E+04
 -1      1476 3.68362E+03 2.49346E+03-1.54269E+04
 -1      1477 3.66617E+03 2.48356E+03-2.00155E+04
 -1      1478 3.64383E+03 2.46579E+03-2.45688E+04
 -1      1479 3.61078E+03 2.43691E+03-2.90800E+04
 -1      1480 3.54856E+03 2.37047E+03-3.35056E+04
 -1      1481 3.51027E+03 2.32927E+03-3.78864E+04
 -3
    1PSTEP                        10           1           1          
    1PGM                1.000000E+00                                  
    1PGK                9.703723E+10                                  
    1PHID                         -1                                  
    1PSUBC                         0                                  
    1PMODE                         3                                  
  100CL  103 49578.03666        1481                     2    3MODAL      1
 -4  STRESS      6    1
 -5  SXX         1    4    1    1
 -5  SYY         1    4    2    2
 -5  SZZ         1    4    3    3
 -5  SXY         1    4    1    2
 -5  SYZ         1    4    2    3
 -5  SZX         1    4    3    1
 -1         1-3.47391E+07-2.00026E+07-1.61034E+07-3.13851E+07 1.55565E+07 2.17939E+07
 -1         2-4.86801E+07-1.32304E+07 1.77144E+06-2.99572E+07-2.86523E+06 6.19162E+06
 -1         3-5.27237E+07-7.34899E+06-1.67198E+06-1.87161E+07 5.91438E+06 2.74094E+06
 -1         4-2.48728E+07 4.94792E+05-3.90874E+05-6.83009E+06 2.13855E+06 4.64087E+06
 -1         5-1.72354E+07 5.66774E+05 1.46712E+06-4.33002E+06-9.20352E+05-2.15733E+06
 -1         6-1.29128E+07-5.61702E+05-4.19374E+05-2.62569E+06 3.20465E+04 5.54232E+05
 -1         7-6.16296E+06-4.56309E+05 3.28439E+05-1.42257E+06 7.22241E+05-1.32888E+06
 -1         8-8.28757E+05-1.11515E+06-1.40317E+05-8.15330E+05-2.04303E+05 1.85388E+06
 -1         9 1.78999E+07 4.05194E+06 2.55757E+06-3.92163E+06-3.55377E+04-1.00284E+06
 -1        10 2.58961E+07 2.02813E+06-2.73464E+06-6.01714E+06-5.88392E+05 9.02804E+05
 -1        11 2.30533E+07-1.33943E+07 2.84517E+06-5.51992E+06 4.27289E+06 1.09719E+07
 -1        12-1.33987E+07-3.27918E+07-3.07312E+05-2.92523E+07 6.35997E+06-3.76635E+06
 -1        13-3.59989E+07-1.28741E+07-2.93699E+06-2.38607E+07 2.11519E+06-1.40601E+05
 -1        14-1.81205E+07-3.12591E+06 1.40152E+06-8.02582E+06-7.14169E+05-2.06044E+06
 -1        15-5.81174E+06-1.57572E+06-5.17832E+05-3.15772E+06 1.20619E+05-1.44944E+06
 -1        16 7.19138E+06 2.21220E+06 8.33430E+05-4.65971E+06 6.17796E+05 6.60862E+05
 -1        17 2.71569E+06-1.15574E+07 2.48076E+06-4.33205E+06-1.27553E+06-1.79618E+06
 -1        18-4.88109E+06-4.35720E+07 2.19168E+05-1.81224E+07 3.71213E+06 6.86151E+06
 -1        19-1.31673E+07-3.38273E+07-2.68893E+06-2.34413E+07-8.65314E+05 3.00111E+06
 -1        20-1.85404E+07-1.70588E+07 1.94277E+06-2.39956E+07 1.40161E+06 8.52656E+05
 -1        21-1.77034E+07-1.16418E+07 1.25136E+06-1.49766E+07 8.31205E+05 4.31531E+04
 -1        22-1.55272E+07-8.05108E+06-9.88817E+05-9.99084E+06-2.74498E+04 5.44078E+05
 -1        23-9.46361E+06-4.47117E+06-6.00964E+04-6.80076E+06 8.25074E+04 3.11457E+05
 -1        24-3.92760E+06-1.60034E+06 2.99677E+05-4.07906E+06 3.11580E+05 1.41623E+05
 -1        25 7.51437E+05 1.68892E+05-1.84965E+05-3.47448E+06-4.21422E+05-2.80008E+05
 -1        26 3.92072E+06 2.13679E+06-3.40002E+05-4.11229E+06-9.89416E+05-6.36409E+05
 -1        27 2.35278E+06 4.95943E+06 1.68021E+05-3.48110E+06 8.33580E+05 1.52915E+06
 -1        28-1.80887E+06-1.04176E+06-2.30629E+06-2.41678E+06-2.03801E+06 2.24340E+06
 -1        29-2.26265E+05-2.56883E+07-5.68665E+05-7.40068E+06 4.03707E+06 2.21245E+06
 -1        30-1.31800E+07-1.73174E+07 1.23367E+06-1.48415E+07 3.77816E+05 6.15287E+05
 -1        31-1.13394E+07-8.45798E+06-6.07391E+05-6.78215E+06-2.50629E+05-6.77330E+04
 -1        32-1.64688E+06-4.78710E+05 1.85127E+05-2.48376E+06 1.62209E+05-1.90252E+05
 -1        33 3.97304E+06 4.91444E+06-2.53214E+05-1.59475E+06-3.55077E+05-1.96307E+05
 -1        34 1.10442E+06 9.24957E+06 3.32012E+05-1.57373E+06 2.81935E+05 5.57753E+05
 -1        35 2.75957E+05-1.97374E+07 1.53139E+06-4.40864E+06-1.44694E+06-6.45078E+05
 -1        36-4.25760E+06-2.04935E+07 1.13535E+06-7.70018E+06-1.45477E+06-7.41116E+05
 -1        37-9.62839E+06-1.70982E+07-8.41703E+05-9.41994E+06 4.17939E+05 1.66904E+05
 -1        38-9.73357E+06-1.18476E+07-5.59835E+05-6.41922E+06-4.65667E+04-1.72469E+05
 -1        39-7.52376E+06-6.92729E+06 3.68072E+05-4.27422E+06-4.62179E+04-2.10464E+05
 -1        40-3.51959E+06-2.81535E+06 4.44408E+04-2.50420E+06-2.11836E+05 7.88756E+04
 -1        41 7.09040E+05 1.09790E+06-6.44212E+04-7.65901E+05-3.02217E+05-3.56141E+05
 -1        42 3.21093E+06 4.96565E+06 2.16732E+04 2.02076E+05-1.38589E+05 9.05977E+04
 -1        43 4.47301E+06 8.88471E+06 2.04675E+04 7.94056E+05 1.97310E+04 2.99790E+05
 -1        44 2.75094E+06 1.18225E+07 6.97969E+04 5.16611E+05-7.94208E+05-1.28528E+05
 -1        45 3.52178E+05 1.19744E+07-7.30328E+05-1.80709E+04-5.99391E+05 4.16867E+05
 -1        46-6.82231E+05-1.75723E+07-3.46322E+05-2.00588E+06 4.38897E+05 6.47230E+04
 -1        47-6.86160E+06-1.29134E+07-1.12855E+05-4.97208E+06 2.07024E+05 1.76593E+05
 -1        48-4.52916E+06-4.39924E+06 7.90519E+04-1.83237E+06 5.09140E+04-3.44089E+05
 -1        49 3.42728E+06 3.96820E+06-7.26323E+04 1.61642E+06 5.20806E+04-3.48581E+05
 -1        50 6.23980E+06 1.23553E+07 1.05770E+05 4.75443E+06 1.97395E+05 1.35447E+05
 -1        51 7.09407E+05 1.69785E+07 4.02414E+05 1.91996E+06 4.16968E+05 4.38575E+04
 -1        52-3.83425E+05-1.25646E+07 7.22551E+05 4.69822E+04-6.49576E+05 4.47187E+05
 -1        53-3.07120E+06-1.24309E+07-9.54099E+04-5.19053E+05-8.44242E+05-1.49897E+05
 -1        54-5.11488E+06-9.40649E+06-5.67657E+03-8.38537E+05 4.22394E+04 3.46175E+05
 -1        55-4.13567E+06-5.41988E+06-2.63279E+04-3.19510E+05-1.31627E+05 8.67964E+04
 -1        56-1.84837E+06-1.51341E+06 6.25913E+04 5.87772E+05-3.17752E+05-3.49952E+05
 -1        57 2.38091E+06 2.40980E+06-4.72301E+04 2.28555E+06-2.26206E+05 7.95764E+04
 -1        58 6.39323E+06 6.48595E+06-3.65577E+05 4.01520E+06-5.25057E+04-2.17087E+05
 -1        59 8.80402E+06 1.13518E+07 5.49978E+05 6.11300E+06-4.30826E+04-1.59548E+05
 -1        60 8.98136E+06 1.65156E+07 8.40974E+05 9.02284E+06 4.17605E+05 1.30862E+05
 -1        61 3.95358E+06 1.97991E+07-1.13601E+06 7.37375E+06-1.45523E+06-7.13432E+05
 -1        62-3.00844E+05 1.90492E+07-1.54000E+06 4.20187E+06-1.49330E+06-6.56748E+05
 -1        63-1.16141E+06-9.76632E+06-3.57986E+05 1.72563E+06 3.01482E+05 6.15498E+05
 -1        64-4.74915E+06-5.24887E+06 2.68114E+05 1.68680E+06-4.02001E+05-1.86391E+05
 -1        65 4.64994E+05 1.30728E+05-2.00809E+05 2.33215E+06 1.74694E+05-1.62401E+05
 -1        66 1.01550E+07 8.07598E+06 5.88076E+05 6.47621E+06-2.39226E+05-9.69278E+04
 -1        67 1.24026E+07 1.68484E+07-1.20526E+06 1.42723E+07 3.32196E+05 5.91056E+05
 -1        68 2.00824E+05 2.49928E+07 5.49913E+05 7.06275E+06 3.96268E+06 2.13621E+06
 -1        69 2.10690E+06 1.52108E+06 2.55753E+06 2.61997E+06-2.21709E+06 2.48939E+06
 -1        70-2.76841E+06-5.30850E+06-1.85125E+05 3.73580E+06 9.51399E+05 1.68786E+06
 -1        71-4.85954E+06-2.33811E+06 3.78589E+05 4.37196E+06-1.09150E+06-6.53966E+05
 -1        72-1.92845E+06-3.64952E+05 2.15500E+05 3.49573E+06-4.76624E+05-3.47592E+05
 -1        73 2.64856E+06 1.34564E+06-3.40239E+05 3.94092E+06 3.15588E+05 1.84618E+05
 -1        74 8.19827E+06 4.23058E+06 6.54833E+04 6.53886E+06 8.79711E+04 3.05849E+05
 -1        75 1.42394E+07 7.76300E+06 9.45980E+05 9.60290E+06-2.72420E+04 4.86111E+05
 -1        76 1.65329E+07 1.13429E+07-1.21208E+06 1.44269E+07 7.79116E+05 7.28866E+04
 -1        77 1.75870E+07 1.66777E+07-1.87913E+06 2.31565E+07 1.30389E+06 8.29758E+05
 -1        78 1.26771E+07 3.31130E+07 2.62675E+06 2.26906E+07-7.62603E+05 2.84836E+06
 -1        79 5.00486E+06 4.32284E+07-6.90787E+04 1.75794E+07 3.51608E+06 6.59032E+06
 -1        80-2.94547E+06 1.31488E+07-2.75504E+06 4.72691E+06-1.40467E+06-1.94075E+06
 -1        81-8.57997E+06-2.42827E+06-9.12224E+05 5.03551E+06 7.14342E+05 7.87616E+05
 -1        82 4.43608E+06 1.49136E+06 5.79010E+05 3.04289E+06 1.26502E+05-1.49587E+06
 -1        83 1.67495E+07 3.02209E+06-1.34000E+06 7.72305E+06-6.96312E+05-1.99700E+06
 -1        84 3.45231E+07 1.25543E+07 2.83735E+06 2.30182E+07 2.13320E+06-2.09134E+05
 -1        85 1.30616E+07 3.32783E+07 1.39784E+05 2.84476E+07 6.14084E+06-3.60450E+06
 -1        86-2.56301E+07 1.50336E+07-3.12159E+06 6.06701E+06 4.89063E+06 1.21601E+07
 -1        87-2.90858E+07-2.24721E+06 3.04302E+06 6.63111E+06-6.80548E+05 9.81913E+05
 -1        88-2.05183E+07-4.48421E+06-2.82738E+06 4.31552E+06 8.90464E+03-1.01940E+06
 -1        89-4.58703E+05 1.21555E+06 1.62318E+05 7.77728E+05-2.49961E+05 1.94141E+06
 -1        90 4.84200E+06 5.04391E+05-2.35100E+05 1.32837E+06 7.33131E+05-1.43938E+06
 -1        91 1.14278E+07 5.01444E+05 3.14540E+05 2.50224E+06 2.92261E+04 5.20717E+05
 -1        92 1.59239E+07-5.23600E+05-1.36488E+06 4.16841E+06-8.99909E+05-2.11456E+06
 -1        93 2.35400E+07-4.16166E+05 4.07519E+05 6.59692E+06 2.07620E+06 4.50027E+06
 -1        94 5.02191E+07 6.97921E+06 1.47058E+06 1.80283E+07 5.84301E+06 2.66277E+06
 -1        95 4.58958E+07 1.28937E+07-1.54854E+06 2.89965E+07-2.86064E+06 6.00349E+06
 -1        96 3.25400E+07 2.06611E+07 1.56503E+07 3.04848E+07 1.57044E+07 2.07175E+07
 -1        97-4.48361E+07-2.76685E+07-2.34378E+07-3.33895E+07 3.46543E+07 4.39779E+07
 -1        98-3.97329E+07-3.40490E+06 8.58845E+05-1.19994E+07 2.29890E+06 1.86718E+06
 -1        99-1.45515E+07 7.18824E+04 7.35768E+05-2.59171E+06 2.70160E+05-5.79291E+05
 -1       100-4.37275E+06 8.57781E+02 3.85742E+05-1.07309E+06 5.71092E+05-1.19149E+06
 -1       101 1.41783E+07 3.13687E+06 1.61678E+06-3.00518E+06 2.16692E+05-3.73327E+06
 -1       102 2.77152E+07-1.46976E+07 4.14779E+06-5.98552E+06 4.33651E+06 1.83589E+07
 -1       103-1.12673E+06-3.21194E+07 2.34786E+06-1.11474E+07 4.92086E+06 2.87263E+06
 -1       104-1.68572E+07-1.54163E+07 3.14432E+05-1.95752E+07 4.22491E+05 2.71992E+05
 -1       105-1.20074E+07-6.06453E+06-6.72876E+05-8.10003E+06 7.25061E+04-6.34425E+05
 -1       106-3.34141E+06-1.24665E+06 2.18578E+05-3.18163E+06-1.38139E+05-8.45087E+05
 -1       107 3.76464E+06 1.76953E+06-4.67902E+04-3.35966E+06-5.46904E+05-4.99198E+05
 -1       108-2.28979E+06-1.62284E+06-2.17661E+06-9.30562E+05-4.74359E+06 1.14809E+06
 -1       109-4.83733E+04-1.62817E+07 7.87745E+05-2.58872E+06 8.70381E+04 6.63103E+05
 -1       110-7.26070E+06-1.33616E+07-5.26470E+05-7.68988E+06-3.78916E+05 8.16655E+04
 -1       111-6.14384E+06-5.66670E+06 1.66399E+05-3.43874E+06-6.14041E+05-9.64597E+05
 -1       112 5.59114E+05 9.23548E+05-2.91528E+04-6.17867E+05-7.37309E+05-1.05591E+06
 -1       113 3.40379E+06 7.17587E+06-2.63008E+03 5.10590E+05-6.11734E+05-1.49173E+05
 -1       114 3.74408E+04 9.22702E+06-5.50789E+05 2.22472E+05-9.05575E+05 6.95974E+05
 -1       115-5.34617E+04-9.66374E+06 5.41814E+05-2.10617E+05-9.28103E+05 7.70354E+05
 -1       116-3.90854E+06-7.60323E+06 2.21612E+04-5.42181E+05-6.12839E+05-8.63742E+04
 -1       117-1.47983E+06-1.25942E+06 2.46602E+04 4.73620E+05-7.46758E+05-1.03856E+06
 -1       118 5.23182E+06 5.30926E+06-1.67980E+05 3.23035E+06-6.17314E+05-9.82542E+05
 -1       119 6.74936E+06 1.28886E+07 5.31349E+05 7.36656E+06-3.81797E+05 2.10801E+04
 -1       120 3.64889E+04 1.57679E+07-8.00166E+05 2.45474E+06 2.03413E+03 6.03517E+05
 -1       121 2.61946E+06 2.11111E+06 2.42056E+06 9.96194E+05-5.22330E+06 1.28351E+06
 -1       122-4.58166E+06-1.91694E+06 6.38431E+04 3.57044E+06-5.77060E+05-4.27172E+05
 -1       123 2.33362E+06 1.04037E+06-2.57447E+05 3.07191E+06-1.47394E+05-8.19950E+05
 -1       124 1.09883E+07 5.83702E+06 6.37465E+05 7.78528E+06 6.01541E+04-6.63605E+05
 -1       125 1.60313E+07 1.51016E+07-2.85578E+05 1.88920E+07 3.90135E+05 2.00855E+05
 -1       126 1.31034E+06 3.19189E+07-2.16543E+06 1.08340E+07 4.46799E+06 2.73424E+06
 -1       127-3.06912E+07 1.66396E+07-4.53719E+06 6.47648E+06 5.06675E+06 2.03387E+07
 -1       128-1.62676E+07-3.48432E+06-1.78841E+06 3.33644E+06 2.59694E+05-4.00407E+06
 -1       129 3.28175E+06 4.13480E+04-3.09566E+05 9.95924E+05 5.86723E+05-1.25303E+06
 -1       130 1.34754E+07-3.88701E+04-6.60293E+05 2.49429E+06 2.72123E+05-6.58674E+05
 -1       131 3.77296E+07 3.12695E+06-9.57803E+05 1.14931E+07 2.28680E+06 1.90330E+06
 -1       132 4.22934E+07 2.84598E+07 2.27880E+07 3.25384E+07 3.45635E+07 4.20478E+07
 -1       133-7.75957E+07-5.73671E+07-7.51801E+07-3.89143E+07 1.05623E+08 1.29665E+08
 -1       134-4.91950E+07-1.41452E+07 2.10035E+06-2.41226E+07 7.56210E+06 2.25581E+07
 -1       135-3.09604E+07-1.88391E+06-2.56663E+06-5.99269E+06 5.72600E+06 1.07597E+07
 -1       136-7.03207E+06 6.75953E+06 8.55795E+06-1.74865E+06-1.02700E+06 4.67518E+06
 -1       137-1.52358E+07-3.93147E+06-8.57975E+06-9.32186E+05 2.62002E+06 3.96264E+06
 -1       138-7.10808E+06-5.54741E+05-1.34695E+06-1.35971E+06 1.16289E+06 2.53844E+06
 -1       139-1.37027E+06 1.89939E+06 4.63859E+06-8.39383E+05 1.49455E+06 8.89196E+04
 -1       140-2.92740E+06-1.96932E+06-2.77518E+06 3.92075E+05-1.14793E+06-1.21441E+06
 -1       141 1.27508E+07 4.10871E+06 4.82151E+06-1.92974E+06-3.24657E+04-3.00941E+06
 -1       142 2.75272E+07 8.80115E+05-6.75961E+06-5.30819E+06 9.76847E+05 2.32878E+06
 -1       143 3.71482E+07-1.28009E+07 1.33521E+07-7.07573E+06 8.08772E+06 5.04633E+07
 -1       144-1.55414E+07-3.23021E+07-3.42955E+06-2.32242E+07 2.38051E+07 9.64735E+06
 -1       145-2.21886E+07-9.59560E+06-1.05409E+07-1.23259E+07 6.16896E+06 7.87651E+06
 -1       146-1.22971E+07-2.43235E+06 1.08052E+06-4.18472E+06-7.49962E+05-2.90130E+06
 -1       147-3.10079E+06-6.24032E+05-7.95290E+05-1.66045E+06 2.12632E+05-2.30270E+06
 -1       148 3.03101E+06 1.36621E+06 3.21039E+06-3.26167E+06 1.83574E+06 2.24791E+06
 -1       149 4.50234E+06-1.29313E+07 6.96520E+06-3.16258E+06-5.69585E+06 3.97715E+06
 -1       150 1.65992E+06-2.33879E+07 1.59657E+06-5.13255E+06 1.44128E+07 6.65979E+06
 -1       151-1.00943E+07-2.21031E+07-9.48480E+06-1.13430E+07 6.59403E+06 8.95090E+06
 -1       152-1.02133E+07-8.82289E+06 1.05031E+07-1.52092E+07-6.72977E+06-8.14927E+06
 -1       153-1.03313E+07-7.11092E+06 1.43063E+06-9.93387E+06-1.01499E+06-3.26606E+06
 -1       154-9.03529E+06-4.73050E+06-1.59382E+06-6.27095E+06 1.00184E+06-7.46946E+05
 -1       155-5.91100E+06-2.72716E+06-6.71572E+05-4.06017E+06 3.29664E+05-6.05224E+05
 -1       156-2.30573E+06-5.56805E+05 9.84267E+05-2.30204E+06-8.79851E+05-1.92933E+06
 -1       157 1.83592E+04-7.88266E+04 2.04954E+05-2.54184E+06-7.87951E+05-1.98320E+06
 -1       158 2.72591E+06 4.90933E+05-1.89620E+06-2.61344E+06-7.67368E+05-3.58685E+06
 -1       159 2.08544E+06 4.66416E+06 3.86914E+05-7.70392E+05-3.02504E+05 4.58986E+06
 -1       160-4.06966E+06-3.27577E+06-4.68433E+06 1.03905E+05-7.26205E+06 2.25921E+06
 -1       161 6.02238E+06-8.54808E+06 7.22873E+06-2.45518E+06 6.36574E+06-2.25893E+06
 -1       162-8.24258E+06-1.03379E+07 1.76265E+06-9.60246E+06-2.48926E+06-1.45341E+06
 -1       163-6.40987E+06-4.56814E+06 4.19144E+04-4.17450E+06-7.91148E+05-1.94020E+06
 -1       164-1.16779E+06-3.83436E+05 2.63079E+04-1.62368E+06-7.14436E+05-1.94299E+06
 -1       165 2.65868E+06 3.31410E+06-7.59356E+05-7.96876E+05-8.97575E+05-1.31814E+06
 -1       166-2.84129E+05 5.34756E+06 1.11488E+03-1.06984E+06-2.95108E+06-1.81176E+06
 -1       167-3.28841E+06-1.57134E+07-6.66903E+06-7.82234E+05 4.00666E+06 4.10913E+06
 -1       168-2.90688E+06-1.34012E+07 9.26160E+05-4.05781E+06-1.92701E+06-6.84549E+05
 -1       169-5.52138E+06-1.00730E+07-1.35891E+06-6.02716E+06-1.54648E+05 8.79189E+05
 -1       170-5.35385E+06-6.80245E+06 6.06677E+04-3.88209E+06-1.34816E+06-1.08953E+06
 -1       171-5.01051E+06-4.64886E+06-4.54891E+05-2.57372E+06-1.14785E+06-1.68264E+06
 -1       172-2.22165E+06-1.77072E+06-5.87335E+04-1.52553E+06-1.23557E+06-1.42728E+06
 -1       173 4.61796E+05 7.78416E+05 7.59266E+04-4.64437E+05-1.12710E+06-1.68933E+06
 -1       174 1.84020E+06 3.02998E+06-3.19636E+04 2.29186E+05-1.27314E+06-1.08028E+06
 -1       175 2.24751E+06 5.21990E+06-4.00548E+05 2.23822E+05-1.64967E+06-6.08452E+05
 -1       176 1.46507E+06 7.11683E+06 3.60368E+05 2.79699E+05-1.35060E+06-2.94613E+04
 -1       177-5.36298E+05 6.40830E+06-1.71708E+06 5.73226E+05-1.00617E+06 2.61008E+06
 -1       178-7.15024E+05-9.56075E+06-1.69194E+06-9.90420E+05 1.89612E+06 1.92675E+06
 -1       179-4.11203E+06-8.01892E+06-9.62127E+05-2.98114E+06-4.33896E+05 6.20504E+05
 -1       180-2.86544E+06-2.82176E+06-9.13100E+04-1.11221E+06-9.81107E+05-1.82666E+06
 -1       181 2.18246E+06 2.55214E+06 8.27639E+04 9.80399E+05-9.80149E+05-1.84885E+06
 -1       182 3.74920E+06 7.69054E+06 9.39750E+05 2.84778E+06-4.39704E+05 4.86445E+05
 -1       183 7.41710E+05 9.26454E+06 1.71426E+06 9.47575E+05 1.79273E+06 1.78441E+06
 -1       184 5.72245E+05-6.67295E+06 1.84058E+06-5.88959E+05-9.37411E+05 2.88070E+06
 -1       185-1.64303E+06-7.44289E+06-3.42287E+05-2.77402E+05-1.41353E+06-8.67077E+02
 -1       186-2.63024E+06-5.56011E+06 3.89108E+05-2.41058E+05-1.65263E+06-4.96315E+05
 -1       187-2.39600E+06-3.31358E+06 3.22723E+04-3.09079E+05-1.27871E+06-1.06135E+06
 -1       188-1.16855E+06-1.03868E+06-8.81648E+04 3.54046E+05-1.13789E+06-1.65945E+06
 -1       189 1.54014E+06 1.52681E+06 5.67309E+04 1.39276E+06-1.24412E+06-1.42591E+06
 -1       190 4.31075E+06 4.37078E+06 4.42441E+05 2.41706E+06-1.15308E+06-1.71312E+06
 -1       191 4.79759E+06 6.49654E+06-6.31405E+04 3.70029E+06-1.34059E+06-1.10264E+06
 -1       192 5.12506E+06 9.69493E+06 1.32138E+06 5.77497E+06-1.56170E+05 7.66426E+05
 -1       193 2.73323E+06 1.30119E+07-8.84106E+05 3.87587E+06-1.96619E+06-7.10172E+05
 -1       194 3.27115E+06 1.53428E+07 6.63278E+06 7.25402E+05 3.87509E+06 3.88952E+06
 -1       195 2.94270E+05-5.69083E+06-9.19067E+04 1.18893E+06-3.23268E+06-1.98001E+06
 -1       196-3.16080E+06-3.53557E+06 8.33130E+05 8.25715E+05-9.38319E+05-1.27170E+06
 -1       197 4.70577E+05 1.84323E+05-2.74625E+04 1.53849E+06-7.08911E+05-1.90726E+06
 -1       198 5.70801E+06 4.34855E+06-4.01367E+04 3.98317E+06-7.87671E+05-1.96856E+06
 -1       199 7.75312E+06 1.00501E+07-1.68603E+06 9.26472E+06-2.48782E+06-1.49099E+06
 -1       200-5.93175E+06 8.19192E+06-7.18354E+06 2.28955E+06 5.98526E+06-2.13115E+06
 -1       201 4.63127E+06 3.94176E+06 5.32225E+06-1.26163E+05-7.95006E+06 2.49118E+06
 -1       202-2.42766E+06-5.07269E+06-4.01066E+05 7.87601E+05-1.81607E+05 5.11034E+06
 -1       203-3.35026E+06-5.21469E+05 2.04479E+06 2.77669E+06-8.97997E+05-3.75289E+06
 -1       204-7.00870E+05-7.24418E+03-2.10481E+05 2.60003E+06-8.31946E+05-2.05644E+06
 -1       205 1.58136E+06 4.15371E+05-9.75656E+05 2.21878E+06-8.81866E+05-1.85252E+06
 -1       206 5.11809E+06 2.55322E+06 6.35509E+05 3.89743E+06 3.14210E+05-6.03691E+05
 -1       207 8.28728E+06 4.56609E+06 1.57910E+06 6.02834E+06 9.74248E+05-8.24837E+05
 -1       208 9.65028E+06 6.95725E+06-1.40491E+06 9.55963E+06-1.03838E+06-3.19647E+06
 -1       209 9.63321E+06 8.68785E+06-1.02379E+07 1.46765E+07-6.73197E+06-7.96472E+06
 -1       210 9.69350E+06 2.14924E+07 9.32042E+06 1.10132E+07 6.56994E+06 8.49909E+06
 -1       211-1.29904E+06 2.34024E+07-1.15927E+06 4.99779E+06 1.36560E+07 6.37827E+06
 -1       212-4.88364E+06 1.47877E+07-7.76924E+06 3.36429E+06-6.27172E+06 4.49087E+06
 -1       213-3.71184E+06-1.47775E+06-3.49865E+06 3.56215E+06 2.16175E+06 2.64833E+06
 -1       214 2.16786E+06 5.26418E+05 7.64416E+05 1.58128E+06 2.16113E+05-2.37207E+06
 -1       215 1.13886E+07 2.33142E+06-1.09258E+06 4.02946E+06-7.33866E+05-2.86126E+06
 -1       216 2.13588E+07 9.37294E+06 1.01983E+07 1.17985E+07 6.29205E+06 7.47866E+06
 -1       217 1.51161E+07 3.29962E+07 2.87555E+06 2.27017E+07 2.29118E+07 9.20912E+06
 -1       218-4.09718E+07 1.47747E+07-1.45799E+07 7.56690E+06 9.90947E+06 5.56253E+07
 -1       219-3.06744E+07-8.88267E+05 7.52939E+06 5.77960E+06 1.09118E+06 2.59462E+06
 -1       220-1.46066E+07-4.63448E+06-5.47168E+06 2.17590E+06 3.24176E+04-3.20112E+06
 -1       221 2.44149E+06 2.19900E+06 3.12534E+06-4.86672E+05-1.33600E+06-1.36166E+06
 -1       222 4.04667E+05-1.96921E+06-4.87230E+06 7.84739E+05 1.60615E+06 1.99194E+05
 -1       223 6.23635E+06 5.11795E+05 1.20223E+06 1.30962E+06 1.17568E+06 2.41374E+06
 -1       224 1.42843E+07 3.84259E+06 8.33932E+06 8.88401E+05 2.64364E+06 3.61546E+06
 -1       225 6.51049E+06-6.51969E+06-8.19817E+06 1.71710E+06-1.14530E+06 4.54548E+06
 -1       226 2.92112E+07 1.49409E+06 2.11019E+06 5.66626E+06 5.66595E+06 1.05793E+07
 -1       227 4.64767E+07 1.39685E+07-1.58919E+06 2.34141E+07 7.55666E+06 2.18635E+07
 -1       228 7.40782E+07 5.77799E+07 7.31615E+07 3.80205E+07 1.05230E+08 1.24532E+08
 -1       229-2.47530E+08-2.10006E+08-1.58641E+08-1.10858E+08 1.90687E+08 2.29689E+08
 -1       230-5.60738E+06 1.29481E+07-6.58217E+06 7.22330E+06 3.02214E+06 1.05192E+07
 -1       231-1.19792E+07-9.82164E+06-1.38539E+07-9.01315E+05 7.60160E+06 8.49888E+06
 -1       232-1.04534E+06 2.31894E+06 6.54017E+06-1.39188E+06 8.41696E+05 6.59313E+05
 -1       233 5.66399E+06 5.21360E+06 8.20421E+06 1.03228E+06 9.58683E+05-3.75569E+06
 -1       234 8.76063E+07-4.51430E+06 2.82747E+07-2.02561E+07 9.39836E+06 8.54324E+07
 -1       235 2.00062E+07-5.02400E+05 1.48122E+05 7.54762E+06 1.47599E+07 4.28096E+06
 -1       236-1.50856E+07-1.24114E+07 1.67914E+07-1.55322E+07-9.77520E+06-1.27095E+07
 -1       237-5.57670E+06-2.44472E+06-2.75117E+06-3.83458E+06 7.86147E+05-8.23117E+05
 -1       238-1.95280E+06-3.07943E+05 1.75363E+06-1.53216E+06-8.59107E+05-2.28805E+06
 -1       239 5.28942E+06-4.34116E+05-3.04218E+06-2.72561E+06-2.01756E+06-6.23862E+06
 -1       240-1.12191E+07-4.84543E+06-7.08176E+06 1.78799E+06-7.94896E+06 2.31032E+06
 -1       241-1.02590E+07-1.29595E+07-1.13110E+07 1.05449E+05 8.35401E+06 9.60828E+06
 -1       242-2.77724E+06-6.48904E+06-2.38386E+06-3.73316E+06-2.47252E+05 7.58591E+05
 -1       243-3.22006E+06-2.96040E+06-3.91471E+05-1.57959E+06-1.17535E+06-1.88265E+06
 -1       244 3.02973E+05 4.60032E+05 5.86460E+04-2.86614E+05-1.52915E+06-2.13118E+06
 -1       245 1.20272E+06 3.77039E+06-7.21998E+05 2.53090E+05-1.90848E+06-6.97764E+05
 -1       246 1.25084E+06 5.10564E+06-1.84693E+06 1.33283E+06-1.94808E+06 3.86791E+06
 -1       247-1.48695E+06-5.43325E+06 1.98043E+06-1.49521E+06-1.84812E+06 4.30718E+06
 -1       248-1.42419E+06-4.01862E+06 6.87793E+05-2.51374E+05-1.88142E+06-5.50767E+05
 -1       249-7.80943E+05-6.34518E+05-6.65522E+04 2.09658E+05-1.54825E+06-2.09302E+06
 -1       250 2.75332E+06 2.77686E+06 3.83694E+05 1.47660E+06-1.18667E+06-1.92161E+06
 -1       251 2.52622E+06 6.21681E+06 2.31000E+06 3.55760E+06-2.28811E+05 6.22949E+05
 -1       252 1.00072E+07 1.26215E+07 1.12036E+07-2.88451E+04 8.16066E+06 9.20967E+06
 -1       253 1.24925E+07 5.50698E+06 8.08039E+06-1.89129E+06-8.74143E+06 2.56106E+06
 -1       254-6.04214E+06 5.83372E+05 3.27155E+06 2.89652E+06-2.32602E+06-6.63902E+06
 -1       255 1.49419E+06 1.97120E+05-1.71713E+06 1.44526E+06-8.41229E+05-2.15453E+06
 -1       256 5.08840E+06 2.34058E+06 2.74731E+06 3.69756E+06 7.63243E+05-9.57962E+05
 -1       257 1.44083E+07 1.23688E+07-1.63851E+07 1.50582E+07-9.84986E+06-1.23209E+07
 -1       258-1.90283E+07 7.38012E+05 5.16749E+05-7.41708E+06 1.39005E+07 3.98631E+06
 -1       259-9.59582E+07 6.97126E+06-3.07724E+07 2.15595E+07 1.22287E+07 9.39473E+07
 -1       260-6.73404E+06-6.06618E+06-9.29295E+06-1.03491E+06 1.08099E+06-4.00821E+06
 -1       261 4.87756E+05-2.25180E+06-6.90052E+06 1.52266E+06 1.00422E+06 9.11137E+05
 -1       262 1.13868E+07 9.72057E+06 1.34427E+07 7.52140E+05 7.59284E+06 7.94349E+06
 -1       263 4.63138E+06-1.34090E+07 5.80121E+06-7.16011E+06 3.00948E+06 1.03496E+07
 -1       264 2.39009E+08 2.08813E+08 1.54501E+08 1.08467E+08 1.89784E+08 2.21082E+08
 -1       265 1.51342E+08 3.89165E+08 1.51342E+08 2.06991E+07-3.47915E+07 1.42676E+02
 -1       266 1.70517E+08 4.38473E+08 1.70517E+08 7.33589E+06 2.95485E+07-1.15528E+02
 -1       267 1.78385E+08 4.58705E+08 1.78385E+08-2.63269E+06 2.93630E+07 1.36966E+02
 -1       268 1.65127E+08 4.24612E+08 1.65127E+08-1.98062E+06 4.49872E+07-9.28807E+01
 -1       269 1.39742E+08 3.59335E+08 1.39742E+08-4.75098E+06 1.42643E+07-9.03625E+01
 -1       270 1.02968E+08 2.64774E+08 1.02968E+08-5.32192E+06 1.45806E+07 2.53147E+02
 -1       271 6.40639E+07 1.64736E+08 6.40640E+07-4.73948E+06-7.43551E+06-1.31432E+02
 -1       272 3.35646E+07 8.63091E+07 3.35647E+07-3.44954E+06-1.12572E+07 1.14137E+02
 -1       273 1.26946E+07 3.26433E+07 1.26947E+07-1.09967E+06 2.49535E+07 2.18561E+01
 -1       274-1.44860E+06-3.72481E+06-1.44856E+06-8.56502E+05 3.92451E+06-1.36147E+01
 -1       275-1.26638E+07-3.25639E+07-1.26637E+07-1.91397E+06 1.96437E+06 1.03158E+01
 -1       276-1.71693E+07-4.41495E+07-1.71693E+07-8.17941E+05-4.33862E+06 2.07181E+01
 -1       277-1.98116E+07-5.09440E+07-1.98116E+07 2.05382E+05-2.83708E+06-3.83529E+00
 -1       278-2.09103E+07-5.37694E+07-2.09103E+07 7.79309E+05-2.88856E+06-1.38509E+01
 -1       279-2.06667E+07-5.31430E+07-2.06668E+07 2.07074E+06 4.37534E+06 3.04546E+01
 -1       280 7.83189E+07 3.50519E+08 6.75352E+07 3.44562E+07-4.19026E+06-1.59183E+07
 -1       281 1.12001E+08 3.71817E+08 7.38584E+07-7.52875E+06 3.18682E+05 7.71950E+06
 -1       282 8.70854E+07 3.02476E+08 6.05205E+07-4.63204E+07 8.70225E+05 4.63437E+06
 -1       283 5.59670E+07 1.63694E+08 1.98554E+07-5.89708E+07-7.08454E+05-3.68001E+06
 -1       284 1.65309E+07 1.17548E+07 4.31802E+06-2.51754E+07-3.37677E+06 5.44563E+06
 -1       285-5.95308E+06-2.48324E+07-4.15813E+06-8.96729E+06 1.18988E+06 4.53380E+06
 -1       286-1.23873E+07-4.30048E+07-8.10277E+06-3.44242E+06-5.41424E+05 8.00936E+04
 -1       287-1.01517E+07-4.70264E+07-6.84622E+06 1.49897E+06-1.45013E+01-1.84024E+06
 -1       288-3.00002E+07 2.22124E+08-5.12842E+07 3.21469E+07 4.01618E+07-1.68867E+07
 -1       289-1.10925E+07 2.29338E+08-5.30414E+07 7.78321E+06 2.39731E+07 1.06445E+07
 -1       290 1.67207E+07 2.39789E+08-5.13987E+07-1.74900E+07 2.63747E+07-5.99541E+06
 -1       291-2.73703E+05 2.15118E+08-5.00110E+07-5.22392E+07 1.87091E+07-1.80347E+07
 -1       292-3.65799E+06 1.88681E+08-4.53069E+07-8.30676E+07 3.39764E+07 5.86587E+06
 -1       293 2.28076E+07 1.78434E+08-3.38588E+07-9.15956E+07 1.53862E+07-6.44768E+05
 -1       294 4.81440E+07 1.74935E+08-2.08376E+07-1.07870E+08 7.75327E+06-1.24265E+07
 -1       295 6.42679E+07 7.79764E+07-5.42339E+06-9.26017E+07 1.78076E+07-2.66530E+07
 -1       296 2.77252E+07-2.02375E+07-5.10746E+06-3.92574E+07-1.38974E+06-4.75543E+06
 -1       297 1.50962E+07-2.01193E+07-5.46652E+05-2.15297E+07 4.23590E+06 2.30782E+06
 -1       298 7.38466E+06-1.62475E+07 6.44200E+06-1.57995E+07-4.69255E+06-1.42545E+06
 -1       299 2.42298E+05-2.44562E+07 5.08896E+06-1.19230E+07 1.03485E+05-1.18968E+06
 -1       300-3.36694E+06-3.31045E+07 4.60207E+06-6.91093E+06-4.23168E+06 1.00674E+06
 -1       301-1.12494E+05-3.44635E+07 6.88944E+06-3.80680E+06-1.59346E+06 1.56227E+06
 -1       302 4.49489E+06-3.42381E+07 9.99924E+06-1.25046E+06-1.80528E+06-5.19538E+06
 -1       303-5.89860E+07 7.30063E+07-1.57589E+07 7.03639E+07-4.13134E+07 2.78724E+07
 -1       304-7.52992E+07 2.05139E+08-2.01042E+07-8.29501E+06-8.65524E+06-7.52145E+06
 -1       305-2.28382E+06 1.19046E+08-8.63775E+06-1.02749E+08-1.75552E+07-1.93917E+07
 -1       306 2.38798E+07 1.44825E+08-1.31993E+07-6.82354E+07-1.62030E+07 1.70587E+07
 -1       307 2.21557E+05-3.95895E+07-8.37316E+06-8.95573E+06 2.29668E+06-1.36172E+06
 -1       308 3.88552E+06-2.47808E+07-1.38784E+05-1.58337E+07 7.23354E+05 9.79739E+05
 -1       309 7.30019E+06-2.63176E+07 2.90151E+06-1.17623E+07 1.98799E+06-8.02013E+05
 -1       310-2.89346E+06-3.42698E+07-1.97254E+06-1.45130E+06-1.35813E+05 4.71422E+06
 -1       311-1.17138E+08-8.71280E+07 2.66915E+07 6.78384E+07 5.74540E+07 2.48675E+07
 -1       312-1.68281E+08-1.20016E+08-5.92557E+06 9.02289E+07 1.77391E+07-2.81539E+07
 -1       313-1.49538E+08-8.11408E+07 1.11935E+06 1.19618E+08 7.63262E+06 8.08841E+06
 -1       314-1.59713E+08 2.89149E+07 1.38247E+06 1.22014E+08 4.18346E+07-9.59574E+06
 -1       315-2.04862E+08 1.39381E+08-8.03220E+06 7.25033E+07 4.44587E+07 6.06494E+06
 -1       316-1.34315E+08 1.22266E+08 9.00304E+06-1.04348E+08 2.60338E+07-3.92041E+07
 -1       317 2.20592E+07 1.00467E+08 4.87582E+07-1.28118E+08 2.34508E+07-4.09951E+07
 -1       318 6.30259E+07 1.00113E+08 3.41174E+07-7.82377E+07 4.97496E+07-7.70854E+06
 -1       319 4.83498E+07 1.09317E+08 6.57320E+06-4.04587E+07 3.21494E+06-2.32193E+07
 -1       320 1.24788E+06-1.99159E+07 7.27669E+06-4.35634E+06 2.17259E+05-2.21566E+06
 -1       321 6.73522E+06-1.51148E+07 5.15567E+06-1.31278E+07-1.05225E+07 1.84807E+06
 -1       322 1.34071E+05-2.79254E+07-5.28141E+06-1.35966E+07 2.11374E+06-8.36314E+06
 -1       323 3.51323E+06-2.23222E+07-3.19709E+06-1.31626E+07-1.92174E+06 1.21543E+06
 -1       324 1.97924E+07-1.48038E+07 3.03550E+06-1.38304E+07 5.42568E+06 1.04811E+07
 -1       325 1.05796E+07-3.14846E+07-5.76454E+06-7.30440E+06-7.37741E+06-5.72707E+06
 -1       326 1.70842E+07-2.25822E+07-3.00040E+06 3.25011E+06 9.48037E+06 4.83644E+06
 -1       327 4.67292E+07 4.00234E+06 7.25608E+06 7.94951E+06 5.20603E+06 1.22068E+06
 -1       328 3.45682E+07 1.79122E+06-2.25596E+06 1.02037E+07-1.32000E+07 1.06237E+06
 -1       329-1.15401E+08-1.51093E+08 1.73933E+06 8.97511E+07-4.05067E+07 3.35626E+07
 -1       330-1.53875E+08-9.61544E+07-1.35641E+06 1.52315E+08 2.55782E+07-2.80791E+06
 -1       331-3.44376E+07-2.14545E+07 6.21836E+07 1.81868E+08 6.18215E+07-5.16791E+07
 -1       332 5.22674E+06-9.45340E+06 4.58207E+06-9.28085E+06-3.59486E+06 6.42866E+06
 -1       333 9.08002E+06-9.70514E+06 1.11624E+06-2.78396E+07-8.57918E+06-1.39750E+07
 -1       334 5.51061E+07-1.62519E+07 5.88120E+06 1.69537E+07-7.47751E+06-8.16421E+06
 -1       335 3.55291E+07 9.21851E+06-6.56525E+06 2.32464E+07 1.16730E+07 1.35390E+07
 -1       336 3.89952E+08 1.51648E+08 1.51648E+08 2.04334E+07 1.51101E+02-3.62901E+07
 -1       337 3.51818E+08 8.54741E+07 6.85015E+07 3.93648E+07-1.41455E+07-1.05405E+07
 -1       338 2.20283E+08-1.52698E+07-5.04768E+07 4.83504E+07-7.90729E+06 2.81830E+07
 -1       339 8.23630E+07-5.76867E+07-1.26161E+07 7.07225E+07 1.12887E+07-3.07145E+07
 -1       340-5.08954E+07-1.33196E+08 1.72836E+07 1.09866E+08 1.23550E+07 2.20417E+07
 -1       341-1.21309E+08-1.66234E+08-1.03006E+07 1.51686E+08-3.48757E+06-3.68119E+06
 -1       342-2.17512E+08-1.92251E+08-4.31400E+07 1.81372E+08-4.40758E+07-7.49022E+07
 -1       343-1.16781E+08-1.89725E+08 2.26573E+07 1.46351E+08 9.50748E+07 6.76126E+07
 -1       344-2.07333E+07-3.52840E+08 4.07637E+07 1.01271E+08 2.21918E+07 6.86162E+06
 -1       345-1.12326E+07-6.88859E+06 3.95699E+06-8.66359E+06-4.72669E+06-9.10247E+06
 -1       346-2.29430E+07-1.74738E+07-6.32931E+06-1.83001E+07-3.43061E+06 4.81482E+05
 -1       347-4.62460E+06-3.14658E+07-9.16145E+06-6.00002E+07 1.59098E+07-3.74343E+06
 -1       348 6.75404E+07-4.08064E+07 3.68999E+06-1.78198E+07 8.39692E+06 2.85080E+07
 -1       349 9.25309E+07-3.01667E+07 8.92702E+06 2.87614E+07 4.70673E+06-2.19988E+07
 -1       350 5.19052E+07-4.94025E+06-3.99356E+06 3.66551E+07-5.80496E+06 2.06672E+06
 -1       351 4.97127E+07 3.45203E+07-2.16730E+06 4.52451E+07-2.52331E+06 1.12954E+07
 -1       352 9.65522E+06 2.72801E+07 8.87862E+06 3.16490E+07-4.62516E+06-1.57256E+07
 -1       353-4.88777E+07 8.71384E+06 1.15802E+07 1.67973E+07 6.00881E+05 1.28226E+07
 -1       354-8.82226E+07-2.11070E+07-1.91993E+07 1.34386E+07 2.22647E+06-2.66558E+06
 -1       355-9.53755E+07-3.70905E+07-3.70905E+07 5.63622E+06-5.27063E+01-1.14387E+07
 -1       356 4.48330E+08 1.74351E+08 1.74351E+08 8.40688E+06-1.68185E+02 2.83914E+07
 -1       357 2.33213E+08-3.49498E+06-5.32806E+07 2.82722E+07 6.47028E+06 3.09993E+07
 -1       358 1.90438E+07-1.04541E+08 9.96104E+06 8.64339E+07-6.56332E+06 2.87746E+07
 -1       359-1.93393E+08-2.14633E+08 7.08262E+06 1.80047E+08 2.00384E+07 9.08925E+07
 -1       360-6.51598E+08-8.93908E+08-1.60681E+08-3.33981E+08-1.42738E+07-7.61771E+07
 -1       361 2.19642E+08-6.69454E+07 6.94098E+06-1.30325E+08 3.83346E+07-2.27776E+07
 -1       362 1.04039E+08-3.67874E+07-1.01156E+07 7.08410E+07 1.55182E+07 3.94381E+07
 -1       363 2.67206E+07 4.64904E+07 3.80018E+06 5.87612E+07 4.00572E+05 7.76305E+06
 -1       364-5.42394E+07 6.40050E+06 1.36541E+07 9.35898E+06-2.19088E+06 8.36358E+06
 -1       365-1.16150E+08-4.51695E+07-4.51695E+07 2.50512E+06 6.03566E+01 7.32964E+06
 -1       366 4.88292E+08 1.89892E+08 1.89892E+08-1.87352E+06 1.38227E+02 3.41984E+07
 -1       367 4.01137E+08 1.17619E+08 8.15902E+07 4.49601E+06 2.40265E+06-2.22234E+06
 -1       368 2.42914E+08 7.97990E+06-5.70725E+07 7.02517E+06-1.02550E+07 3.22983E+07
 -1       369 1.54770E+08-4.39880E+07-3.31566E+07 3.06061E+07-7.18380E+05-1.04906E+07
 -1       370 6.91097E+07-1.02640E+08-1.04170E+07 6.95598E+07 1.04103E+07 2.00208E+07
 -1       371 4.60330E+06-1.55049E+08 4.28938E+07 1.13671E+08-1.12467E+07 5.66777E+06
 -1       372-2.16983E+08-2.43714E+08 4.20709E+07 1.61890E+08 1.44390E+07 3.19001E+07
 -1       373-1.01192E+09-6.43947E+08-1.78731E+08-2.50300E+08-9.10365E+07 7.21024E+06
 -1       374-7.19650E+08-6.14127E+08-1.04881E+08-3.81540E+08 1.14865E+08 1.45094E+08
 -1       375-1.12162E+08-5.60672E+07 5.53131E+07-5.97575E+07 3.26224E+06 6.41271E+06
 -1       376 9.26426E+05 1.24912E+07-5.34076E+07 2.03204E+07-4.23642E+06 1.69951E+07
 -1       377 3.23348E+06 1.44345E+07-8.88296E+06 7.25471E+06 3.59681E+06 1.07310E+07
 -1       378 3.80046E+06-4.29243E+06 1.13089E+07-8.81602E+05 1.39541E+06 1.97070E+06
 -1       379-3.74519E+06-3.23022E+06 2.69881E+06-3.58468E+06 7.89890E+05 2.46180E+06
 -1       380-6.86386E+06-2.80109E+06-5.97340E+06-2.00615E+06-8.69890E+05-2.40537E+06
 -1       381-2.38838E+06 2.09433E+06-1.68320E+05 3.93404E+06 2.95995E+05 1.25799E+06
 -1       382 3.35061E+04 7.04091E+06 1.35831E+07 4.19852E+06 1.93820E+05-8.04868E+05
 -1       383 5.48210E+07 3.68850E+06-1.01226E+07-9.18624E+06 3.08581E+06-1.40856E+07
 -1       384 2.65661E+08-1.59586E+07 2.08067E+07-7.58064E+07 5.37265E+06 5.20134E+07
 -1       385 4.16421E+08-7.64225E+05 5.54192E+07-1.63910E+05 8.64949E+06 2.30990E+07
 -1       386 1.59423E+08-9.40358E+06-7.35183E+06 1.20801E+08-1.14255E+07 4.36358E+07
 -1       387 2.62935E+07-9.91325E+05-2.14167E+07 1.06471E+08-1.13200E+07 1.55541E+07
 -1       388-2.80391E+07 5.39592E+07-3.87678E+05 5.19975E+07 9.23437E+06 2.26389E+07
 -1       389-5.25433E+07 2.39842E+07 3.81678E+06 1.76041E+07 1.12565E+06-2.41724E+06
 -1       390-6.16276E+07 3.14165E+06 1.48959E+07 1.52200E+06 2.56485E+06 7.91492E+06
 -1       391-1.03704E+08-2.95781E+07-2.16829E+07 1.08315E+06-2.61888E+06-1.00865E+06
 -1       392-1.29681E+08-5.04315E+07-5.04315E+07-3.53894E+05-3.95527E+01 6.59133E+06
 -1       393 4.73179E+08 1.84014E+08 1.84014E+08-2.07736E+06-1.54180E+01 3.89948E+07
 -1       394 2.58743E+08 2.11419E+07-5.07252E+07-2.03364E+07 1.87065E+06 2.47915E+07
 -1       395 1.27572E+08-9.54007E+07 8.44431E+06 2.21582E+07-4.10919E+06 2.04860E+07
 -1       396-6.69547E+06-2.26129E+08 1.57050E+07 8.14599E+07 3.96144E+07 1.72112E+07
 -1       397-6.17940E+07-8.17161E+07 5.50706E+07-6.13490E+07 1.93272E+07 6.54325E+06
 -1       398 5.63339E+06-1.12546E+07-2.88907E+07 1.47629E+06-6.86471E+06-9.04550E+06
 -1       399-4.31232E+06-1.15781E+06 7.13482E+06-1.92222E+06 1.17667E+06-1.18672E+06
 -1       400-1.17222E+06-1.41265E+06-3.60355E+06-6.05568E+05-6.48487E+05-2.53184E+06
 -1       401-1.05456E+07-3.46601E+06 2.39070E+06-3.13377E+06-1.35308E+06-6.66369E+06
 -1       402 1.79240E+07-1.94319E+07-9.99568E+06-1.29262E+07-1.81180E+07 4.63857E+06
 -1       403-3.46185E+07 5.30022E+07-2.63735E+06-1.26796E+06 1.41616E+06 1.47843E+07
 -1       404-7.05890E+07 5.52317E+06 1.72069E+07-1.04448E+07 3.84047E+06 5.25303E+06
 -1       405-1.18956E+08-4.62607E+07-4.62608E+07-3.61835E+05-4.86915E+00 1.64532E+07
 -1       406 4.35778E+08 1.69469E+08 1.69469E+08-1.09527E+06-6.15996E+01 9.83515E+06
 -1       407 3.72046E+08 1.14875E+08 7.09063E+07-2.70185E+07 2.89063E+06 2.50990E+06
 -1       408 2.54927E+08 2.11627E+07-5.35582E+07-5.07909E+07 8.15862E+05 2.07819E+07
 -1       409 2.17800E+08-2.33591E+07-1.10375E+07-4.84868E+07-2.03109E+06-4.39967E+06
 -1       410 1.92649E+08-8.14020E+07 3.10506E+07-3.17445E+07-1.06807E+07 2.22291E+07
 -1       411 9.16128E+07-1.11411E+08-1.02302E+07 2.84643E+07-4.63217E+07 9.25824E+06
 -1       412 3.96768E+07-1.22844E+08-3.25609E+07 4.71517E+07-5.41591E+07 3.83670E+07
 -1       413 2.08869E+07 1.40961E+06-5.02595E+07 1.99060E+07 1.94772E+07-4.75065E+06
 -1       414-1.62665E+07-2.41080E+06-3.17705E+07 4.49632E+06-5.38468E+06-8.99142E+06
 -1       415-2.25100E+07-1.85788E+07 1.39900E+07-1.53254E+07 6.88566E+06 8.21268E+06
 -1       416 5.06306E+06-1.15444E+06 8.75696E+06-3.88464E+06 7.77455E+05-1.75111E+05
 -1       417-2.93050E+06-9.45145E+05-5.08405E+06-1.57126E+06-9.68367E+05-3.90925E+06
 -1       418-2.91536E+06-4.36607E+05-1.85748E+06-9.11822E+05-7.61076E+05-2.49620E+06
 -1       419-1.43106E+06 1.50744E+04 2.42807E+06-7.50463E+05-2.45651E+05-3.07110E+06
 -1       420-3.65401E+06-2.42310E+06-1.69560E+06-2.17660E+06-1.87891E+05-2.69749E+05
 -1       421 8.29405E+06-8.73136E+05-2.53795E+06-2.73906E+06-5.33159E+05 2.08373E+06
 -1       422 8.41560E+06 9.75920E+06 8.60841E+06 4.33322E+06-3.89904E+06-4.28807E+06
 -1       423-1.31067E+07-5.95649E+05 5.29219E+06 3.19245E+06-6.93649E+06-1.47658E+06
 -1       424-3.31878E+07 2.67225E+07-9.73457E+06-1.61752E+07 8.59219E+06 1.48725E+07
 -1       425-6.47031E+07 5.01836E+06-8.84521E+05-1.28193E+07 1.20186E+07-1.12797E+07
 -1       426-8.38406E+07-1.58367E+07 1.16690E+07-2.45130E+07-5.38363E+06 5.97332E+06
 -1       427-8.79111E+07-2.78450E+07-1.26224E+07-1.43845E+07 7.44707E+06 2.23838E+06
 -1       428-9.72082E+07-3.78031E+07-3.78033E+07-1.22704E+06 7.12307E+01 7.18093E+06
 -1       429 3.66703E+08 1.42607E+08 1.42607E+08-3.77495E+06 1.62905E+02 3.00126E+07
 -1       430 2.48750E+08 9.26612E+06-5.42773E+07-7.53042E+07-9.71547E+06 1.33063E+07
 -1       431 1.57038E+08-3.33377E+07 2.62863E+07-7.83584E+07-1.53551E+07 5.95903E+07
 -1       432 1.82609E+07 2.19284E+06-1.01127E+07 5.18013E+06 1.10696E+07 4.37820E+06
 -1       433-3.55982E+06 2.95041E+06 8.25573E+06-2.70144E+06-5.48164E+05 1.21219E+06
 -1       434-3.11600E+06-2.49480E+06-1.89026E+06-1.81507E+06-1.20896E+06-2.68180E+06
 -1       435-8.41196E+04 2.76276E+05 9.80796E+05-6.81609E+05-1.17168E+06-2.91162E+06
 -1       436 3.27207E+06 2.09570E+06-1.35553E+06 1.02758E+06-1.03783E+05 7.49542E+04
 -1       437-8.10888E+06 1.30984E+06 3.71800E+06-1.59348E+06-2.36352E+06 1.74276E+06
 -1       438-6.31591E+07-6.25684E+07 1.38318E+07-9.66016E+05 1.19885E+07 2.17003E+07
 -1       439-9.58142E+07-3.72610E+07-3.72612E+07-1.51595E+06-8.33684E+01 2.73630E+05
 -1       440 2.75169E+08 1.07010E+08 1.07010E+08-7.58300E+06-1.15196E+02 2.17693E+06
 -1       441 2.53242E+08 7.88881E+07 3.19064E+07-6.12225E+07-5.40360E+06 5.23255E+05
 -1       442 2.54823E+08 4.47142E+07-3.83100E+07-1.05692E+08-4.49875E+06 2.33320E+07
 -1       443 2.13447E+08 1.33394E+07-5.89074E+06-7.33643E+07-6.95647E+06-3.33962E+07
 -1       444 1.22444E+08-1.26507E+07 1.41407E+07-7.72671E+07-2.96072E+07 3.16470E+07
 -1       445-7.81158E+06 1.13869E+05 9.43204E+06 1.02421E+06 4.04419E+06 7.16323E+05
 -1       446-2.17925E+06-4.72278E+06 6.27924E+06-1.79656E+06-3.15265E+05 1.12561E+06
 -1       447-7.42711E+05-3.58698E+06-4.44747E+06-1.63652E+06-2.79921E+06-1.06927E+06
 -1       448-2.75591E+06-3.22532E+06-1.65324E+06-1.63482E+06-1.68681E+06-1.75150E+06
 -1       449-8.11127E+05-6.53108E+05 1.15145E+06-5.32909E+05-1.87316E+06-2.60889E+06
 -1       450-7.76834E+05-5.15360E+05 4.22865E+05-5.97487E+05-1.72809E+06-2.15749E+06
 -1       451 3.92900E+04 2.85696E+04-2.16726E+05-9.95506E+04-1.58153E+06-2.47649E+06
 -1       452 5.20374E+05 1.01943E+06-3.34503E+05 9.97878E+04-2.02902E+06-1.71670E+06
 -1       453 3.28062E+05 2.39813E+06-6.26496E+05 2.04804E+05-1.75216E+06-6.88622E+05
 -1       454 1.99882E+06 2.67121E+06 1.14491E+06-5.24257E+04-2.06395E+06-2.77761E+05
 -1       455 4.74225E+06 5.73090E+06 2.16932E+06 2.16288E+06-3.17019E+06-4.86972E+05
 -1       456-5.44256E+07-7.35134E+07 2.26693E+07 4.59440E+07-8.48661E+06 7.98647E+06
 -1       457-8.10105E+07-4.65454E+07-6.46962E+06 2.27759E+07 3.44623E+06-7.00065E+06
 -1       458-1.17797E+08-4.58099E+07-4.58100E+07 5.68596E+05 1.12921E+00 3.68366E+07
 -1       459 1.97894E+08 7.69586E+07 7.69588E+07-4.16070E+06 1.12449E+02-1.48812E+07
 -1       460 1.62999E+08 1.07473E+08-1.55797E+07-8.09533E+07-2.67637E+07 3.59566E+07
 -1       461-5.26730E+06-4.68952E+06 4.14701E+06-2.42869E+06 2.07383E+06 1.12356E+06
 -1       462-2.01562E+05-3.62252E+06-2.44837E+06-7.63109E+05-1.64430E+06-1.10689E+06
 -1       463-8.96536E+05-1.03255E+06 5.92183E+05-4.23804E+05-1.48412E+06-2.50833E+06
 -1       464 6.49185E+05 9.26838E+05-5.98388E+05 3.77004E+05-1.48309E+06-2.55791E+06
 -1       465 2.29947E+05 3.59473E+06 2.48262E+06 7.25519E+05-1.63581E+06-1.19154E+06
 -1       466 4.95422E+06 4.61596E+06-4.13972E+06 2.38647E+06 1.96871E+06 1.04333E+06
 -1       467-1.37618E+08-8.75069E+07 2.32551E+07 1.00854E+08-3.40270E+07 3.10818E+07
 -1       468-1.72871E+08-6.72274E+07-6.72277E+07 5.25413E+06 1.59304E+02-1.01316E+07
 -1       469 1.59823E+08 6.21533E+07 6.21535E+07 1.60492E+06 6.26392E+01 3.27082E+07
 -1       470 1.21635E+08 5.59399E+07 1.94994E+07-1.00660E+07 5.57456E+06-4.08883E+06
 -1       471 7.48641E+07 5.31686E+07-2.45945E+07-1.11087E+07-3.24777E+06 1.00344E+07
 -1       472 3.18189E+07 7.76992E+06-1.40505E+07 1.81071E+07-1.24087E+05-1.07739E+07
 -1       473 2.32547E+07 7.17951E+03 1.66862E+07 2.56269E+07 8.02468E+06 1.15165E+07
 -1       474-5.23936E+06-6.11997E+06-1.96789E+06-2.47898E+06-3.36906E+06-5.24855E+05
 -1       475-2.14887E+06-2.76586E+06-1.01714E+06 3.84956E+04-2.07824E+06-2.09264E+05
 -1       476-3.98469E+05-2.55990E+06 5.45594E+05-1.79832E+05-1.79756E+06-5.74144E+05
 -1       477-7.43035E+05-1.13998E+06 3.01214E+05-1.39157E+05-2.06372E+06-1.69829E+06
 -1       478-2.77715E+05-1.06619E+05 2.42841E+05 5.49392E+04-1.58678E+06-2.43201E+06
 -1       479 5.39636E+05 4.38477E+05-4.16197E+05 5.51192E+05-1.72620E+06-2.15229E+06
 -1       480 5.69211E+05 5.56385E+05-1.17461E+06 4.85234E+05-1.87194E+06-2.64663E+06
 -1       481 2.55481E+06 3.11330E+06 1.66855E+06 1.57454E+06-1.70032E+06-1.77330E+06
 -1       482 6.95124E+05 3.48207E+06 4.49799E+06 1.53227E+06-2.80444E+06-1.16959E+06
 -1       483 1.96445E+06 4.51578E+06-6.34171E+06 1.73994E+06-3.46356E+05 1.06193E+06
 -1       484 7.23010E+06-5.10021E+05-9.82386E+06-8.09797E+05 3.66478E+06 7.00898E+05
 -1       485-1.24556E+08 1.32494E+07-9.87882E+06 7.63031E+07-2.91038E+07 3.15626E+07
 -1       486-2.19264E+08-1.35247E+07 2.50690E+06 7.40556E+07-7.26922E+06-3.28661E+07
 -1       487-2.55960E+08-3.89579E+07 3.15111E+07 1.14309E+08-4.55175E+06 2.26434E+07
 -1       488-2.47041E+08-7.43379E+07-3.29420E+07 6.68996E+07-4.24360E+06 1.83600E+05
 -1       489-2.64146E+08-1.02723E+08-1.02724E+08 7.43045E+06-1.19910E+02-3.08502E+06
 -1       490 1.47127E+08 5.72160E+07 5.72161E+07 5.41606E+05-8.13738E+01 1.57011E+07
 -1       491 7.49010E+07 2.69637E+07-2.29326E+07 1.71117E+06 6.73620E+06 1.15421E+07
 -1       492 4.40383E+07 1.21053E+06 1.82789E+07 1.62472E+07 9.44734E+06 1.03072E+07
 -1       493 8.82226E+06-1.48745E+06-4.05522E+06 1.80038E+06-2.48102E+06 1.94879E+06
 -1       494-3.74072E+06-2.40700E+06 1.37856E+06-1.17098E+06-1.44684E+03 3.14364E+05
 -1       495-1.65965E+05-3.36506E+05-1.00657E+06 6.71180E+05-1.17487E+06-2.88721E+06
 -1       496 2.86891E+06 2.42573E+06 1.91278E+06 1.72547E+06-1.20523E+06-2.70147E+06
 -1       497 3.12982E+06-3.18163E+06-8.32662E+06 2.68862E+06-4.78996E+05 9.98361E+05
 -1       498-1.73130E+07-2.02816E+06 1.04902E+07-5.25118E+06 1.06110E+07 4.18365E+06
 -1       499-1.56293E+08 3.48003E+07-2.38048E+07 7.88526E+07-1.43492E+07 6.05412E+07
 -1       500-2.48873E+08-5.72381E+06 5.17356E+07 7.99159E+07-8.87554E+06 1.26298E+07
 -1       501-3.62426E+08-1.40944E+08-1.40944E+08 3.75376E+06 1.51596E+02 2.90336E+07
 -1       502 1.35876E+08 5.28408E+07 5.28409E+07-1.91409E+06 4.13475E+01 7.34970E+06
 -1       503 1.20622E+08 3.98114E+07 2.36885E+07-3.40128E+05 5.11796E+06 3.07517E+06
 -1       504 8.43598E+07 2.05625E+07-1.30875E+07 7.83700E+05-2.15164E+06 2.80868E+06
 -1       505 5.69888E+07 3.68625E+04-4.74292E+06 1.26120E+06 2.33485E+06-1.87886E+06
 -1       506 4.30652E+07-2.43294E+07 6.29152E+06-8.52129E+05-4.45436E+06 1.13224E+07
 -1       507 2.37249E+07-3.37061E+07 2.23188E+05-1.79921E+07 2.23600E+07-2.72309E+05
 -1       508 7.31468E+06-5.43124E+07-8.16887E+06-2.40420E+07 1.07085E+07 9.63010E+06
 -1       509 1.43913E+07 5.06506E+05-5.86996E+06-3.34310E+06-7.53573E+06-1.56789E+06
 -1       510-9.42435E+06-1.10131E+07-9.59310E+06-4.79644E+06-4.32039E+06-4.63391E+06
 -1       511-9.16595E+06 1.20158E+06 2.83130E+06 2.91146E+06-4.16593E+05 2.55685E+06
 -1       512 3.85976E+06 2.71286E+06 1.96391E+06 2.34789E+06-1.43588E+05-1.23571E+05
 -1       513 1.16833E+06-1.60236E+05-2.52338E+06 6.60796E+05-2.75092E+05-3.10526E+06
 -1       514 2.47481E+06 2.46353E+05 1.72824E+06 8.44429E+05-7.96847E+05-2.50381E+06
 -1       515 2.71605E+06 9.17875E+05 5.14813E+06 1.53654E+06-9.79398E+05-3.88062E+06
 -1       516-4.95587E+06 1.27833E+06-8.64720E+06 3.66061E+06 7.81697E+05-2.77959E+05
 -1       517 2.14800E+07 1.83667E+07-1.41593E+07 1.49182E+07 6.84152E+06 7.74811E+06
 -1       518 1.56246E+07 1.77793E+06 3.14462E+07-4.20984E+06-5.58069E+06-8.68386E+06
 -1       519-1.91946E+07-9.29271E+05 5.12650E+07-1.95395E+07 1.86627E+07-4.60039E+06
 -1       520-4.08026E+07 1.19686E+08 3.18063E+07-5.08017E+07-5.38448E+07 3.74122E+07
 -1       521-8.85544E+07 1.10878E+08 1.06798E+07-2.82063E+07-4.51787E+07 1.09159E+07
 -1       522-1.90623E+08 8.01371E+07-3.17969E+07 3.34831E+07-1.13084E+07 2.06324E+07
 -1       523-2.16355E+08 2.39270E+07 1.16682E+07 5.12899E+07-1.60665E+06-4.27383E+06
 -1       524-2.53053E+08-1.91637E+07 5.57364E+07 5.46066E+07 3.72479E+05 2.15216E+07
 -1       525-3.72672E+08-1.15082E+08-7.05925E+07 2.91475E+07 4.25085E+06 2.12767E+06
 -1       526-4.37426E+08-1.70110E+08-1.70110E+08 1.57633E+06-5.60480E+01 9.55220E+06
 -1       527 1.37567E+08 5.34982E+07 5.34982E+07-2.00580E+05 2.56618E+01 1.02586E+07
 -1       528 7.59711E+07 1.03876E+07-1.44266E+07-5.67279E+06-2.13886E+06 9.74992E+06
 -1       529 2.60774E+07-2.83330E+07 1.99228E+05-1.99580E+07 1.92660E+06 6.25501E+06
 -1       530-1.86981E+07-1.01269E+08 1.60970E+05-4.61055E+07-1.37952E+07 2.76162E+06
 -1       531-1.92632E+07 2.28501E+07 1.10892E+07 1.38765E+07-2.03465E+07 5.32067E+06
 -1       532 1.15324E+07 3.96304E+06-2.45288E+06 3.53625E+06-1.56567E+06-7.10109E+06
 -1       533 8.69495E+05 1.48249E+06 3.70337E+06 6.13926E+05-6.48427E+05-2.46714E+06
 -1       534 3.95284E+06 1.10390E+06-7.22020E+06 1.84959E+06 1.15347E+06-1.29773E+06
 -1       535-4.75668E+06 1.16506E+07 2.91991E+07-1.77672E+06-6.92707E+06-8.68001E+06
 -1       536 5.92247E+07 8.17547E+07-5.64184E+07 5.98638E+07 1.75725E+07 5.95139E+06
 -1       537 1.30308E+07 2.23187E+08-1.59985E+07-8.48684E+07 4.04773E+07 1.63824E+07
 -1       538-1.24034E+08 9.32659E+07-9.90714E+06-1.95658E+07-3.84836E+06 2.14667E+07
 -1       539-2.58702E+08-2.14676E+07 5.19842E+07 2.44478E+07 1.58918E+06 2.54631E+07
 -1       540-4.78532E+08-1.86096E+08-1.86096E+08 2.39734E+06-6.99279E+00 3.96201E+07
 -1       541 1.36500E+08 5.30835E+07 5.30836E+07 9.71001E+05-5.65142E+01 1.00767E+07
 -1       542 1.10980E+08 3.30461E+07 2.29531E+07-5.19499E+06-6.04870E+05-1.54328E+06
 -1       543 6.08804E+07 7.55505E+05-1.74902E+07-9.81895E+06 5.21882E+06 8.11448E+06
 -1       544 3.51314E+07-6.90041E+06-9.16137E+06-2.27158E+07-2.77381E+05-2.15869E+06
 -1       545 1.27421E+07-1.69116E+07-5.51304E+05-3.83117E+07 7.08132E+06 1.24950E+07
 -1       546-8.25490E+06-4.67603E+07 1.61603E+07-6.67341E+07-9.01716E+06-5.77878E+06
 -1       547-1.09784E+08-9.26056E+07 5.84381E+06-1.13632E+08-1.01719E+07 2.75759E+07
 -1       548-4.37454E+08-2.71073E+07-5.90161E+07-2.57444E+07 1.44768E+07 3.50637E+07
 -1       549-2.82828E+08 2.60082E+07-1.82617E+07 7.16848E+07 8.46439E+06 5.73956E+07
 -1       550-6.02419E+07-3.39859E+06 1.13311E+07 9.66342E+06 3.39644E+06-1.55010E+07
 -1       551-3.37213E+05-8.20163E+06-1.50131E+07-4.47600E+06 1.50023E+05-6.85127E+05
 -1       552 2.36624E+06-2.42214E+06 1.04013E+05-4.26922E+06 3.27046E+05 1.38112E+06
 -1       553 7.06348E+06 3.33966E+06 6.33381E+06 2.32631E+06-1.02201E+06-2.64304E+06
 -1       554 3.17509E+06 3.24169E+06-2.79465E+06 3.54936E+06 7.20558E+05 2.27842E+06
 -1       555-3.90878E+06 4.28361E+06-1.16157E+07 6.22111E+05 1.28559E+06 1.81656E+06
 -1       556-2.96995E+06-1.42233E+07 9.45825E+06-6.96856E+06 3.58214E+06 1.02207E+07
 -1       557-5.97239E+05-1.24243E+07 5.38306E+07-1.98564E+07-4.17638E+06 1.64614E+07
 -1       558 1.06191E+08 5.46028E+07-5.65857E+07 5.85902E+07 3.35138E+06 7.11464E+06
 -1       559 6.89560E+08 6.04900E+08 9.21008E+07 3.61829E+08 1.11867E+08 1.34282E+08
 -1       560 1.01054E+09 6.53028E+08 1.78304E+08 2.42750E+08-8.71051E+07 1.85915E+07
 -1       561 2.43181E+08 2.43745E+08-3.76584E+07-1.56468E+08 9.94083E+06 2.30257E+07
 -1       562 7.78041E+06 1.55398E+08-4.21705E+07-1.12311E+08-1.34407E+07 4.67772E+06
 -1       563-6.26848E+07 1.03912E+08 9.82024E+06-6.58987E+07 1.20323E+07 2.19285E+07
 -1       564-1.51342E+08 4.44378E+07 3.36581E+07-2.60907E+07-1.15234E+06-1.05803E+07
 -1       565-2.44509E+08-8.97061E+06 5.79318E+07-2.63269E+06-9.89927E+06 3.37723E+07
 -1       566-4.08357E+08-1.20358E+08-8.35874E+07-2.03610E+06 2.57009E+06-2.28254E+06
 -1       567-4.97467E+08-1.93460E+08-1.93460E+08 2.03814E+06 1.33175E+02 3.59672E+07
 -1       568 1.18061E+08 4.59125E+07 4.59126E+07-2.43211E+06 4.99156E+01 7.74402E+06
 -1       569 5.61129E+07-1.22903E+06-1.37596E+07-1.45716E+07-8.72911E+05 9.78481E+06
 -1       570-2.07543E+07-2.79563E+07-1.83101E+06-3.79377E+07-3.09961E+06 4.08073E+06
 -1       571-1.08135E+08-1.35861E+07 6.77148E+06-8.01072E+07 2.14610E+07 4.09132E+07
 -1       572-2.40496E+08 5.84662E+07-9.34878E+06 1.31506E+08 3.11536E+07-1.82027E+07
 -1       573 6.94015E+08 9.01413E+08 1.65827E+08 2.91339E+08 8.53849E+04-7.95130E+07
 -1       574 2.13262E+08 2.16120E+08-1.45052E+07-1.74838E+08 2.73926E+07 9.62999E+07
 -1       575-8.78800E+06 1.08457E+08-7.52598E+06-8.33419E+07-8.25204E+06 2.94970E+07
 -1       576-2.35611E+08 2.91709E+06 5.43961E+07-2.35529E+07 6.56931E+06 3.30606E+07
 -1       577-4.62434E+08-1.79836E+08-1.79836E+08-8.21029E+06-1.66049E+02 3.07390E+07
 -1       578 9.59909E+07 3.73298E+07 3.73299E+07-5.81965E+06-2.72073E+01-9.94714E+06
 -1       579 8.79730E+07 2.24183E+07 1.91567E+07-1.36791E+07 3.67306E+06-3.89866E+06
 -1       580 5.25449E+07-8.22089E+05-9.02349E+06-1.96096E+07-2.04210E+06 8.65578E+06
 -1       581 2.24327E+06-2.34835E+07-6.20027E+06-2.70822E+07 6.49473E+05-1.17910E+07
 -1       582-3.81402E+07-3.32708E+07 3.00466E+06-3.58124E+07 5.20948E+05 1.57549E+07
 -1       583-5.95672E+07-1.05115E+07 1.47468E+06-3.74342E+07-6.58435E+06-7.21453E+06
 -1       584-1.06041E+08 1.44843E+07-6.44208E+06-3.57331E+07-3.82609E+06-2.21062E+07
 -1       585-6.82676E+07 2.55859E+07-5.38951E+05 1.56843E+07 4.89658E+06 3.64414E+07
 -1       586 8.55650E+06 1.08212E+07 9.05598E+06 5.92359E+07 2.07138E+07-6.46073E+06
 -1       587 2.58707E+07 1.02513E+07 8.97313E+06 1.34397E+07 1.96319E+05 1.71600E+06
 -1       588 1.24669E+07 4.51100E+05-2.29523E+06 7.19560E+06-4.27171E+06-6.91472E+06
 -1       589 9.21713E+07 1.18930E+07 1.86186E+07-3.94288E+07 3.04844E+07-3.21753E+07
 -1       590 1.49476E+08 3.23411E+07-3.47464E+07-8.47742E+07-7.99598E+06 3.24946E+07
 -1       591 1.75339E+08 2.60045E+08-3.88833E+07-1.19260E+08 1.37306E+07 1.02078E+07
 -1       592 1.97770E+08 2.05583E+08-1.51900E+07-1.50266E+08 8.60225E+07 4.95003E+07
 -1       593 2.37595E+08 2.23791E+08 3.37214E+07-1.80573E+08-4.16264E+07-5.30974E+07
 -1       594 1.33851E+08 1.79378E+08 5.39919E+06-1.49402E+08-2.87290E+06-4.22468E+06
 -1       595 6.37032E+07 1.34619E+08-1.36129E+07-1.08969E+08 9.23677E+06 2.33860E+07
 -1       596-7.59625E+07 5.91859E+07 1.58281E+07-6.71057E+07 1.22060E+07-2.97370E+07
 -1       597-2.22885E+08 1.54087E+07 5.21011E+07-4.32755E+07-9.00756E+06 3.16111E+07
 -1       598-3.66027E+08-9.03240E+07-7.26811E+07-3.67735E+07-1.47724E+07-1.04466E+07
 -1       599-4.08881E+08-1.59010E+08-1.59010E+08-2.03282E+07 1.51937E+02-3.28739E+07
 -1       600-3.61169E+07-1.05316E+07 7.39650E+06-2.52530E+07 1.62592E+07 1.86554E+07
 -1       601-6.03871E+07 7.29170E+06-3.65239E+06-2.19291E+07-6.19063E+06-8.98677E+06
 -1       602-7.21421E+06-2.43010E+06-1.71003E+06 2.29518E+07-7.25910E+06-1.61940E+07
 -1       603-5.67126E+06-5.41163E+06-7.56313E+06 5.24653E+06-4.95307E+06 6.56563E+06
 -1       604 8.94799E+07 2.01197E+07 3.02610E+07-4.48430E+07 1.51974E+07-3.47365E+07
 -1       605 1.17250E+08 4.68030E+07-2.93632E+07-1.13040E+08 1.81070E+06-2.35361E+07
 -1       606 1.75997E+08 1.27140E+08 3.21319E+06-1.51271E+08 5.11580E+05-7.62269E+06
 -1       607 1.22988E+08 1.58813E+08 6.85676E+04-1.00154E+08-3.91445E+07 3.64110E+07
 -1       608-4.40355E+07-3.15862E+05 5.49800E+06-1.59131E+07-1.87939E+07-7.23613E+06
 -1       609-5.48652E+07-1.29841E+07-8.42213E+06-1.52411E+07 5.22246E+06 2.00831E+06
 -1       610-1.71870E+07 1.36362E+07 2.24074E+06-8.01944E+06 7.54018E+06 3.88453E+06
 -1       611-1.02236E+07 2.63223E+07 5.30038E+06 2.65431E+06-9.01075E+06-7.12349E+06
 -1       612-1.82604E+07 1.29843E+07-3.12679E+06 8.69040E+06 5.41791E+06 1.09720E+07
 -1       613 4.50326E+05 1.77866E+07 2.77785E+06 6.23742E+06-6.04830E+06 3.22729E+06
 -1       614 4.85361E+06 1.59734E+07 2.82403E+06 1.26847E+06-8.19636E+05-8.30721E+06
 -1       615 3.42177E+07-1.07419E+08-1.08310E+07-6.64391E+07 4.09573E+07-3.68573E+06
 -1       616 3.88965E+07-1.04457E+08-8.42712E+06-7.06720E+07 4.39146E+07 7.47033E+06
 -1       617 7.89022E+07-7.48743E+07 1.13223E+07-8.99647E+07 1.26773E+07 1.04557E+07
 -1       618 8.98307E+07-1.70177E+07-8.44667E+06-9.65544E+07 3.51447E+07-1.30983E+07
 -1       619 1.21626E+08 6.54765E+07-1.54744E+07-1.12176E+08 1.79726E+07 9.54607E+06
 -1       620 1.71785E+08 1.25351E+08 5.00250E+06-1.03441E+08 3.04952E+07-3.33978E+07
 -1       621 1.18420E+08 1.05498E+08-2.58309E+07-8.01215E+07 3.55985E+07 2.49692E+07
 -1       622 2.49570E+06 3.03561E+07 6.41413E+05 8.17140E+05 2.56098E+05 4.75874E+06
 -1       623-5.25816E+06 2.97378E+07-2.77179E+06 9.03577E+06 1.01134E+06-5.47475E+05
 -1       624 5.42382E+06 4.02977E+07 2.99141E+06 6.75646E+06 5.90757E+06-4.06064E+05
 -1       625-1.58015E+07-3.33742E+08-1.55468E+07-2.93762E+07 4.70098E+06 2.53670E+06
 -1       626 3.41590E+07-1.73237E+08 2.66339E+07-3.91441E+07 3.73531E+06-1.99278E+06
 -1       627 5.52293E+07-7.36902E+07 1.75130E+07-6.11322E+07-3.24084E+07 7.49463E+06
 -1       628-5.01650E+06 3.80781E+07-1.10919E+07 1.99956E+06-3.58548E+06-5.26600E+06
 -1       629 1.90741E+04 3.82975E+07-8.24731E+06 4.03710E+06-2.97398E+06 1.59122E+06
 -1       630 2.88305E+06 3.68506E+07-6.47730E+06 7.09877E+06-4.94260E+06-8.32367E+04
 -1       631 2.76047E+04 3.51079E+07-7.27029E+06 1.15053E+07-6.13288E+05-3.92385E+05
 -1       632 1.11026E+06 3.55416E+07-6.35118E+06 1.71794E+07-4.00897E+06-1.26501E+06
 -1       633-4.85741E+06 1.23759E+07-2.27849E+06 2.37408E+07-2.74529E+06-5.95268E+06
 -1       634-3.46233E+07-1.69210E+07-6.58600E+06 2.93281E+07-9.19825E+06-1.31574E+07
 -1       635-6.19159E+07-3.50319E+07 7.43648E+06 6.50585E+07 2.09218E+07-3.87929E+06
 -1       636-6.47718E+07-6.25396E+07 2.56701E+07 1.13176E+08 1.70553E+07-1.85564E+07
 -1       637-4.14387E+07-1.72285E+08 4.83088E+07 1.44137E+08 3.50834E+07-5.17408E+07
 -1       638-1.74631E+06-3.38935E+08 5.95951E+07 9.26356E+07 3.37949E+07-1.10574E+07
 -1       639 1.73611E+07-2.91366E+08 6.12500E+07 3.16987E+07 2.00703E+07-6.78452E+05
 -1       640 4.81849E+06-2.34999E+08 5.65062E+07 1.94392E+06 3.56289E+07-5.86285E+06
 -1       641 5.48705E+06-2.34375E+08 5.30036E+07-2.03147E+07 3.00737E+07 5.66342E+06
 -1       642 1.86565E+07-2.29687E+08 5.41393E+07-4.03691E+07 3.65270E+07-6.70067E+06
 -1       643 1.28664E+07 5.68872E+07 9.35642E+06-1.70948E+06 3.99582E+05-2.22858E+06
 -1       644 1.57658E+07 5.29025E+07 1.04258E+07 3.79962E+06 7.06140E+05 4.90046E+05
 -1       645 8.08897E+06 3.35235E+07 3.34464E+06 1.01388E+07-6.66398E+05 1.39894E+06
 -1       646-8.33940E+06-6.23502E+06-1.57658E+05 1.77432E+07 2.52192E+06 1.05259E+07
 -1       647-5.45508E+07-1.03515E+08-1.35999E+07 5.70217E+07-1.03109E+07-2.21724E+06
 -1       648-8.19525E+07-3.37250E+08-3.98839E+07 6.66638E+07-3.03036E+06-4.63368E+06
 -1       649-1.18118E+08-4.06605E+08-8.64442E+07 4.55482E+05-1.02785E+07 9.14849E+06
 -1       650-8.83814E+07-3.65824E+08-7.05638E+07-3.87251E+07-8.00669E+06-1.22309E+07
 -1       651 2.49693E+07 6.42067E+07 2.49693E+07-2.33953E+06 3.97636E+06 3.61319E+01
 -1       652 2.54299E+07 6.53910E+07 2.54299E+07-7.64146E+05-3.54117E+06-2.03303E+01
 -1       653 2.47222E+07 6.35713E+07 2.47222E+07-4.73380E+03-2.61688E+06 2.67072E+00
 -1       654 2.03241E+07 5.22618E+07 2.03241E+07 5.92313E+05-5.36348E+06 2.44926E+01
 -1       655 1.42888E+07 3.67425E+07 1.42888E+07 1.33414E+06 8.83259E+05-1.69614E+01
 -1       656 7.11895E+06 1.83058E+07 7.11895E+06 1.87690E+06 1.96270E+06 2.69746E+01
 -1       657-1.15794E+06-2.97776E+06-1.15805E+06 3.10550E+06 1.07851E+07 6.59004E+01
 -1       658-2.54012E+07-6.53178E+07-2.54014E+07 1.72226E+06 1.28836E+06-2.87673E+01
 -1       659-5.83044E+07-1.49925E+08-5.83045E+07 2.15595E+06 3.66925E+07-8.32218E+00
 -1       660-9.56183E+07-2.45876E+08-9.56185E+07 9.76515E+06 2.67169E+06 1.95886E+02
 -1       661-1.43388E+08-3.68712E+08-1.43388E+08 9.82013E+06-1.43057E+07-1.08721E+01
 -1       662-1.75164E+08-4.50422E+08-1.75165E+08 3.77437E+06 4.88748E+07 8.90563E+01
 -1       663-1.95905E+08-5.03755E+08-1.95905E+08 1.03578E+06 3.05024E+07 1.06388E+02
 -1       664-1.79279E+08-4.61002E+08-1.79279E+08-8.75153E+06 2.71715E+07-2.23761E+02
 -1       665-1.55221E+08-3.99140E+08-1.55221E+08-2.07926E+07-4.02234E+07 2.06499E+02
 -1       666 2.55043E-06 7.86781E-06 1.36590E-06 6.78306E-06-3.65609E+07-1.67655E+02
 -1       667 5.99260E-06 1.43815E-05 7.04319E-06 3.02220E-06 2.72880E+07-6.39037E+01
 -1       668 1.10664E-06 5.25359E-06-1.22841E-06-5.64381E-07 1.26290E+07 6.71640E+01
 -1       669-8.11182E-07-1.74332E-06-1.12533E-06-2.85171E-06-8.83855E+06 1.04792E+02
 -1       670-3.32558E-06-9.38098E-06-2.49344E-06-4.99689E-06 2.48321E+07 7.50483E+01
 -1       671-7.35171E-06-1.92937E-05-6.94930E-06-4.22029E-06 2.11470E+06 4.86835E+01
 -1       672-9.91963E-06-2.59799E-05-9.43848E-06 1.19835E-07-2.58760E+06-9.89959E+00
 -1       673-1.76876E-05-4.55687E-05-1.76381E-05 6.47367E-06 4.68400E+06-1.80120E+01
 -1       674 3.34135E-06-5.41843E-06-8.25420E-06 5.45464E-07 4.07159E+07-1.71923E+07
 -1       675 4.61831E-06 1.16394E-05 8.86677E-06 5.45371E-06 2.64623E+07-5.92863E+06
 -1       676-5.67851E-06 9.96189E-06-1.11317E-05-5.41611E-06 3.40987E+07 6.20186E+06
 -1       677-3.15641E-06 4.72646E-08-7.35830E-06-1.53979E-07 7.07486E+06-1.18440E+07
 -1       678-3.77378E-06-3.27632E-06 1.11436E-05-5.23054E-06-1.35998E+06-4.14698E+06
 -1       679 2.39200E-06-1.97648E-05 6.79465E-06-7.08617E-06-4.67151E+06-1.23998E+06
 -1       680 1.02569E-05-2.23378E-05 1.82435E-05 3.74588E-06-4.21793E+06 1.08595E+06
 -1       681-1.81214E-06-2.97306E-05-1.23959E-05-1.46028E-06-1.81764E+06-5.13621E+06
 -1       682 5.21634E-05 2.51876E-05 1.22446E-04-1.46609E-05 5.72010E+07 2.45617E+07
 -1       683 2.20430E-05-3.89488E-05-2.30981E-05 1.67166E-05 8.65875E+06 7.36419E+06
 -1       684-3.44209E-05-1.40133E-05-1.30497E-04 2.09858E-07 4.67176E+07 5.46559E+06
 -1       685-1.50411E-05-1.91927E-05-6.43470E-05 2.49594E-07 2.53309E+07-4.13990E+07
 -1       686-7.75792E-06 1.29677E-05 2.22961E-05-2.16067E-06 3.98581E+06-2.40960E+07
 -1       687 9.05612E-06 1.00299E-05 1.19782E-05 5.92344E-06 5.49192E+05-2.38416E+06
 -1       688-2.65326E-05-3.91717E-05-1.62997E-05-2.15183E-05 2.07818E+06-8.42899E+06
 -1       689 2.01518E-05-4.42552E-05 1.79935E-05-7.93533E-06 5.30880E+06 1.04478E+07
 -1       690 1.41000E-05-3.65746E-06-1.40338E-05 1.94384E-05 9.28979E+06 4.74005E+06
 -1       691-6.10529E-06-2.47834E-05-3.43376E-05-3.51109E-07-1.34244E+07 8.77622E+05
 -1       692-6.08228E-05-2.46083E-05-2.69754E-05-7.40530E-06-2.01495E+02-3.81067E+07
 -1       693-6.27320E-05-1.93096E-05-5.57732E-05 1.19035E-06-8.23502E+06 2.87636E+07
 -1       694 4.01974E-06 3.51944E-05 6.86722E-05-2.00185E-05 1.14861E+07 2.30657E+07
 -1       695-5.14527E-05-9.69018E-05-1.05109E-04-2.93078E-05-4.31874E+07-7.42568E+07
 -1       696-1.12015E-05 2.01203E-05-1.95956E-04 5.69671E-05 2.54654E+07 8.10532E+06
 -1       697 2.58887E-05 5.00323E-05 7.02576E-05 2.10605E-05-4.61686E+06-9.23873E+06
 -1       698-7.39135E-05-2.11613E-04 6.87526E-06-1.73968E-05 1.54893E+07-3.89502E+06
 -1       699-3.93149E-05 2.35123E-05-4.07716E-06 1.35171E-05 4.30341E+06-2.22233E+07
 -1       700 6.28317E-06-2.58830E-08 2.37230E-05-1.86763E-05-2.39472E+06 1.13752E+07
 -1       701 3.33451E-05-4.77524E-06-1.04361E-05-9.44689E-07 7.43183E+05 1.30397E+07
 -1       702 7.30753E-05 3.52054E-05 5.25177E-05-7.08719E-06 5.96914E+01-1.18230E+07
 -1       703-2.66861E-05-1.03661E-05-1.02592E-05-2.19350E-06-7.32610E+01 3.20543E+07
 -1       704-2.95178E-05-5.02844E-06-3.00214E-05-4.75836E-06-1.04487E+07 3.22904E+07
 -1       705-4.74877E-05 1.28783E-05 8.56057E-06 1.28796E-06 9.82942E+06 2.25349E+07
 -1       706-2.89380E-04-8.93970E-05-1.44149E-04 2.95468E-05 1.45437E+07 3.51127E+07
 -1       707-4.86987E-04-1.00318E-04-3.39550E-04-1.33687E-04 5.90825E+07 8.30629E+07
 -1       708-3.56882E-04-2.97770E-04-8.84030E-04 1.16672E-05-2.22628E+04 3.09057E+07
 -1       709-5.86865E-05-4.72151E-05-2.71166E-04-2.96232E-07-9.08962E+06-5.59544E+06
 -1       710 4.10566E-06-2.74571E-05-1.41457E-04 1.63042E-06-6.74123E+05-5.02918E+06
 -1       711 1.14686E-04 9.70224E-05 2.98989E-04-1.18307E-05-2.35464E+06 5.89615E+06
 -1       712 2.93416E-04-1.78763E-04 1.29316E-04 1.08460E-05 4.55651E+06 2.97703E+07
 -1       713 2.23406E-04 2.93644E-05 1.44631E-05-6.26300E-05-1.21130E+07 4.41834E+07
 -1       714 7.00268E-05-6.86406E-06-3.73093E-05 1.55493E-05 9.43629E+06 2.33106E+07
 -1       715 2.88952E-05-8.10807E-06 2.10421E-07-2.20402E-06 2.70603E+06 7.97956E+06
 -1       716 3.36384E-05 1.72928E-05 2.81422E-05 1.37906E-06 2.23916E+00 6.06475E+06
 -1       717 2.11596E-06 9.89414E-07 1.43750E-06 3.21306E-07 5.50232E+01 7.63138E+06
 -1       718 1.90707E-05 3.37557E-05 1.04567E-04 3.24502E-06 8.59115E+05 2.07818E+07
 -1       719-1.04611E-05-7.53168E-07-2.09623E-05 1.69716E-05-1.07634E+07 2.36469E+07
 -1       720 5.03995E-05 3.76031E-05 9.06112E-05-2.20928E-05-5.71980E+07 3.82135E+07
 -1       721 2.29127E-04 1.79765E-04 5.03795E-04-8.57815E-06 2.95523E+07-1.86390E+06
 -1       722 2.85191E-05 4.61371E-05 1.48068E-04-4.61182E-06 2.10218E+07 2.64645E+07
 -1       723 7.11219E-05 4.07657E-05 2.07085E-04 5.76253E-06-1.86191E+06-6.09181E+06
 -1       724-1.34634E-05-2.18057E-05 1.08573E-05-5.44408E-07 1.05220E+05-3.64175E+06
 -1       725 1.06232E-05 8.15064E-06-1.31716E-04-4.02366E-06 1.40815E+06 9.92038E+06
 -1       726-6.37292E-06-2.35357E-05 1.99545E-04 1.79481E-05-4.56575E+06-2.76955E+06
 -1       727-3.96436E-05-2.21817E-05-5.47166E-05-9.53302E-06 8.58778E+06 1.56730E+07
 -1       728 4.27725E-06-2.46568E-07 3.61213E-06 1.16607E-06-5.18405E+06 5.79582E+06
 -1       729 1.29528E-05 8.53441E-06 1.76646E-05 4.47573E-06 5.55122E+01 6.51443E+06
 -1       730 2.33762E-06 5.31261E-07-6.09107E-07 1.94670E-06 4.03436E+01 1.19101E+05
 -1       731 1.36414E-05 1.33624E-05 2.77552E-05-6.06850E-06-4.05467E+06 2.25533E+07
 -1       732-6.41942E-05-3.83975E-05-1.50181E-04-1.26660E-06-2.98858E+07 3.34265E+07
 -1       733-8.34214E-05-9.18830E-05-3.71392E-04 9.91013E-06-1.58959E+06-1.19578E+07
 -1       734 1.08263E-04 1.22822E-04 4.85257E-04-3.61376E-06-4.47503E+06-2.07152E+06
 -1       735-6.38589E-06 8.27013E-06-1.54734E-04 1.31411E-05-2.49993E+06-3.11734E+06
 -1       736 8.90701E-06 2.35821E-05-2.50131E-05 3.42760E-06-1.26164E+06-2.39139E+06
 -1       737 1.78913E-04 2.06617E-04 6.42839E-04 1.47689E-05-1.70353E+06-6.16150E+05
 -1       738 1.09782E-04 1.96067E-05 1.43998E-04-1.01984E-05-3.58965E+06-4.44236E+06
 -1       739-5.06453E-06-1.98612E-05-2.02085E-05-3.25390E-06-7.85901E+06 7.00133E+06
 -1       740-3.97861E-06 5.34160E-06 2.29534E-05 8.79221E-06 2.78760E+01 3.58515E+07
 -1       741 7.13672E-06 1.99163E-06-1.69821E-08-1.09707E-07 3.61631E+01 3.16902E+07
 -1       742 6.93370E-06 1.00614E-05 3.64122E-07 3.56097E-06-2.69915E+06 9.75242E+06
 -1       743-1.21566E-05-2.43450E-05-4.41710E-05-3.93065E-06 7.87116E+06 1.27063E+07
 -1       744-1.02940E-04-1.48358E-04-3.95461E-04-6.30696E-06-4.06926E+06-4.98355E+06
 -1       745 7.20471E-05 9.91281E-05 2.95944E-04 9.76312E-06-1.82678E+06-5.38598E+05
 -1       746 4.37562E-07-1.91635E-05-2.46177E-05 3.84416E-07-1.25301E+06-2.34580E+06
 -1       747 4.58696E-05 3.97500E-05 1.16554E-04 1.55134E-05-2.48444E+06-3.14676E+06
 -1       748-2.58137E-05-5.77873E-06 6.27623E-05 1.17535E-05-4.52058E+06-2.14578E+06
 -1       749-4.93628E-05-6.52571E-05-3.75726E-04-2.41947E-05-2.09889E+06-1.15331E+07
 -1       750 3.20859E-05 1.66786E-05 2.67383E-05-1.25915E-06-2.94774E+07 3.31268E+07
 -1       751-2.73498E-05-3.39346E-05 1.04231E-05 2.29580E-05-4.03896E+06 2.18837E+07
 -1       752-2.38419E-06 1.21966E-05 4.56292E-05 1.05725E-05 5.96278E+01-5.00657E+06
 -1       753 5.19119E-06 2.10945E-06 2.33861E-06 2.26142E-06 4.18139E+01 6.63464E+06
 -1       754 5.58922E-06 3.30224E-06 7.44727E-06 4.39247E-06-1.93516E+06 2.81774E+06
 -1       755-9.14512E-06-1.92312E-05-5.96196E-05 7.84259E-06-4.51026E+06 1.18335E+07
 -1       756-1.43885E-05-2.77068E-05-7.37134E-05-6.06384E-06 1.16778E+07 9.69681E+06
 -1       757 2.47503E-05-1.30589E-05 2.14965E-04 5.98619E-06-4.72657E+06-2.97029E+06
 -1       758 6.68535E-05 6.77918E-05 1.73019E-04 5.67399E-06 1.94587E+06 1.11917E+07
 -1       759 4.55099E-05 5.81212E-05 1.65423E-04-5.32926E-06 3.21339E+04-3.83287E+06
 -1       760 2.53541E-05 2.13291E-05-2.29763E-05 7.83606E-06-1.87195E+06-5.92172E+06
 -1       761-4.82194E-05-1.89464E-05-1.69206E-04-4.15053E-06 2.10557E+07 2.52509E+07
 -1       762 1.20627E-04 1.69635E-04 2.83888E-04 1.70133E-05 2.88140E+07-1.51604E+06
 -1       763-8.63536E-05-1.47792E-04-2.45417E-04-2.80319E-05-5.69406E+07 3.72352E+07
 -1       764-3.92081E-05-3.29263E-05 9.31229E-06 1.89031E-05-1.14430E+07 2.20654E+07
 -1       765-5.64144E-05-6.21253E-05-1.63638E-04 1.75566E-05 4.97236E+05 2.15296E+07
 -1       766 1.48080E-05 2.15136E-05 6.21015E-05 1.07963E-05 6.74250E+01 7.33000E+06
 -1       767 8.89553E-06 3.61400E-06 3.97754E-06 1.73674E-06 1.76506E+01 9.49153E+06
 -1       768 1.19139E-05 1.66247E-06 4.21206E-06 1.06404E-06 5.37856E+06 8.11990E+06
 -1       769 1.25342E-05-6.20476E-06-5.01121E-06 4.09852E-06 7.26634E+06 1.33145E+07
 -1       770 4.43724E-05-1.17102E-05-4.40291E-05 3.90969E-06-1.03352E+07 2.83675E+07
 -1       771 4.11286E-05-1.13847E-04-1.48558E-04-8.50487E-06 7.81369E+06 3.29909E+07
 -1       772-2.02968E-05-2.22676E-05-1.01466E-04-1.36334E-05-2.62734E+06 6.73441E+06
 -1       773-5.42454E-05-6.12460E-05-1.96828E-04-5.26302E-06-1.09147E+06-5.76752E+06
 -1       774 1.14047E-04 1.10359E-04 2.27088E-04-1.49792E-06-9.23747E+06-5.27866E+06
 -1       775 1.55801E-05-2.37487E-08 8.72929E-05-1.76151E-05-1.79785E+04 2.96409E+07
 -1       776-1.57170E-04 2.80088E-04 1.62744E-05 6.98538E-05 5.51154E+07 7.16660E+07
 -1       777-4.35466E-05-6.32989E-06 5.25780E-05-4.56674E-05 9.79137E+06 2.62364E+07
 -1       778-1.64944E-05-5.26960E-05-8.91214E-05 3.14959E-06 1.14570E+07 2.44807E+07
 -1       779-4.46425E-05-6.80282E-05-1.58483E-04 1.99329E-05-1.00827E+07 3.37876E+07
 -1       780 4.47258E-05 3.42252E-05 7.76453E-05 1.10027E-05-7.15517E+01 3.37966E+07
 -1       781 8.64640E-06 3.36906E-06 3.44962E-06-7.82311E-07 5.97832E+01-1.03429E+07
 -1       782 7.82078E-06-2.53436E-06-6.81472E-06 1.33412E-06-1.85264E+06 8.84975E+06
 -1       783-1.80909E-06-1.19809E-05-1.28505E-05-3.64861E-06 7.43784E+05 1.59735E+07
 -1       784-2.86791E-05-1.59419E-05-6.90195E-05-5.77711E-06-4.32532E+06-2.22690E+07
 -1       785-2.31488E-05-5.54574E-05 5.92981E-06 1.25629E-06 2.02279E+07-6.68874E+06
 -1       786-2.25950E-06 2.41680E-06-1.41999E-05 4.00352E-06-4.22294E+06-7.07545E+06
 -1       787 1.68138E-04 1.17732E-04 5.31588E-04 1.42371E-05 3.08253E+07-3.47073E+07
 -1       788 1.76424E-05 1.90779E-04-2.50251E-04-8.39339E-06 1.70006E+07 1.00982E+07
 -1       789 3.46128E-05 4.69098E-05 1.69566E-05 1.29594E-05-4.07318E+07-5.23246E+07
 -1       790 9.86829E-06-3.91565E-05 9.54215E-05 3.47942E-06 8.37087E+06 2.46894E+07
 -1       791 2.20351E-06-4.94001E-05-1.08453E-04-7.96758E-06-9.32298E+06 3.21943E+07
 -1       792 1.23024E-04 5.72279E-05 8.09208E-05 1.62553E-05-2.01502E+02-3.47294E+07
 -1       793-1.03042E-05-1.36505E-05-2.01296E-05 3.25544E-06-1.88797E+07-7.48338E+06
 -1       794-1.83762E-05-1.86546E-05-4.72789E-05 9.54644E-07 7.22849E+06 3.74728E+06
 -1       795 1.17725E-06-1.90544E-05-1.56939E-05-1.93081E-06 5.23900E+06 1.09195E+07
 -1       796 4.08663E-06-3.23932E-06 1.84733E-05-2.81457E-06-9.09913E+05-8.33010E+06
 -1       797 1.10036E-04 6.53602E-05 2.74752E-04-3.59179E-05 4.23525E+07-3.67719E+06
 -1       798 1.65473E-06 2.58016E-05 2.96595E-05-8.84703E-06 1.50514E+07 9.80242E+06
 -1       799 1.31379E-06 7.69179E-05-1.33254E-05 8.52967E-06 1.93001E+07 8.55350E+06
 -1       800-2.77981E-05-7.50497E-05-5.01508E-05-2.57418E-06 3.52725E+07 2.46215E+07
 -1       801 1.23172E-06-9.22522E-06 4.62250E-06-2.12637E-06-3.61281E+06-5.21975E+06
 -1       802 1.76875E-07-8.66118E-06 3.75266E-06 6.51677E-07-4.92880E+06-5.17791E+04
 -1       803-6.66504E-06-1.82475E-05-1.06775E-05-3.53125E-06-3.89885E+06-1.11653E+06
 -1       804 5.64332E-06 6.26434E-06 1.49038E-05 1.33817E-06-9.33037E+06-1.25010E+07
 -1       805-9.62755E-07-3.13763E-06-4.13554E-06 9.50880E-07 1.60227E+07-1.73171E+07
 -1       806 2.41090E-05 4.69697E-06 5.51992E-05-1.88835E-06 3.28713E+07-1.09136E+07
 -1       807 5.28898E-06 2.03811E-05 1.22199E-05-1.90904E-05 3.55440E+07-6.21466E+06
 -1       808-1.59293E-05 5.09303E-05-2.39490E-05-2.50502E-06 3.70994E+07-6.83111E+06
 -1       809-8.02800E-06-1.50241E-05-1.36462E-05 2.41322E-06 4.31906E+06-2.80753E+01
 -1       810-3.16801E-06-8.84105E-06-2.44786E-06-3.25745E-08-2.32044E+06-5.07563E+00
 -1       811-1.74998E-06-6.42307E-06 2.03436E-07-1.94280E-06 1.16310E+06 3.57442E+01
 -1       812 1.67498E-06 1.62487E-07 5.89622E-06-2.27895E-06 1.06530E+07 1.01558E+02
 -1       813 1.12830E-05 1.31112E-05 2.73334E-05-3.31271E-06 3.56599E+07-7.76100E+01
 -1       814 1.06171E-07 3.22983E-06-2.90480E-06-2.92514E-06-1.69159E+07 5.86136E+01
 -1       815 1.22096E-06 6.32182E-06-1.93994E-06-7.96386E-06 2.84655E+07 1.46091E+01
 -1       816-7.48038E-06 1.11610E-05-3.81023E-05-2.18209E-06-4.21302E+07-2.69224E+02
 -1       817-1.51342E+08-3.89165E+08-1.51342E+08-2.06991E+07-3.47915E+07 1.42676E+02
 -1       818-1.70517E+08-4.38473E+08-1.70517E+08-7.33589E+06 2.95485E+07-1.15528E+02
 -1       819-1.78385E+08-4.58705E+08-1.78385E+08 2.63269E+06 2.93630E+07 1.36966E+02
 -1       820-1.65127E+08-4.24612E+08-1.65127E+08 1.98062E+06 4.49872E+07-9.28807E+01
 -1       821-1.39742E+08-3.59335E+08-1.39742E+08 4.75098E+06 1.42643E+07-9.03625E+01
 -1       822-1.02968E+08-2.64774E+08-1.02968E+08 5.32192E+06 1.45806E+07 2.53147E+02
 -1       823-6.40639E+07-1.64736E+08-6.40640E+07 4.73948E+06-7.43551E+06-1.31432E+02
 -1       824-3.35646E+07-8.63091E+07-3.35647E+07 3.44954E+06-1.12572E+07 1.14137E+02
 -1       825-1.26946E+07-3.26433E+07-1.26947E+07 1.09967E+06 2.49535E+07 2.18561E+01
 -1       826 1.44860E+06 3.72481E+06 1.44856E+06 8.56502E+05 3.92451E+06-1.36147E+01
 -1       827 1.26638E+07 3.25639E+07 1.26637E+07 1.91397E+06 1.96437E+06 1.03158E+01
 -1       828 1.71693E+07 4.41495E+07 1.71693E+07 8.17941E+05-4.33862E+06 2.07181E+01
 -1       829 1.98116E+07 5.09440E+07 1.98116E+07-2.05382E+05-2.83708E+06-3.83529E+00
 -1       830 2.09103E+07 5.37694E+07 2.09103E+07-7.79309E+05-2.88856E+06-1.38509E+01
 -1       831 2.06667E+07 5.31430E+07 2.06668E+07-2.07074E+06 4.37534E+06 3.04546E+01
 -1       832-7.83189E+07-3.50519E+08-6.75352E+07-3.44562E+07-4.19026E+06-1.59183E+07
 -1       833-1.12001E+08-3.71817E+08-7.38584E+07 7.52875E+06 3.18682E+05 7.71950E+06
 -1       834-8.70854E+07-3.02476E+08-6.05205E+07 4.63204E+07 8.70225E+05 4.63437E+06
 -1       835-5.59670E+07-1.63694E+08-1.98554E+07 5.89708E+07-7.08454E+05-3.68001E+06
 -1       836-1.65309E+07-1.17548E+07-4.31802E+06 2.51754E+07-3.37677E+06 5.44563E+06
 -1       837 5.95308E+06 2.48324E+07 4.15813E+06 8.96729E+06 1.18988E+06 4.53380E+06
 -1       838 1.23873E+07 4.30048E+07 8.10277E+06 3.44242E+06-5.41424E+05 8.00936E+04
 -1       839 1.01517E+07 4.70264E+07 6.84622E+06-1.49897E+06-1.45013E+01-1.84024E+06
 -1       840 3.00002E+07-2.22124E+08 5.12842E+07-3.21469E+07 4.01618E+07-1.68867E+07
 -1       841 1.10925E+07-2.29338E+08 5.30414E+07-7.78321E+06 2.39731E+07 1.06445E+07
 -1       842-1.67207E+07-2.39789E+08 5.13987E+07 1.74900E+07 2.63747E+07-5.99541E+06
 -1       843 2.73703E+05-2.15118E+08 5.00110E+07 5.22392E+07 1.87091E+07-1.80347E+07
 -1       844 3.65799E+06-1.88681E+08 4.53069E+07 8.30676E+07 3.39764E+07 5.86587E+06
 -1       845-2.28076E+07-1.78434E+08 3.38588E+07 9.15956E+07 1.53862E+07-6.44768E+05
 -1       846-4.81440E+07-1.74935E+08 2.08376E+07 1.07870E+08 7.75327E+06-1.24265E+07
 -1       847-6.42679E+07-7.79764E+07 5.42339E+06 9.26017E+07 1.78076E+07-2.66530E+07
 -1       848-2.77252E+07 2.02375E+07 5.10746E+06 3.92574E+07-1.38974E+06-4.75543E+06
 -1       849-1.50962E+07 2.01193E+07 5.46652E+05 2.15297E+07 4.23590E+06 2.30782E+06
 -1       850-7.38466E+06 1.62475E+07-6.44200E+06 1.57995E+07-4.69255E+06-1.42545E+06
 -1       851-2.42298E+05 2.44562E+07-5.08896E+06 1.19230E+07 1.03485E+05-1.18968E+06
 -1       852 3.36694E+06 3.31045E+07-4.60207E+06 6.91093E+06-4.23168E+06 1.00674E+06
 -1       853 1.12494E+05 3.44635E+07-6.88944E+06 3.80680E+06-1.59346E+06 1.56227E+06
 -1       854-4.49489E+06 3.42381E+07-9.99924E+06 1.25046E+06-1.80528E+06-5.19538E+06
 -1       855 5.89860E+07-7.30063E+07 1.57589E+07-7.03639E+07-4.13134E+07 2.78724E+07
 -1       856 7.52992E+07-2.05139E+08 2.01042E+07 8.29501E+06-8.65524E+06-7.52145E+06
 -1       857 2.28382E+06-1.19046E+08 8.63775E+06 1.02749E+08-1.75552E+07-1.93917E+07
 -1       858-2.38798E+07-1.44825E+08 1.31993E+07 6.82354E+07-1.62030E+07 1.70587E+07
 -1       859-2.21557E+05 3.95895E+07 8.37316E+06 8.95573E+06 2.29668E+06-1.36172E+06
 -1       860-3.88552E+06 2.47808E+07 1.38784E+05 1.58337E+07 7.23354E+05 9.79739E+05
 -1       861-7.30019E+06 2.63176E+07-2.90151E+06 1.17623E+07 1.98799E+06-8.02013E+05
 -1       862 2.89346E+06 3.42698E+07 1.97254E+06 1.45130E+06-1.35813E+05 4.71422E+06
 -1       863 1.17138E+08 8.71280E+07-2.66915E+07-6.78384E+07 5.74540E+07 2.48675E+07
 -1       864 1.68281E+08 1.20016E+08 5.92557E+06-9.02289E+07 1.77391E+07-2.81539E+07
 -1       865 1.49538E+08 8.11408E+07-1.11935E+06-1.19618E+08 7.63262E+06 8.08841E+06
 -1       866 1.59713E+08-2.89149E+07-1.38247E+06-1.22014E+08 4.18346E+07-9.59574E+06
 -1       867 2.04862E+08-1.39381E+08 8.03220E+06-7.25033E+07 4.44587E+07 6.06494E+06
 -1       868 1.34315E+08-1.22266E+08-9.00304E+06 1.04348E+08 2.60338E+07-3.92041E+07
 -1       869-2.20592E+07-1.00467E+08-4.87582E+07 1.28118E+08 2.34508E+07-4.09951E+07
 -1       870-6.30259E+07-1.00113E+08-3.41174E+07 7.82377E+07 4.97496E+07-7.70854E+06
 -1       871-4.83498E+07-1.09317E+08-6.57320E+06 4.04587E+07 3.21494E+06-2.32193E+07
 -1       872-1.24788E+06 1.99159E+07-7.27669E+06 4.35634E+06 2.17259E+05-2.21566E+06
 -1       873-6.73522E+06 1.51148E+07-5.15567E+06 1.31278E+07-1.05225E+07 1.84807E+06
 -1       874-1.34071E+05 2.79254E+07 5.28141E+06 1.35966E+07 2.11374E+06-8.36314E+06
 -1       875-3.51323E+06 2.23222E+07 3.19709E+06 1.31626E+07-1.92174E+06 1.21543E+06
 -1       876-1.97924E+07 1.48038E+07-3.03550E+06 1.38304E+07 5.42568E+06 1.04811E+07
 -1       877-1.05796E+07 3.14846E+07 5.76454E+06 7.30440E+06-7.37741E+06-5.72707E+06
 -1       878-1.70842E+07 2.25822E+07 3.00040E+06-3.25011E+06 9.48037E+06 4.83644E+06
 -1       879-4.67292E+07-4.00234E+06-7.25608E+06-7.94951E+06 5.20603E+06 1.22068E+06
 -1       880-3.45682E+07-1.79122E+06 2.25596E+06-1.02037E+07-1.32000E+07 1.06237E+06
 -1       881 1.15401E+08 1.51093E+08-1.73933E+06-8.97511E+07-4.05067E+07 3.35626E+07
 -1       882 1.53875E+08 9.61544E+07 1.35641E+06-1.52315E+08 2.55782E+07-2.80791E+06
 -1       883 3.44376E+07 2.14545E+07-6.21836E+07-1.81868E+08 6.18215E+07-5.16791E+07
 -1       884-5.22674E+06 9.45340E+06-4.58207E+06 9.28085E+06-3.59486E+06 6.42866E+06
 -1       885-9.08002E+06 9.70514E+06-1.11624E+06 2.78396E+07-8.57918E+06-1.39750E+07
 -1       886-5.51061E+07 1.62519E+07-5.88120E+06-1.69537E+07-7.47751E+06-8.16421E+06
 -1       887-3.55291E+07-9.21851E+06 6.56525E+06-2.32464E+07 1.16730E+07 1.35390E+07
 -1       888-3.89952E+08-1.51648E+08-1.51648E+08-2.04334E+07 1.51101E+02-3.62901E+07
 -1       889-3.51818E+08-8.54741E+07-6.85015E+07-3.93648E+07-1.41455E+07-1.05405E+07
 -1       890-2.20283E+08 1.52698E+07 5.04768E+07-4.83504E+07-7.90729E+06 2.81830E+07
 -1       891-8.23630E+07 5.76867E+07 1.26161E+07-7.07225E+07 1.12887E+07-3.07145E+07
 -1       892 5.08954E+07 1.33196E+08-1.72836E+07-1.09866E+08 1.23550E+07 2.20417E+07
 -1       893 1.21309E+08 1.66234E+08 1.03006E+07-1.51686E+08-3.48757E+06-3.68119E+06
 -1       894 2.17512E+08 1.92251E+08 4.31400E+07-1.81372E+08-4.40758E+07-7.49022E+07
 -1       895 1.16781E+08 1.89725E+08-2.26573E+07-1.46351E+08 9.50748E+07 6.76126E+07
 -1       896 2.07333E+07 3.52840E+08-4.07637E+07-1.01271E+08 2.21918E+07 6.86162E+06
 -1       897 1.12326E+07 6.88859E+06-3.95699E+06 8.66359E+06-4.72669E+06-9.10247E+06
 -1       898 2.29430E+07 1.74738E+07 6.32931E+06 1.83001E+07-3.43061E+06 4.81482E+05
 -1       899 4.62460E+06 3.14658E+07 9.16145E+06 6.00002E+07 1.59098E+07-3.74343E+06
 -1       900-6.75404E+07 4.08064E+07-3.68999E+06 1.78198E+07 8.39692E+06 2.85080E+07
 -1       901-9.25309E+07 3.01667E+07-8.92702E+06-2.87614E+07 4.70673E+06-2.19988E+07
 -1       902-5.19052E+07 4.94025E+06 3.99356E+06-3.66551E+07-5.80496E+06 2.06672E+06
 -1       903-4.97127E+07-3.45203E+07 2.16730E+06-4.52451E+07-2.52331E+06 1.12954E+07
 -1       904-9.65522E+06-2.72801E+07-8.87862E+06-3.16490E+07-4.62516E+06-1.57256E+07
 -1       905 4.88777E+07-8.71384E+06-1.15802E+07-1.67973E+07 6.00881E+05 1.28226E+07
 -1       906 8.82226E+07 2.11070E+07 1.91993E+07-1.34386E+07 2.22647E+06-2.66558E+06
 -1       907 9.53755E+07 3.70905E+07 3.70905E+07-5.63622E+06-5.27063E+01-1.14387E+07
 -1       908-4.48330E+08-1.74351E+08-1.74351E+08-8.40688E+06-1.68185E+02 2.83914E+07
 -1       909-2.33213E+08 3.49498E+06 5.32806E+07-2.82722E+07 6.47028E+06 3.09993E+07
 -1       910-1.90438E+07 1.04541E+08-9.96104E+06-8.64339E+07-6.56332E+06 2.87746E+07
 -1       911 1.93393E+08 2.14633E+08-7.08262E+06-1.80047E+08 2.00384E+07 9.08925E+07
 -1       912 6.51598E+08 8.93908E+08 1.60681E+08 3.33981E+08-1.42738E+07-7.61771E+07
 -1       913-2.19642E+08 6.69454E+07-6.94098E+06 1.30325E+08 3.83346E+07-2.27776E+07
 -1       914-1.04039E+08 3.67874E+07 1.01156E+07-7.08410E+07 1.55182E+07 3.94381E+07
 -1       915-2.67206E+07-4.64904E+07-3.80018E+06-5.87612E+07 4.00572E+05 7.76305E+06
 -1       916 5.42394E+07-6.40050E+06-1.36541E+07-9.35898E+06-2.19088E+06 8.36358E+06
 -1       917 1.16150E+08 4.51695E+07 4.51695E+07-2.50512E+06 6.03566E+01 7.32964E+06
 -1       918-4.88292E+08-1.89892E+08-1.89892E+08 1.87352E+06 1.38227E+02 3.41984E+07
 -1       919-4.01137E+08-1.17619E+08-8.15902E+07-4.49601E+06 2.40265E+06-2.22234E+06
 -1       920-2.42914E+08-7.97990E+06 5.70725E+07-7.02517E+06-1.02550E+07 3.22983E+07
 -1       921-1.54770E+08 4.39880E+07 3.31566E+07-3.06061E+07-7.18380E+05-1.04906E+07
 -1       922-6.91097E+07 1.02640E+08 1.04170E+07-6.95598E+07 1.04103E+07 2.00208E+07
 -1       923-4.60330E+06 1.55049E+08-4.28938E+07-1.13671E+08-1.12467E+07 5.66777E+06
 -1       924 2.16983E+08 2.43714E+08-4.20709E+07-1.61890E+08 1.44390E+07 3.19001E+07
 -1       925 1.01192E+09 6.43947E+08 1.78731E+08 2.50300E+08-9.10365E+07 7.21024E+06
 -1       926 7.19650E+08 6.14127E+08 1.04881E+08 3.81540E+08 1.14865E+08 1.45094E+08
 -1       927 1.12162E+08 5.60672E+07-5.53131E+07 5.97575E+07 3.26224E+06 6.41271E+06
 -1       928-9.26426E+05-1.24912E+07 5.34076E+07-2.03204E+07-4.23642E+06 1.69951E+07
 -1       929-3.23348E+06-1.44345E+07 8.88296E+06-7.25471E+06 3.59681E+06 1.07310E+07
 -1       930-3.80046E+06 4.29243E+06-1.13089E+07 8.81602E+05 1.39541E+06 1.97070E+06
 -1       931 3.74519E+06 3.23022E+06-2.69881E+06 3.58468E+06 7.89890E+05 2.46180E+06
 -1       932 6.86386E+06 2.80109E+06 5.97340E+06 2.00615E+06-8.69890E+05-2.40537E+06
 -1       933 2.38838E+06-2.09433E+06 1.68320E+05-3.93404E+06 2.95995E+05 1.25799E+06
 -1       934-3.35061E+04-7.04091E+06-1.35831E+07-4.19852E+06 1.93820E+05-8.04868E+05
 -1       935-5.48210E+07-3.68850E+06 1.01226E+07 9.18624E+06 3.08581E+06-1.40856E+07
 -1       936-2.65661E+08 1.59586E+07-2.08067E+07 7.58064E+07 5.37265E+06 5.20134E+07
 -1       937-4.16421E+08 7.64225E+05-5.54192E+07 1.63910E+05 8.64949E+06 2.30990E+07
 -1       938-1.59423E+08 9.40358E+06 7.35183E+06-1.20801E+08-1.14255E+07 4.36358E+07
 -1       939-2.62935E+07 9.91325E+05 2.14167E+07-1.06471E+08-1.13200E+07 1.55541E+07
 -1       940 2.80391E+07-5.39592E+07 3.87678E+05-5.19975E+07 9.23437E+06 2.26389E+07
 -1       941 5.25433E+07-2.39842E+07-3.81678E+06-1.76041E+07 1.12565E+06-2.41724E+06
 -1       942 6.16276E+07-3.14165E+06-1.48959E+07-1.52200E+06 2.56485E+06 7.91492E+06
 -1       943 1.03704E+08 2.95781E+07 2.16829E+07-1.08315E+06-2.61888E+06-1.00865E+06
 -1       944 1.29681E+08 5.04315E+07 5.04315E+07 3.53894E+05-3.95527E+01 6.59133E+06
 -1       945-4.73179E+08-1.84014E+08-1.84014E+08 2.07736E+06-1.54180E+01 3.89948E+07
 -1       946-2.58743E+08-2.11419E+07 5.07252E+07 2.03364E+07 1.87065E+06 2.47915E+07
 -1       947-1.27572E+08 9.54007E+07-8.44431E+06-2.21582E+07-4.10919E+06 2.04860E+07
 -1       948 6.69547E+06 2.26129E+08-1.57050E+07-8.14599E+07 3.96144E+07 1.72112E+07
 -1       949 6.17940E+07 8.17161E+07-5.50706E+07 6.13490E+07 1.93272E+07 6.54325E+06
 -1       950-5.63339E+06 1.12546E+07 2.88907E+07-1.47629E+06-6.86471E+06-9.04550E+06
 -1       951 4.31232E+06 1.15781E+06-7.13482E+06 1.92222E+06 1.17667E+06-1.18672E+06
 -1       952 1.17222E+06 1.41265E+06 3.60355E+06 6.05568E+05-6.48487E+05-2.53184E+06
 -1       953 1.05456E+07 3.46601E+06-2.39070E+06 3.13377E+06-1.35308E+06-6.66369E+06
 -1       954-1.79240E+07 1.94319E+07 9.99568E+06 1.29262E+07-1.81180E+07 4.63857E+06
 -1       955 3.46185E+07-5.30022E+07 2.63735E+06 1.26796E+06 1.41616E+06 1.47843E+07
 -1       956 7.05890E+07-5.52317E+06-1.72069E+07 1.04448E+07 3.84047E+06 5.25303E+06
 -1       957 1.18956E+08 4.62607E+07 4.62608E+07 3.61835E+05-4.86916E+00 1.64532E+07
 -1       958-4.35778E+08-1.69469E+08-1.69469E+08 1.09527E+06-6.15996E+01 9.83515E+06
 -1       959-3.72046E+08-1.14875E+08-7.09063E+07 2.70185E+07 2.89063E+06 2.50990E+06
 -1       960-2.54927E+08-2.11627E+07 5.35582E+07 5.07909E+07 8.15862E+05 2.07819E+07
 -1       961-2.17800E+08 2.33591E+07 1.10375E+07 4.84868E+07-2.03109E+06-4.39967E+06
 -1       962-1.92649E+08 8.14020E+07-3.10506E+07 3.17445E+07-1.06807E+07 2.22291E+07
 -1       963-9.16128E+07 1.11411E+08 1.02302E+07-2.84643E+07-4.63217E+07 9.25824E+06
 -1       964-3.96768E+07 1.22844E+08 3.25609E+07-4.71517E+07-5.41591E+07 3.83670E+07
 -1       965-2.08869E+07-1.40961E+06 5.02595E+07-1.99060E+07 1.94772E+07-4.75065E+06
 -1       966 1.62665E+07 2.41080E+06 3.17705E+07-4.49632E+06-5.38468E+06-8.99142E+06
 -1       967 2.25100E+07 1.85788E+07-1.39900E+07 1.53254E+07 6.88566E+06 8.21268E+06
 -1       968-5.06306E+06 1.15444E+06-8.75696E+06 3.88464E+06 7.77455E+05-1.75111E+05
 -1       969 2.93050E+06 9.45145E+05 5.08405E+06 1.57126E+06-9.68367E+05-3.90925E+06
 -1       970 2.91536E+06 4.36607E+05 1.85748E+06 9.11822E+05-7.61076E+05-2.49620E+06
 -1       971 1.43106E+06-1.50744E+04-2.42807E+06 7.50463E+05-2.45651E+05-3.07110E+06
 -1       972 3.65401E+06 2.42310E+06 1.69560E+06 2.17660E+06-1.87891E+05-2.69749E+05
 -1       973-8.29405E+06 8.73136E+05 2.53795E+06 2.73906E+06-5.33159E+05 2.08373E+06
 -1       974-8.41560E+06-9.75920E+06-8.60841E+06-4.33322E+06-3.89904E+06-4.28807E+06
 -1       975 1.31067E+07 5.95649E+05-5.29219E+06-3.19245E+06-6.93649E+06-1.47658E+06
 -1       976 3.31878E+07-2.67225E+07 9.73457E+06 1.61752E+07 8.59219E+06 1.48725E+07
 -1       977 6.47031E+07-5.01836E+06 8.84521E+05 1.28193E+07 1.20186E+07-1.12797E+07
 -1       978 8.38406E+07 1.58367E+07-1.16690E+07 2.45130E+07-5.38363E+06 5.97332E+06
 -1       979 8.79111E+07 2.78450E+07 1.26224E+07 1.43845E+07 7.44707E+06 2.23838E+06
 -1       980 9.72082E+07 3.78031E+07 3.78033E+07 1.22704E+06 7.12307E+01 7.18093E+06
 -1       981-3.66703E+08-1.42607E+08-1.42607E+08 3.77495E+06 1.62905E+02 3.00126E+07
 -1       982-2.48750E+08-9.26612E+06 5.42773E+07 7.53042E+07-9.71547E+06 1.33063E+07
 -1       983-1.57038E+08 3.33377E+07-2.62863E+07 7.83584E+07-1.53551E+07 5.95903E+07
 -1       984-1.82609E+07-2.19284E+06 1.01127E+07-5.18013E+06 1.10696E+07 4.37820E+06
 -1       985 3.55982E+06-2.95041E+06-8.25573E+06 2.70144E+06-5.48164E+05 1.21219E+06
 -1       986 3.11600E+06 2.49480E+06 1.89026E+06 1.81507E+06-1.20896E+06-2.68180E+06
 -1       987 8.41196E+04-2.76276E+05-9.80796E+05 6.81609E+05-1.17168E+06-2.91162E+06
 -1       988-3.27207E+06-2.09570E+06 1.35553E+06-1.02758E+06-1.03783E+05 7.49542E+04
 -1       989 8.10888E+06-1.30984E+06-3.71800E+06 1.59348E+06-2.36352E+06 1.74276E+06
 -1       990 6.31591E+07 6.25684E+07-1.38318E+07 9.66016E+05 1.19885E+07 2.17003E+07
 -1       991 9.58142E+07 3.72610E+07 3.72612E+07 1.51595E+06-8.33684E+01 2.73630E+05
 -1       992-2.75169E+08-1.07010E+08-1.07010E+08 7.58300E+06-1.15196E+02 2.17693E+06
 -1       993-2.53242E+08-7.88881E+07-3.19064E+07 6.12225E+07-5.40360E+06 5.23255E+05
 -1       994-2.54823E+08-4.47142E+07 3.83100E+07 1.05692E+08-4.49875E+06 2.33320E+07
 -1       995-2.13447E+08-1.33394E+07 5.89074E+06 7.33643E+07-6.95647E+06-3.33962E+07
 -1       996-1.22444E+08 1.26507E+07-1.41407E+07 7.72671E+07-2.96072E+07 3.16470E+07
 -1       997 7.81158E+06-1.13869E+05-9.43204E+06-1.02421E+06 4.04419E+06 7.16323E+05
 -1       998 2.17925E+06 4.72278E+06-6.27924E+06 1.79656E+06-3.15265E+05 1.12561E+06
 -1       999 7.42711E+05 3.58698E+06 4.44747E+06 1.63652E+06-2.79921E+06-1.06927E+06
 -1      1000 2.75591E+06 3.22532E+06 1.65324E+06 1.63482E+06-1.68681E+06-1.75150E+06
 -1      1001 8.11127E+05 6.53108E+05-1.15145E+06 5.32909E+05-1.87316E+06-2.60889E+06
 -1      1002 7.76834E+05 5.15360E+05-4.22865E+05 5.97487E+05-1.72809E+06-2.15749E+06
 -1      1003-3.92900E+04-2.85696E+04 2.16726E+05 9.95506E+04-1.58153E+06-2.47649E+06
 -1      1004-5.20374E+05-1.01943E+06 3.34503E+05-9.97878E+04-2.02902E+06-1.71670E+06
 -1      1005-3.28062E+05-2.39813E+06 6.26496E+05-2.04804E+05-1.75216E+06-6.88622E+05
 -1      1006-1.99882E+06-2.67121E+06-1.14491E+06 5.24257E+04-2.06395E+06-2.77761E+05
 -1      1007-4.74225E+06-5.73090E+06-2.16932E+06-2.16288E+06-3.17019E+06-4.86972E+05
 -1      1008 5.44256E+07 7.35134E+07-2.26693E+07-4.59440E+07-8.48661E+06 7.98647E+06
 -1      1009 8.10105E+07 4.65454E+07 6.46962E+06-2.27759E+07 3.44623E+06-7.00065E+06
 -1      1010 1.17797E+08 4.58099E+07 4.58100E+07-5.68596E+05 1.12921E+00 3.68366E+07
 -1      1011-1.97894E+08-7.69586E+07-7.69588E+07 4.16070E+06 1.12449E+02-1.48812E+07
 -1      1012-1.62999E+08-1.07473E+08 1.55797E+07 8.09533E+07-2.67637E+07 3.59566E+07
 -1      1013 5.26730E+06 4.68952E+06-4.14701E+06 2.42869E+06 2.07383E+06 1.12356E+06
 -1      1014 2.01562E+05 3.62252E+06 2.44837E+06 7.63109E+05-1.64430E+06-1.10689E+06
 -1      1015 8.96536E+05 1.03255E+06-5.92183E+05 4.23804E+05-1.48412E+06-2.50833E+06
 -1      1016-6.49185E+05-9.26838E+05 5.98388E+05-3.77004E+05-1.48309E+06-2.55791E+06
 -1      1017-2.29947E+05-3.59473E+06-2.48262E+06-7.25519E+05-1.63581E+06-1.19154E+06
 -1      1018-4.95422E+06-4.61596E+06 4.13972E+06-2.38647E+06 1.96871E+06 1.04333E+06
 -1      1019 1.37618E+08 8.75069E+07-2.32551E+07-1.00854E+08-3.40270E+07 3.10818E+07
 -1      1020 1.72871E+08 6.72274E+07 6.72277E+07-5.25413E+06 1.59304E+02-1.01316E+07
 -1      1021-1.59823E+08-6.21533E+07-6.21535E+07-1.60492E+06 6.26392E+01 3.27082E+07
 -1      1022-1.21635E+08-5.59399E+07-1.94994E+07 1.00660E+07 5.57456E+06-4.08883E+06
 -1      1023-7.48641E+07-5.31686E+07 2.45945E+07 1.11087E+07-3.24777E+06 1.00344E+07
 -1      1024-3.18189E+07-7.76992E+06 1.40505E+07-1.81071E+07-1.24087E+05-1.07739E+07
 -1      1025-2.32547E+07-7.17951E+03-1.66862E+07-2.56269E+07 8.02468E+06 1.15165E+07
 -1      1026 5.23936E+06 6.11997E+06 1.96789E+06 2.47898E+06-3.36906E+06-5.24855E+05
 -1      1027 2.14887E+06 2.76586E+06 1.01714E+06-3.84956E+04-2.07824E+06-2.09264E+05
 -1      1028 3.98469E+05 2.55990E+06-5.45594E+05 1.79832E+05-1.79756E+06-5.74144E+05
 -1      1029 7.43035E+05 1.13998E+06-3.01214E+05 1.39157E+05-2.06372E+06-1.69829E+06
 -1      1030 2.77715E+05 1.06619E+05-2.42841E+05-5.49392E+04-1.58678E+06-2.43201E+06
 -1      1031-5.39636E+05-4.38477E+05 4.16197E+05-5.51192E+05-1.72620E+06-2.15229E+06
 -1      1032-5.69211E+05-5.56385E+05 1.17461E+06-4.85234E+05-1.87194E+06-2.64663E+06
 -1      1033-2.55481E+06-3.11330E+06-1.66855E+06-1.57454E+06-1.70032E+06-1.77330E+06
 -1      1034-6.95124E+05-3.48207E+06-4.49799E+06-1.53227E+06-2.80444E+06-1.16959E+06
 -1      1035-1.96445E+06-4.51578E+06 6.34171E+06-1.73994E+06-3.46356E+05 1.06193E+06
 -1      1036-7.23010E+06 5.10021E+05 9.82386E+06 8.09797E+05 3.66478E+06 7.00898E+05
 -1      1037 1.24556E+08-1.32494E+07 9.87882E+06-7.63031E+07-2.91038E+07 3.15626E+07
 -1      1038 2.19264E+08 1.35247E+07-2.50690E+06-7.40556E+07-7.26922E+06-3.28661E+07
 -1      1039 2.55960E+08 3.89579E+07-3.15111E+07-1.14309E+08-4.55175E+06 2.26434E+07
 -1      1040 2.47041E+08 7.43379E+07 3.29420E+07-6.68996E+07-4.24360E+06 1.83600E+05
 -1      1041 2.64146E+08 1.02723E+08 1.02724E+08-7.43045E+06-1.19910E+02-3.08502E+06
 -1      1042-1.47127E+08-5.72160E+07-5.72161E+07-5.41606E+05-8.13738E+01 1.57011E+07
 -1      1043-7.49010E+07-2.69637E+07 2.29326E+07-1.71117E+06 6.73620E+06 1.15421E+07
 -1      1044-4.40383E+07-1.21053E+06-1.82789E+07-1.62472E+07 9.44734E+06 1.03072E+07
 -1      1045-8.82226E+06 1.48745E+06 4.05522E+06-1.80038E+06-2.48102E+06 1.94879E+06
 -1      1046 3.74072E+06 2.40700E+06-1.37856E+06 1.17098E+06-1.44684E+03 3.14364E+05
 -1      1047 1.65965E+05 3.36506E+05 1.00657E+06-6.71180E+05-1.17487E+06-2.88721E+06
 -1      1048-2.86891E+06-2.42573E+06-1.91278E+06-1.72547E+06-1.20523E+06-2.70147E+06
 -1      1049-3.12982E+06 3.18163E+06 8.32662E+06-2.68862E+06-4.78996E+05 9.98361E+05
 -1      1050 1.73130E+07 2.02816E+06-1.04902E+07 5.25118E+06 1.06110E+07 4.18365E+06
 -1      1051 1.56293E+08-3.48003E+07 2.38048E+07-7.88526E+07-1.43492E+07 6.05412E+07
 -1      1052 2.48873E+08 5.72381E+06-5.17356E+07-7.99159E+07-8.87554E+06 1.26298E+07
 -1      1053 3.62426E+08 1.40944E+08 1.40944E+08-3.75376E+06 1.51596E+02 2.90336E+07
 -1      1054-1.35876E+08-5.28408E+07-5.28409E+07 1.91409E+06 4.13475E+01 7.34970E+06
 -1      1055-1.20622E+08-3.98114E+07-2.36885E+07 3.40128E+05 5.11796E+06 3.07517E+06
 -1      1056-8.43598E+07-2.05625E+07 1.30875E+07-7.83700E+05-2.15164E+06 2.80868E+06
 -1      1057-5.69888E+07-3.68625E+04 4.74292E+06-1.26120E+06 2.33485E+06-1.87886E+06
 -1      1058-4.30652E+07 2.43294E+07-6.29152E+06 8.52129E+05-4.45436E+06 1.13224E+07
 -1      1059-2.37249E+07 3.37061E+07-2.23188E+05 1.79921E+07 2.23600E+07-2.72309E+05
 -1      1060-7.31468E+06 5.43124E+07 8.16887E+06 2.40420E+07 1.07085E+07 9.63010E+06
 -1      1061-1.43913E+07-5.06506E+05 5.86996E+06 3.34310E+06-7.53573E+06-1.56789E+06
 -1      1062 9.42435E+06 1.10131E+07 9.59310E+06 4.79644E+06-4.32039E+06-4.63391E+06
 -1      1063 9.16595E+06-1.20158E+06-2.83130E+06-2.91146E+06-4.16593E+05 2.55685E+06
 -1      1064-3.85976E+06-2.71286E+06-1.96391E+06-2.34789E+06-1.43588E+05-1.23571E+05
 -1      1065-1.16833E+06 1.60236E+05 2.52338E+06-6.60796E+05-2.75092E+05-3.10526E+06
 -1      1066-2.47481E+06-2.46353E+05-1.72824E+06-8.44429E+05-7.96847E+05-2.50381E+06
 -1      1067-2.71605E+06-9.17875E+05-5.14813E+06-1.53654E+06-9.79398E+05-3.88062E+06
 -1      1068 4.95587E+06-1.27833E+06 8.64720E+06-3.66061E+06 7.81697E+05-2.77959E+05
 -1      1069-2.14800E+07-1.83667E+07 1.41593E+07-1.49182E+07 6.84152E+06 7.74811E+06
 -1      1070-1.56246E+07-1.77793E+06-3.14462E+07 4.20984E+06-5.58069E+06-8.68386E+06
 -1      1071 1.91946E+07 9.29271E+05-5.12650E+07 1.95395E+07 1.86627E+07-4.60039E+06
 -1      1072 4.08026E+07-1.19686E+08-3.18063E+07 5.08017E+07-5.38448E+07 3.74122E+07
 -1      1073 8.85544E+07-1.10878E+08-1.06798E+07 2.82063E+07-4.51787E+07 1.09159E+07
 -1      1074 1.90623E+08-8.01371E+07 3.17969E+07-3.34831E+07-1.13084E+07 2.06324E+07
 -1      1075 2.16355E+08-2.39270E+07-1.16682E+07-5.12899E+07-1.60665E+06-4.27383E+06
 -1      1076 2.53053E+08 1.91637E+07-5.57364E+07-5.46066E+07 3.72479E+05 2.15216E+07
 -1      1077 3.72672E+08 1.15082E+08 7.05925E+07-2.91475E+07 4.25085E+06 2.12767E+06
 -1      1078 4.37426E+08 1.70110E+08 1.70110E+08-1.57633E+06-5.60480E+01 9.55220E+06
 -1      1079-1.37567E+08-5.34982E+07-5.34982E+07 2.00580E+05 2.56618E+01 1.02586E+07
 -1      1080-7.59711E+07-1.03876E+07 1.44266E+07 5.67279E+06-2.13886E+06 9.74992E+06
 -1      1081-2.60774E+07 2.83330E+07-1.99228E+05 1.99580E+07 1.92660E+06 6.25501E+06
 -1      1082 1.86981E+07 1.01269E+08-1.60970E+05 4.61055E+07-1.37952E+07 2.76162E+06
 -1      1083 1.92632E+07-2.28501E+07-1.10892E+07-1.38765E+07-2.03465E+07 5.32067E+06
 -1      1084-1.15324E+07-3.96304E+06 2.45288E+06-3.53625E+06-1.56567E+06-7.10109E+06
 -1      1085-8.69495E+05-1.48249E+06-3.70337E+06-6.13926E+05-6.48427E+05-2.46714E+06
 -1      1086-3.95284E+06-1.10390E+06 7.22020E+06-1.84959E+06 1.15347E+06-1.29773E+06
 -1      1087 4.75668E+06-1.16506E+07-2.91991E+07 1.77672E+06-6.92707E+06-8.68001E+06
 -1      1088-5.92247E+07-8.17547E+07 5.64184E+07-5.98638E+07 1.75725E+07 5.95139E+06
 -1      1089-1.30308E+07-2.23187E+08 1.59985E+07 8.48684E+07 4.04773E+07 1.63824E+07
 -1      1090 1.24034E+08-9.32659E+07 9.90714E+06 1.95658E+07-3.84836E+06 2.14667E+07
 -1      1091 2.58702E+08 2.14676E+07-5.19842E+07-2.44478E+07 1.58918E+06 2.54631E+07
 -1      1092 4.78532E+08 1.86096E+08 1.86096E+08-2.39734E+06-6.99280E+00 3.96201E+07
 -1      1093-1.36500E+08-5.30835E+07-5.30836E+07-9.71001E+05-5.65142E+01 1.00767E+07
 -1      1094-1.10980E+08-3.30461E+07-2.29531E+07 5.19499E+06-6.04870E+05-1.54328E+06
 -1      1095-6.08804E+07-7.55505E+05 1.74902E+07 9.81895E+06 5.21882E+06 8.11448E+06
 -1      1096-3.51314E+07 6.90041E+06 9.16137E+06 2.27158E+07-2.77381E+05-2.15869E+06
 -1      1097-1.27421E+07 1.69116E+07 5.51304E+05 3.83117E+07 7.08132E+06 1.24950E+07
 -1      1098 8.25490E+06 4.67603E+07-1.61603E+07 6.67341E+07-9.01716E+06-5.77878E+06
 -1      1099 1.09784E+08 9.26056E+07-5.84381E+06 1.13632E+08-1.01719E+07 2.75759E+07
 -1      1100 4.37454E+08 2.71073E+07 5.90161E+07 2.57444E+07 1.44768E+07 3.50637E+07
 -1      1101 2.82828E+08-2.60082E+07 1.82617E+07-7.16848E+07 8.46439E+06 5.73956E+07
 -1      1102 6.02419E+07 3.39859E+06-1.13311E+07-9.66342E+06 3.39644E+06-1.55010E+07
 -1      1103 3.37213E+05 8.20163E+06 1.50131E+07 4.47600E+06 1.50023E+05-6.85127E+05
 -1      1104-2.36624E+06 2.42214E+06-1.04013E+05 4.26922E+06 3.27046E+05 1.38112E+06
 -1      1105-7.06348E+06-3.33966E+06-6.33381E+06-2.32631E+06-1.02201E+06-2.64304E+06
 -1      1106-3.17509E+06-3.24169E+06 2.79465E+06-3.54936E+06 7.20558E+05 2.27842E+06
 -1      1107 3.90878E+06-4.28361E+06 1.16157E+07-6.22111E+05 1.28559E+06 1.81656E+06
 -1      1108 2.96995E+06 1.42233E+07-9.45825E+06 6.96856E+06 3.58214E+06 1.02207E+07
 -1      1109 5.97239E+05 1.24243E+07-5.38306E+07 1.98564E+07-4.17638E+06 1.64614E+07
 -1      1110-1.06191E+08-5.46028E+07 5.65857E+07-5.85902E+07 3.35138E+06 7.11464E+06
 -1      1111-6.89560E+08-6.04900E+08-9.21008E+07-3.61829E+08 1.11867E+08 1.34282E+08
 -1      1112-1.01054E+09-6.53028E+08-1.78304E+08-2.42750E+08-8.71051E+07 1.85915E+07
 -1      1113-2.43181E+08-2.43745E+08 3.76584E+07 1.56468E+08 9.94083E+06 2.30257E+07
 -1      1114-7.78041E+06-1.55398E+08 4.21705E+07 1.12311E+08-1.34407E+07 4.67772E+06
 -1      1115 6.26848E+07-1.03912E+08-9.82024E+06 6.58987E+07 1.20323E+07 2.19285E+07
 -1      1116 1.51342E+08-4.44378E+07-3.36581E+07 2.60907E+07-1.15234E+06-1.05803E+07
 -1      1117 2.44509E+08 8.97061E+06-5.79318E+07 2.63269E+06-9.89927E+06 3.37723E+07
 -1      1118 4.08357E+08 1.20358E+08 8.35874E+07 2.03610E+06 2.57009E+06-2.28254E+06
 -1      1119 4.97467E+08 1.93460E+08 1.93460E+08-2.03814E+06 1.33175E+02 3.59672E+07
 -1      1120-1.18061E+08-4.59125E+07-4.59126E+07 2.43211E+06 4.99156E+01 7.74402E+06
 -1      1121-5.61129E+07 1.22903E+06 1.37596E+07 1.45716E+07-8.72911E+05 9.78481E+06
 -1      1122 2.07543E+07 2.79563E+07 1.83101E+06 3.79377E+07-3.09961E+06 4.08073E+06
 -1      1123 1.08135E+08 1.35861E+07-6.77148E+06 8.01072E+07 2.14610E+07 4.09132E+07
 -1      1124 2.40496E+08-5.84662E+07 9.34878E+06-1.31506E+08 3.11536E+07-1.82027E+07
 -1      1125-6.94015E+08-9.01413E+08-1.65827E+08-2.91339E+08 8.53849E+04-7.95130E+07
 -1      1126-2.13262E+08-2.16120E+08 1.45052E+07 1.74838E+08 2.73926E+07 9.62999E+07
 -1      1127 8.78800E+06-1.08457E+08 7.52598E+06 8.33419E+07-8.25204E+06 2.94970E+07
 -1      1128 2.35611E+08-2.91709E+06-5.43961E+07 2.35529E+07 6.56931E+06 3.30606E+07
 -1      1129 4.62434E+08 1.79836E+08 1.79836E+08 8.21029E+06-1.66049E+02 3.07390E+07
 -1      1130-9.59909E+07-3.73298E+07-3.73299E+07 5.81965E+06-2.72073E+01-9.94714E+06
 -1      1131-8.79730E+07-2.24183E+07-1.91567E+07 1.36791E+07 3.67306E+06-3.89866E+06
 -1      1132-5.25449E+07 8.22089E+05 9.02349E+06 1.96096E+07-2.04210E+06 8.65578E+06
 -1      1133-2.24327E+06 2.34835E+07 6.20027E+06 2.70822E+07 6.49473E+05-1.17910E+07
 -1      1134 3.81402E+07 3.32708E+07-3.00466E+06 3.58124E+07 5.20948E+05 1.57549E+07
 -1      1135 5.95672E+07 1.05115E+07-1.47468E+06 3.74342E+07-6.58435E+06-7.21453E+06
 -1      1136 1.06041E+08-1.44843E+07 6.44208E+06 3.57331E+07-3.82609E+06-2.21062E+07
 -1      1137 6.82676E+07-2.55859E+07 5.38951E+05-1.56843E+07 4.89658E+06 3.64414E+07
 -1      1138-8.55650E+06-1.08212E+07-9.05598E+06-5.92359E+07 2.07138E+07-6.46073E+06
 -1      1139-2.58707E+07-1.02513E+07-8.97313E+06-1.34397E+07 1.96319E+05 1.71600E+06
 -1      1140-1.24669E+07-4.51100E+05 2.29523E+06-7.19560E+06-4.27171E+06-6.91472E+06
 -1      1141-9.21713E+07-1.18930E+07-1.86186E+07 3.94288E+07 3.04844E+07-3.21753E+07
 -1      1142-1.49476E+08-3.23411E+07 3.47464E+07 8.47742E+07-7.99598E+06 3.24946E+07
 -1      1143-1.75339E+08-2.60045E+08 3.88833E+07 1.19260E+08 1.37306E+07 1.02078E+07
 -1      1144-1.97770E+08-2.05583E+08 1.51900E+07 1.50266E+08 8.60225E+07 4.95003E+07
 -1      1145-2.37595E+08-2.23791E+08-3.37214E+07 1.80573E+08-4.16264E+07-5.30974E+07
 -1      1146-1.33851E+08-1.79378E+08-5.39919E+06 1.49402E+08-2.87290E+06-4.22468E+06
 -1      1147-6.37032E+07-1.34619E+08 1.36129E+07 1.08969E+08 9.23677E+06 2.33860E+07
 -1      1148 7.59625E+07-5.91859E+07-1.58281E+07 6.71057E+07 1.22060E+07-2.97370E+07
 -1      1149 2.22885E+08-1.54087E+07-5.21011E+07 4.32755E+07-9.00756E+06 3.16111E+07
 -1      1150 3.66027E+08 9.03240E+07 7.26811E+07 3.67735E+07-1.47724E+07-1.04466E+07
 -1      1151 4.08881E+08 1.59010E+08 1.59010E+08 2.03282E+07 1.51937E+02-3.28739E+07
 -1      1152 3.61169E+07 1.05316E+07-7.39650E+06 2.52530E+07 1.62592E+07 1.86554E+07
 -1      1153 6.03871E+07-7.29170E+06 3.65239E+06 2.19291E+07-6.19063E+06-8.98677E+06
 -1      1154 7.21421E+06 2.43010E+06 1.71003E+06-2.29518E+07-7.25910E+06-1.61940E+07
 -1      1155 5.67126E+06 5.41163E+06 7.56313E+06-5.24653E+06-4.95307E+06 6.56563E+06
 -1      1156-8.94799E+07-2.01197E+07-3.02610E+07 4.48430E+07 1.51974E+07-3.47365E+07
 -1      1157-1.17250E+08-4.68030E+07 2.93632E+07 1.13040E+08 1.81070E+06-2.35361E+07
 -1      1158-1.75997E+08-1.27140E+08-3.21319E+06 1.51271E+08 5.11580E+05-7.62269E+06
 -1      1159-1.22988E+08-1.58813E+08-6.85676E+04 1.00154E+08-3.91445E+07 3.64110E+07
 -1      1160 4.40355E+07 3.15862E+05-5.49800E+06 1.59131E+07-1.87939E+07-7.23613E+06
 -1      1161 5.48652E+07 1.29841E+07 8.42213E+06 1.52411E+07 5.22246E+06 2.00831E+06
 -1      1162 1.71870E+07-1.36362E+07-2.24074E+06 8.01944E+06 7.54018E+06 3.88453E+06
 -1      1163 1.02236E+07-2.63223E+07-5.30038E+06-2.65431E+06-9.01075E+06-7.12349E+06
 -1      1164 1.82604E+07-1.29843E+07 3.12679E+06-8.69040E+06 5.41791E+06 1.09720E+07
 -1      1165-4.50326E+05-1.77866E+07-2.77785E+06-6.23742E+06-6.04830E+06 3.22729E+06
 -1      1166-4.85361E+06-1.59734E+07-2.82403E+06-1.26847E+06-8.19636E+05-8.30721E+06
 -1      1167-3.42177E+07 1.07419E+08 1.08310E+07 6.64391E+07 4.09573E+07-3.68573E+06
 -1      1168-3.88965E+07 1.04457E+08 8.42712E+06 7.06720E+07 4.39146E+07 7.47033E+06
 -1      1169-7.89022E+07 7.48743E+07-1.13223E+07 8.99647E+07 1.26773E+07 1.04557E+07
 -1      1170-8.98307E+07 1.70177E+07 8.44667E+06 9.65544E+07 3.51447E+07-1.30983E+07
 -1      1171-1.21626E+08-6.54765E+07 1.54744E+07 1.12176E+08 1.79726E+07 9.54607E+06
 -1      1172-1.71785E+08-1.25351E+08-5.00250E+06 1.03441E+08 3.04952E+07-3.33978E+07
 -1      1173-1.18420E+08-1.05498E+08 2.58309E+07 8.01215E+07 3.55985E+07 2.49692E+07
 -1      1174-2.49570E+06-3.03561E+07-6.41413E+05-8.17140E+05 2.56098E+05 4.75874E+06
 -1      1175 5.25816E+06-2.97378E+07 2.77179E+06-9.03577E+06 1.01134E+06-5.47475E+05
 -1      1176-5.42382E+06-4.02977E+07-2.99141E+06-6.75646E+06 5.90757E+06-4.06064E+05
 -1      1177 1.58015E+07 3.33742E+08 1.55468E+07 2.93762E+07 4.70098E+06 2.53670E+06
 -1      1178-3.41590E+07 1.73237E+08-2.66339E+07 3.91441E+07 3.73531E+06-1.99278E+06
 -1      1179-5.52293E+07 7.36902E+07-1.75130E+07 6.11322E+07-3.24084E+07 7.49463E+06
 -1      1180 5.01650E+06-3.80781E+07 1.10919E+07-1.99956E+06-3.58548E+06-5.26600E+06
 -1      1181-1.90741E+04-3.82975E+07 8.24731E+06-4.03710E+06-2.97398E+06 1.59122E+06
 -1      1182-2.88305E+06-3.68506E+07 6.47730E+06-7.09877E+06-4.94260E+06-8.32367E+04
 -1      1183-2.76047E+04-3.51079E+07 7.27029E+06-1.15053E+07-6.13288E+05-3.92385E+05
 -1      1184-1.11026E+06-3.55416E+07 6.35118E+06-1.71794E+07-4.00897E+06-1.26501E+06
 -1      1185 4.85741E+06-1.23759E+07 2.27849E+06-2.37408E+07-2.74529E+06-5.95268E+06
 -1      1186 3.46233E+07 1.69210E+07 6.58600E+06-2.93281E+07-9.19825E+06-1.31574E+07
 -1      1187 6.19159E+07 3.50319E+07-7.43648E+06-6.50585E+07 2.09218E+07-3.87929E+06
 -1      1188 6.47718E+07 6.25396E+07-2.56701E+07-1.13176E+08 1.70553E+07-1.85564E+07
 -1      1189 4.14387E+07 1.72285E+08-4.83088E+07-1.44137E+08 3.50834E+07-5.17408E+07
 -1      1190 1.74631E+06 3.38935E+08-5.95951E+07-9.26356E+07 3.37949E+07-1.10574E+07
 -1      1191-1.73611E+07 2.91366E+08-6.12500E+07-3.16987E+07 2.00703E+07-6.78452E+05
 -1      1192-4.81849E+06 2.34999E+08-5.65062E+07-1.94392E+06 3.56289E+07-5.86285E+06
 -1      1193-5.48705E+06 2.34375E+08-5.30036E+07 2.03147E+07 3.00737E+07 5.66342E+06
 -1      1194-1.86565E+07 2.29687E+08-5.41393E+07 4.03691E+07 3.65270E+07-6.70067E+06
 -1      1195-1.28664E+07-5.68872E+07-9.35642E+06 1.70948E+06 3.99582E+05-2.22858E+06
 -1      1196-1.57658E+07-5.29025E+07-1.04258E+07-3.79962E+06 7.06140E+05 4.90046E+05
 -1      1197-8.08897E+06-3.35235E+07-3.34464E+06-1.01388E+07-6.66398E+05 1.39894E+06
 -1      1198 8.33940E+06 6.23502E+06 1.57658E+05-1.77432E+07 2.52192E+06 1.05259E+07
 -1      1199 5.45508E+07 1.03515E+08 1.35999E+07-5.70217E+07-1.03109E+07-2.21724E+06
 -1      1200 8.19525E+07 3.37250E+08 3.98839E+07-6.66638E+07-3.03036E+06-4.63368E+06
 -1      1201 1.18118E+08 4.06605E+08 8.64442E+07-4.55482E+05-1.02785E+07 9.14849E+06
 -1      1202 8.83814E+07 3.65824E+08 7.05638E+07 3.87251E+07-8.00669E+06-1.22309E+07
 -1      1203-2.49693E+07-6.42067E+07-2.49693E+07 2.33953E+06 3.97636E+06 3.61319E+01
 -1      1204-2.54299E+07-6.53910E+07-2.54299E+07 7.64146E+05-3.54117E+06-2.03303E+01
 -1      1205-2.47222E+07-6.35713E+07-2.47222E+07 4.73380E+03-2.61688E+06 2.67072E+00
 -1      1206-2.03241E+07-5.22618E+07-2.03241E+07-5.92313E+05-5.36348E+06 2.44926E+01
 -1      1207-1.42888E+07-3.67425E+07-1.42888E+07-1.33414E+06 8.83259E+05-1.69614E+01
 -1      1208-7.11895E+06-1.83058E+07-7.11895E+06-1.87690E+06 1.96270E+06 2.69746E+01
 -1      1209 1.15794E+06 2.97776E+06 1.15805E+06-3.10550E+06 1.07851E+07 6.59004E+01
 -1      1210 2.54012E+07 6.53178E+07 2.54014E+07-1.72226E+06 1.28836E+06-2.87673E+01
 -1      1211 5.83044E+07 1.49925E+08 5.83045E+07-2.15595E+06 3.66925E+07-8.32218E+00
 -1      1212 9.56183E+07 2.45876E+08 9.56185E+07-9.76515E+06 2.67169E+06 1.95886E+02
 -1      1213 1.43388E+08 3.68712E+08 1.43388E+08-9.82013E+06-1.43057E+07-1.08721E+01
 -1      1214 1.75164E+08 4.50422E+08 1.75165E+08-3.77437E+06 4.88748E+07 8.90563E+01
 -1      1215 1.95905E+08 5.03755E+08 1.95905E+08-1.03578E+06 3.05024E+07 1.06388E+02
 -1      1216 1.79279E+08 4.61002E+08 1.79279E+08 8.75153E+06 2.71715E+07-2.23761E+02
 -1      1217 1.55221E+08 3.99140E+08 1.55221E+08 2.07926E+07-4.02234E+07 2.06499E+02
 -1      1218 2.47530E+08 2.10006E+08 1.58641E+08 1.10858E+08 1.90687E+08 2.29689E+08
 -1      1219 5.60738E+06-1.29481E+07 6.58217E+06-7.22330E+06 3.02214E+06 1.05192E+07
 -1      1220 1.19792E+07 9.82164E+06 1.38539E+07 9.01315E+05 7.60160E+06 8.49888E+06
 -1      1221 1.04534E+06-2.31894E+06-6.54017E+06 1.39188E+06 8.41696E+05 6.59313E+05
 -1      1222-5.66399E+06-5.21360E+06-8.20421E+06-1.03228E+06 9.58683E+05-3.75569E+06
 -1      1223-8.76063E+07 4.51430E+06-2.82747E+07 2.02561E+07 9.39836E+06 8.54324E+07
 -1      1224-2.00062E+07 5.02400E+05-1.48122E+05-7.54762E+06 1.47599E+07 4.28096E+06
 -1      1225 1.50856E+07 1.24114E+07-1.67914E+07 1.55322E+07-9.77520E+06-1.27095E+07
 -1      1226 5.57670E+06 2.44472E+06 2.75117E+06 3.83458E+06 7.86147E+05-8.23117E+05
 -1      1227 1.95280E+06 3.07943E+05-1.75363E+06 1.53216E+06-8.59107E+05-2.28805E+06
 -1      1228-5.28942E+06 4.34116E+05 3.04218E+06 2.72561E+06-2.01756E+06-6.23862E+06
 -1      1229 1.12191E+07 4.84543E+06 7.08176E+06-1.78799E+06-7.94896E+06 2.31032E+06
 -1      1230 1.02590E+07 1.29595E+07 1.13110E+07-1.05449E+05 8.35401E+06 9.60828E+06
 -1      1231 2.77724E+06 6.48904E+06 2.38386E+06 3.73316E+06-2.47252E+05 7.58591E+05
 -1      1232 3.22006E+06 2.96040E+06 3.91471E+05 1.57959E+06-1.17535E+06-1.88265E+06
 -1      1233-3.02973E+05-4.60032E+05-5.86460E+04 2.86614E+05-1.52915E+06-2.13118E+06
 -1      1234-1.20272E+06-3.77039E+06 7.21998E+05-2.53090E+05-1.90848E+06-6.97764E+05
 -1      1235-1.25084E+06-5.10564E+06 1.84693E+06-1.33283E+06-1.94808E+06 3.86791E+06
 -1      1236 1.48695E+06 5.43325E+06-1.98043E+06 1.49521E+06-1.84812E+06 4.30718E+06
 -1      1237 1.42419E+06 4.01862E+06-6.87793E+05 2.51374E+05-1.88142E+06-5.50767E+05
 -1      1238 7.80943E+05 6.34518E+05 6.65522E+04-2.09658E+05-1.54825E+06-2.09302E+06
 -1      1239-2.75332E+06-2.77686E+06-3.83694E+05-1.47660E+06-1.18667E+06-1.92161E+06
 -1      1240-2.52622E+06-6.21681E+06-2.31000E+06-3.55760E+06-2.28811E+05 6.22949E+05
 -1      1241-1.00072E+07-1.26215E+07-1.12036E+07 2.88451E+04 8.16066E+06 9.20967E+06
 -1      1242-1.24925E+07-5.50698E+06-8.08039E+06 1.89129E+06-8.74143E+06 2.56106E+06
 -1      1243 6.04214E+06-5.83372E+05-3.27155E+06-2.89652E+06-2.32602E+06-6.63902E+06
 -1      1244-1.49419E+06-1.97120E+05 1.71713E+06-1.44526E+06-8.41229E+05-2.15453E+06
 -1      1245-5.08840E+06-2.34058E+06-2.74731E+06-3.69756E+06 7.63243E+05-9.57962E+05
 -1      1246-1.44083E+07-1.23688E+07 1.63851E+07-1.50582E+07-9.84986E+06-1.23209E+07
 -1      1247 1.90283E+07-7.38012E+05-5.16749E+05 7.41708E+06 1.39005E+07 3.98631E+06
 -1      1248 9.59582E+07-6.97126E+06 3.07724E+07-2.15595E+07 1.22287E+07 9.39473E+07
 -1      1249 6.73404E+06 6.06618E+06 9.29295E+06 1.03491E+06 1.08099E+06-4.00821E+06
 -1      1250-4.87756E+05 2.25180E+06 6.90052E+06-1.52266E+06 1.00422E+06 9.11137E+05
 -1      1251-1.13868E+07-9.72057E+06-1.34427E+07-7.52140E+05 7.59284E+06 7.94349E+06
 -1      1252-4.63138E+06 1.34090E+07-5.80121E+06 7.16011E+06 3.00948E+06 1.03496E+07
 -1      1253-2.39009E+08-2.08813E+08-1.54501E+08-1.08467E+08 1.89784E+08 2.21082E+08
 -1      1254 7.75957E+07 5.73671E+07 7.51801E+07 3.89143E+07 1.05623E+08 1.29665E+08
 -1      1255 4.91950E+07 1.41452E+07-2.10035E+06 2.41226E+07 7.56210E+06 2.25581E+07
 -1      1256 3.09604E+07 1.88391E+06 2.56663E+06 5.99269E+06 5.72600E+06 1.07597E+07
 -1      1257 7.03207E+06-6.75953E+06-8.55795E+06 1.74865E+06-1.02700E+06 4.67518E+06
 -1      1258 1.52358E+07 3.93147E+06 8.57975E+06 9.32186E+05 2.62002E+06 3.96264E+06
 -1      1259 7.10808E+06 5.54741E+05 1.34695E+06 1.35971E+06 1.16289E+06 2.53844E+06
 -1      1260 1.37027E+06-1.89939E+06-4.63859E+06 8.39383E+05 1.49455E+06 8.89196E+04
 -1      1261 2.92740E+06 1.96932E+06 2.77518E+06-3.92075E+05-1.14793E+06-1.21441E+06
 -1      1262-1.27508E+07-4.10871E+06-4.82151E+06 1.92974E+06-3.24657E+04-3.00941E+06
 -1      1263-2.75272E+07-8.80115E+05 6.75961E+06 5.30819E+06 9.76847E+05 2.32878E+06
 -1      1264-3.71482E+07 1.28009E+07-1.33521E+07 7.07573E+06 8.08772E+06 5.04633E+07
 -1      1265 1.55414E+07 3.23021E+07 3.42955E+06 2.32242E+07 2.38051E+07 9.64735E+06
 -1      1266 2.21886E+07 9.59560E+06 1.05409E+07 1.23259E+07 6.16896E+06 7.87651E+06
 -1      1267 1.22971E+07 2.43235E+06-1.08052E+06 4.18472E+06-7.49962E+05-2.90130E+06
 -1      1268 3.10079E+06 6.24032E+05 7.95290E+05 1.66045E+06 2.12632E+05-2.30270E+06
 -1      1269-3.03101E+06-1.36621E+06-3.21039E+06 3.26167E+06 1.83574E+06 2.24791E+06
 -1      1270-4.50234E+06 1.29313E+07-6.96520E+06 3.16258E+06-5.69585E+06 3.97715E+06
 -1      1271-1.65992E+06 2.33879E+07-1.59657E+06 5.13255E+06 1.44128E+07 6.65979E+06
 -1      1272 1.00943E+07 2.21031E+07 9.48480E+06 1.13430E+07 6.59403E+06 8.95090E+06
 -1      1273 1.02133E+07 8.82289E+06-1.05031E+07 1.52092E+07-6.72977E+06-8.14927E+06
 -1      1274 1.03313E+07 7.11092E+06-1.43063E+06 9.93387E+06-1.01499E+06-3.26606E+06
 -1      1275 9.03529E+06 4.73050E+06 1.59382E+06 6.27095E+06 1.00184E+06-7.46946E+05
 -1      1276 5.91100E+06 2.72716E+06 6.71572E+05 4.06017E+06 3.29664E+05-6.05224E+05
 -1      1277 2.30573E+06 5.56805E+05-9.84267E+05 2.30204E+06-8.79851E+05-1.92933E+06
 -1      1278-1.83592E+04 7.88266E+04-2.04954E+05 2.54184E+06-7.87951E+05-1.98320E+06
 -1      1279-2.72591E+06-4.90933E+05 1.89620E+06 2.61344E+06-7.67368E+05-3.58685E+06
 -1      1280-2.08544E+06-4.66416E+06-3.86914E+05 7.70392E+05-3.02504E+05 4.58986E+06
 -1      1281 4.06966E+06 3.27577E+06 4.68433E+06-1.03905E+05-7.26205E+06 2.25921E+06
 -1      1282-6.02238E+06 8.54808E+06-7.22873E+06 2.45518E+06 6.36574E+06-2.25893E+06
 -1      1283 8.24258E+06 1.03379E+07-1.76265E+06 9.60246E+06-2.48926E+06-1.45341E+06
 -1      1284 6.40987E+06 4.56814E+06-4.19144E+04 4.17450E+06-7.91148E+05-1.94020E+06
 -1      1285 1.16779E+06 3.83436E+05-2.63079E+04 1.62368E+06-7.14436E+05-1.94299E+06
 -1      1286-2.65868E+06-3.31410E+06 7.59356E+05 7.96876E+05-8.97575E+05-1.31814E+06
 -1      1287 2.84129E+05-5.34756E+06-1.11488E+03 1.06984E+06-2.95108E+06-1.81176E+06
 -1      1288 3.28841E+06 1.57134E+07 6.66903E+06 7.82234E+05 4.00666E+06 4.10913E+06
 -1      1289 2.90688E+06 1.34012E+07-9.26160E+05 4.05781E+06-1.92701E+06-6.84549E+05
 -1      1290 5.52138E+06 1.00730E+07 1.35891E+06 6.02716E+06-1.54648E+05 8.79189E+05
 -1      1291 5.35385E+06 6.80245E+06-6.06677E+04 3.88209E+06-1.34816E+06-1.08953E+06
 -1      1292 5.01051E+06 4.64886E+06 4.54891E+05 2.57372E+06-1.14785E+06-1.68264E+06
 -1      1293 2.22165E+06 1.77072E+06 5.87335E+04 1.52553E+06-1.23557E+06-1.42728E+06
 -1      1294-4.61796E+05-7.78416E+05-7.59266E+04 4.64437E+05-1.12710E+06-1.68933E+06
 -1      1295-1.84020E+06-3.02998E+06 3.19636E+04-2.29186E+05-1.27314E+06-1.08028E+06
 -1      1296-2.24751E+06-5.21990E+06 4.00548E+05-2.23822E+05-1.64967E+06-6.08452E+05
 -1      1297-1.46507E+06-7.11683E+06-3.60368E+05-2.79699E+05-1.35060E+06-2.94613E+04
 -1      1298 5.36298E+05-6.40830E+06 1.71708E+06-5.73226E+05-1.00617E+06 2.61008E+06
 -1      1299 7.15024E+05 9.56075E+06 1.69194E+06 9.90420E+05 1.89612E+06 1.92675E+06
 -1      1300 4.11203E+06 8.01892E+06 9.62127E+05 2.98114E+06-4.33896E+05 6.20504E+05
 -1      1301 2.86544E+06 2.82176E+06 9.13100E+04 1.11221E+06-9.81107E+05-1.82666E+06
 -1      1302-2.18246E+06-2.55214E+06-8.27639E+04-9.80399E+05-9.80149E+05-1.84885E+06
 -1      1303-3.74920E+06-7.69054E+06-9.39750E+05-2.84778E+06-4.39704E+05 4.86445E+05
 -1      1304-7.41710E+05-9.26454E+06-1.71426E+06-9.47575E+05 1.79273E+06 1.78441E+06
 -1      1305-5.72245E+05 6.67295E+06-1.84058E+06 5.88959E+05-9.37411E+05 2.88070E+06
 -1      1306 1.64303E+06 7.44289E+06 3.42287E+05 2.77402E+05-1.41353E+06-8.67077E+02
 -1      1307 2.63024E+06 5.56011E+06-3.89108E+05 2.41058E+05-1.65263E+06-4.96315E+05
 -1      1308 2.39600E+06 3.31358E+06-3.22723E+04 3.09079E+05-1.27871E+06-1.06135E+06
 -1      1309 1.16855E+06 1.03868E+06 8.81648E+04-3.54046E+05-1.13789E+06-1.65945E+06
 -1      1310-1.54014E+06-1.52681E+06-5.67309E+04-1.39276E+06-1.24412E+06-1.42591E+06
 -1      1311-4.31075E+06-4.37078E+06-4.42441E+05-2.41706E+06-1.15308E+06-1.71312E+06
 -1      1312-4.79759E+06-6.49654E+06 6.31405E+04-3.70029E+06-1.34059E+06-1.10264E+06
 -1      1313-5.12506E+06-9.69493E+06-1.32138E+06-5.77497E+06-1.56170E+05 7.66426E+05
 -1      1314-2.73323E+06-1.30119E+07 8.84106E+05-3.87587E+06-1.96619E+06-7.10172E+05
 -1      1315-3.27115E+06-1.53428E+07-6.63278E+06-7.25402E+05 3.87509E+06 3.88952E+06
 -1      1316-2.94270E+05 5.69083E+06 9.19067E+04-1.18893E+06-3.23268E+06-1.98001E+06
 -1      1317 3.16080E+06 3.53557E+06-8.33130E+05-8.25715E+05-9.38319E+05-1.27170E+06
 -1      1318-4.70577E+05-1.84323E+05 2.74625E+04-1.53849E+06-7.08911E+05-1.90726E+06
 -1      1319-5.70801E+06-4.34855E+06 4.01367E+04-3.98317E+06-7.87671E+05-1.96856E+06
 -1      1320-7.75312E+06-1.00501E+07 1.68603E+06-9.26472E+06-2.48782E+06-1.49099E+06
 -1      1321 5.93175E+06-8.19192E+06 7.18354E+06-2.28955E+06 5.98526E+06-2.13115E+06
 -1      1322-4.63127E+06-3.94176E+06-5.32225E+06 1.26163E+05-7.95006E+06 2.49118E+06
 -1      1323 2.42766E+06 5.07269E+06 4.01066E+05-7.87601E+05-1.81607E+05 5.11034E+06
 -1      1324 3.35026E+06 5.21469E+05-2.04479E+06-2.77669E+06-8.97997E+05-3.75289E+06
 -1      1325 7.00870E+05 7.24418E+03 2.10481E+05-2.60003E+06-8.31946E+05-2.05644E+06
 -1      1326-1.58136E+06-4.15371E+05 9.75656E+05-2.21878E+06-8.81866E+05-1.85252E+06
 -1      1327-5.11809E+06-2.55322E+06-6.35509E+05-3.89743E+06 3.14210E+05-6.03691E+05
 -1      1328-8.28728E+06-4.56609E+06-1.57910E+06-6.02834E+06 9.74248E+05-8.24837E+05
 -1      1329-9.65028E+06-6.95725E+06 1.40491E+06-9.55963E+06-1.03838E+06-3.19647E+06
 -1      1330-9.63321E+06-8.68785E+06 1.02379E+07-1.46765E+07-6.73197E+06-7.96472E+06
 -1      1331-9.69350E+06-2.14924E+07-9.32042E+06-1.10132E+07 6.56994E+06 8.49909E+06
 -1      1332 1.29904E+06-2.34024E+07 1.15927E+06-4.99779E+06 1.36560E+07 6.37827E+06
 -1      1333 4.88364E+06-1.47877E+07 7.76924E+06-3.36429E+06-6.27172E+06 4.49087E+06
 -1      1334 3.71184E+06 1.47775E+06 3.49865E+06-3.56215E+06 2.16175E+06 2.64833E+06
 -1      1335-2.16786E+06-5.26418E+05-7.64416E+05-1.58128E+06 2.16113E+05-2.37207E+06
 -1      1336-1.13886E+07-2.33142E+06 1.09258E+06-4.02946E+06-7.33866E+05-2.86126E+06
 -1      1337-2.13588E+07-9.37294E+06-1.01983E+07-1.17985E+07 6.29205E+06 7.47866E+06
 -1      1338-1.51161E+07-3.29962E+07-2.87555E+06-2.27017E+07 2.29118E+07 9.20912E+06
 -1      1339 4.09718E+07-1.47747E+07 1.45799E+07-7.56690E+06 9.90947E+06 5.56253E+07
 -1      1340 3.06744E+07 8.88267E+05-7.52939E+06-5.77960E+06 1.09118E+06 2.59462E+06
 -1      1341 1.46066E+07 4.63448E+06 5.47168E+06-2.17590E+06 3.24176E+04-3.20112E+06
 -1      1342-2.44149E+06-2.19900E+06-3.12534E+06 4.86672E+05-1.33600E+06-1.36166E+06
 -1      1343-4.04667E+05 1.96921E+06 4.87230E+06-7.84739E+05 1.60615E+06 1.99194E+05
 -1      1344-6.23635E+06-5.11795E+05-1.20223E+06-1.30962E+06 1.17568E+06 2.41374E+06
 -1      1345-1.42843E+07-3.84259E+06-8.33932E+06-8.88401E+05 2.64364E+06 3.61546E+06
 -1      1346-6.51049E+06 6.51969E+06 8.19817E+06-1.71710E+06-1.14530E+06 4.54548E+06
 -1      1347-2.92112E+07-1.49409E+06-2.11019E+06-5.66626E+06 5.66595E+06 1.05793E+07
 -1      1348-4.64767E+07-1.39685E+07 1.58919E+06-2.34141E+07 7.55666E+06 2.18635E+07
 -1      1349-7.40782E+07-5.77799E+07-7.31615E+07-3.80205E+07 1.05230E+08 1.24532E+08
 -1      1350 4.48361E+07 2.76685E+07 2.34378E+07 3.33895E+07 3.46543E+07 4.39779E+07
 -1      1351 3.97329E+07 3.40490E+06-8.58845E+05 1.19994E+07 2.29890E+06 1.86718E+06
 -1      1352 1.45515E+07-7.18824E+04-7.35768E+05 2.59171E+06 2.70160E+05-5.79291E+05
 -1      1353 4.37275E+06-8.57781E+02-3.85742E+05 1.07309E+06 5.71092E+05-1.19149E+06
 -1      1354-1.41783E+07-3.13687E+06-1.61678E+06 3.00518E+06 2.16692E+05-3.73327E+06
 -1      1355-2.77152E+07 1.46976E+07-4.14779E+06 5.98552E+06 4.33651E+06 1.83589E+07
 -1      1356 1.12673E+06 3.21194E+07-2.34786E+06 1.11474E+07 4.92086E+06 2.87263E+06
 -1      1357 1.68572E+07 1.54163E+07-3.14432E+05 1.95752E+07 4.22491E+05 2.71992E+05
 -1      1358 1.20074E+07 6.06453E+06 6.72876E+05 8.10003E+06 7.25061E+04-6.34425E+05
 -1      1359 3.34141E+06 1.24665E+06-2.18578E+05 3.18163E+06-1.38139E+05-8.45087E+05
 -1      1360-3.76464E+06-1.76953E+06 4.67902E+04 3.35966E+06-5.46904E+05-4.99198E+05
 -1      1361 2.28979E+06 1.62284E+06 2.17661E+06 9.30562E+05-4.74359E+06 1.14809E+06
 -1      1362 4.83733E+04 1.62817E+07-7.87745E+05 2.58872E+06 8.70381E+04 6.63103E+05
 -1      1363 7.26070E+06 1.33616E+07 5.26470E+05 7.68988E+06-3.78916E+05 8.16655E+04
 -1      1364 6.14384E+06 5.66670E+06-1.66399E+05 3.43874E+06-6.14041E+05-9.64597E+05
 -1      1365-5.59114E+05-9.23548E+05 2.91528E+04 6.17867E+05-7.37309E+05-1.05591E+06
 -1      1366-3.40379E+06-7.17587E+06 2.63008E+03-5.10590E+05-6.11734E+05-1.49173E+05
 -1      1367-3.74408E+04-9.22702E+06 5.50789E+05-2.22472E+05-9.05575E+05 6.95974E+05
 -1      1368 5.34617E+04 9.66374E+06-5.41814E+05 2.10617E+05-9.28103E+05 7.70354E+05
 -1      1369 3.90854E+06 7.60323E+06-2.21612E+04 5.42181E+05-6.12839E+05-8.63742E+04
 -1      1370 1.47983E+06 1.25942E+06-2.46602E+04-4.73620E+05-7.46758E+05-1.03856E+06
 -1      1371-5.23182E+06-5.30926E+06 1.67980E+05-3.23035E+06-6.17314E+05-9.82542E+05
 -1      1372-6.74936E+06-1.28886E+07-5.31349E+05-7.36656E+06-3.81797E+05 2.10801E+04
 -1      1373-3.64889E+04-1.57679E+07 8.00166E+05-2.45474E+06 2.03413E+03 6.03517E+05
 -1      1374-2.61946E+06-2.11111E+06-2.42056E+06-9.96194E+05-5.22330E+06 1.28351E+06
 -1      1375 4.58166E+06 1.91694E+06-6.38431E+04-3.57044E+06-5.77060E+05-4.27172E+05
 -1      1376-2.33362E+06-1.04037E+06 2.57447E+05-3.07191E+06-1.47394E+05-8.19950E+05
 -1      1377-1.09883E+07-5.83702E+06-6.37465E+05-7.78528E+06 6.01541E+04-6.63605E+05
 -1      1378-1.60313E+07-1.51016E+07 2.85578E+05-1.88920E+07 3.90135E+05 2.00855E+05
 -1      1379-1.31034E+06-3.19189E+07 2.16543E+06-1.08340E+07 4.46799E+06 2.73424E+06
 -1      1380 3.06912E+07-1.66396E+07 4.53719E+06-6.47648E+06 5.06675E+06 2.03387E+07
 -1      1381 1.62676E+07 3.48432E+06 1.78841E+06-3.33644E+06 2.59694E+05-4.00407E+06
 -1      1382-3.28175E+06-4.13480E+04 3.09566E+05-9.95924E+05 5.86723E+05-1.25303E+06
 -1      1383-1.34754E+07 3.88701E+04 6.60293E+05-2.49429E+06 2.72123E+05-6.58674E+05
 -1      1384-3.77296E+07-3.12695E+06 9.57803E+05-1.14931E+07 2.28680E+06 1.90330E+06
 -1      1385-4.22934E+07-2.84598E+07-2.27880E+07-3.25384E+07 3.45635E+07 4.20478E+07
 -1      1386 3.47391E+07 2.00026E+07 1.61034E+07 3.13851E+07 1.55565E+07 2.17939E+07
 -1      1387 4.86801E+07 1.32304E+07-1.77144E+06 2.99572E+07-2.86523E+06 6.19162E+06
 -1      1388 5.27237E+07 7.34899E+06 1.67198E+06 1.87161E+07 5.91438E+06 2.74094E+06
 -1      1389 2.48728E+07-4.94792E+05 3.90874E+05 6.83009E+06 2.13855E+06 4.64087E+06
 -1      1390 1.72354E+07-5.66774E+05-1.46712E+06 4.33002E+06-9.20352E+05-2.15733E+06
 -1      1391 1.29128E+07 5.61702E+05 4.19374E+05 2.62569E+06 3.20465E+04 5.54232E+05
 -1      1392 6.16296E+06 4.56309E+05-3.28439E+05 1.42257E+06 7.22241E+05-1.32888E+06
 -1      1393 8.28757E+05 1.11515E+06 1.40317E+05 8.15330E+05-2.04303E+05 1.85388E+06
 -1      1394-1.78999E+07-4.05194E+06-2.55757E+06 3.92163E+06-3.55377E+04-1.00284E+06
 -1      1395-2.58961E+07-2.02813E+06 2.73464E+06 6.01714E+06-5.88392E+05 9.02804E+05
 -1      1396-2.30533E+07 1.33943E+07-2.84517E+06 5.51992E+06 4.27289E+06 1.09719E+07
 -1      1397 1.33987E+07 3.27918E+07 3.07312E+05 2.92523E+07 6.35997E+06-3.76635E+06
 -1      1398 3.59989E+07 1.28741E+07 2.93699E+06 2.38607E+07 2.11519E+06-1.40601E+05
 -1      1399 1.81205E+07 3.12591E+06-1.40152E+06 8.02582E+06-7.14169E+05-2.06044E+06
 -1      1400 5.81174E+06 1.57572E+06 5.17832E+05 3.15772E+06 1.20619E+05-1.44944E+06
 -1      1401-7.19138E+06-2.21220E+06-8.33430E+05 4.65971E+06 6.17796E+05 6.60862E+05
 -1      1402-2.71569E+06 1.15574E+07-2.48076E+06 4.33205E+06-1.27553E+06-1.79618E+06
 -1      1403 4.88109E+06 4.35720E+07-2.19168E+05 1.81224E+07 3.71213E+06 6.86151E+06
 -1      1404 1.31673E+07 3.38273E+07 2.68893E+06 2.34413E+07-8.65314E+05 3.00111E+06
 -1      1405 1.85404E+07 1.70588E+07-1.94277E+06 2.39956E+07 1.40161E+06 8.52656E+05
 -1      1406 1.77034E+07 1.16418E+07-1.25136E+06 1.49766E+07 8.31205E+05 4.31531E+04
 -1      1407 1.55272E+07 8.05108E+06 9.88817E+05 9.99084E+06-2.74498E+04 5.44078E+05
 -1      1408 9.46361E+06 4.47117E+06 6.00964E+04 6.80076E+06 8.25074E+04 3.11457E+05
 -1      1409 3.92760E+06 1.60034E+06-2.99677E+05 4.07906E+06 3.11580E+05 1.41623E+05
 -1      1410-7.51437E+05-1.68892E+05 1.84965E+05 3.47448E+06-4.21422E+05-2.80008E+05
 -1      1411-3.92072E+06-2.13679E+06 3.40002E+05 4.11229E+06-9.89416E+05-6.36409E+05
 -1      1412-2.35278E+06-4.95943E+06-1.68021E+05 3.48110E+06 8.33580E+05 1.52915E+06
 -1      1413 1.80887E+06 1.04176E+06 2.30629E+06 2.41678E+06-2.03801E+06 2.24340E+06
 -1      1414 2.26265E+05 2.56883E+07 5.68665E+05 7.40068E+06 4.03707E+06 2.21245E+06
 -1      1415 1.31800E+07 1.73174E+07-1.23367E+06 1.48415E+07 3.77816E+05 6.15287E+05
 -1      1416 1.13394E+07 8.45798E+06 6.07391E+05 6.78215E+06-2.50629E+05-6.77330E+04
 -1      1417 1.64688E+06 4.78710E+05-1.85127E+05 2.48376E+06 1.62209E+05-1.90252E+05
 -1      1418-3.97304E+06-4.91444E+06 2.53214E+05 1.59475E+06-3.55077E+05-1.96307E+05
 -1      1419-1.10442E+06-9.24957E+06-3.32012E+05 1.57373E+06 2.81935E+05 5.57753E+05
 -1      1420-2.75957E+05 1.97374E+07-1.53139E+06 4.40864E+06-1.44694E+06-6.45078E+05
 -1      1421 4.25760E+06 2.04935E+07-1.13535E+06 7.70018E+06-1.45477E+06-7.41116E+05
 -1      1422 9.62839E+06 1.70982E+07 8.41703E+05 9.41994E+06 4.17939E+05 1.66904E+05
 -1      1423 9.73357E+06 1.18476E+07 5.59835E+05 6.41922E+06-4.65667E+04-1.72469E+05
 -1      1424 7.52376E+06 6.92729E+06-3.68072E+05 4.27422E+06-4.62179E+04-2.10464E+05
 -1      1425 3.51959E+06 2.81535E+06-4.44408E+04 2.50420E+06-2.11836E+05 7.88756E+04
 -1      1426-7.09040E+05-1.09790E+06 6.44212E+04 7.65901E+05-3.02217E+05-3.56141E+05
 -1      1427-3.21093E+06-4.96565E+06-2.16732E+04-2.02076E+05-1.38589E+05 9.05977E+04
 -1      1428-4.47301E+06-8.88471E+06-2.04675E+04-7.94056E+05 1.97310E+04 2.99790E+05
 -1      1429-2.75094E+06-1.18225E+07-6.97969E+04-5.16611E+05-7.94208E+05-1.28528E+05
 -1      1430-3.52178E+05-1.19744E+07 7.30328E+05 1.80709E+04-5.99391E+05 4.16867E+05
 -1      1431 6.82231E+05 1.75723E+07 3.46322E+05 2.00588E+06 4.38897E+05 6.47230E+04
 -1      1432 6.86160E+06 1.29134E+07 1.12855E+05 4.97208E+06 2.07024E+05 1.76593E+05
 -1      1433 4.52916E+06 4.39924E+06-7.90519E+04 1.83237E+06 5.09140E+04-3.44089E+05
 -1      1434-3.42728E+06-3.96820E+06 7.26323E+04-1.61642E+06 5.20806E+04-3.48581E+05
 -1      1435-6.23980E+06-1.23553E+07-1.05770E+05-4.75443E+06 1.97395E+05 1.35447E+05
 -1      1436-7.09407E+05-1.69785E+07-4.02414E+05-1.91996E+06 4.16968E+05 4.38575E+04
 -1      1437 3.83425E+05 1.25646E+07-7.22551E+05-4.69822E+04-6.49576E+05 4.47187E+05
 -1      1438 3.07120E+06 1.24309E+07 9.54099E+04 5.19053E+05-8.44242E+05-1.49897E+05
 -1      1439 5.11488E+06 9.40649E+06 5.67657E+03 8.38537E+05 4.22394E+04 3.46175E+05
 -1      1440 4.13567E+06 5.41988E+06 2.63279E+04 3.19510E+05-1.31627E+05 8.67964E+04
 -1      1441 1.84837E+06 1.51341E+06-6.25913E+04-5.87772E+05-3.17752E+05-3.49952E+05
 -1      1442-2.38091E+06-2.40980E+06 4.72301E+04-2.28555E+06-2.26206E+05 7.95764E+04
 -1      1443-6.39323E+06-6.48595E+06 3.65577E+05-4.01520E+06-5.25057E+04-2.17087E+05
 -1      1444-8.80402E+06-1.13518E+07-5.49978E+05-6.11300E+06-4.30826E+04-1.59548E+05
 -1      1445-8.98136E+06-1.65156E+07-8.40974E+05-9.02284E+06 4.17605E+05 1.30862E+05
 -1      1446-3.95358E+06-1.97991E+07 1.13601E+06-7.37375E+06-1.45523E+06-7.13432E+05
 -1      1447 3.00844E+05-1.90492E+07 1.54000E+06-4.20187E+06-1.49330E+06-6.56748E+05
 -1      1448 1.16141E+06 9.76632E+06 3.57986E+05-1.72563E+06 3.01482E+05 6.15498E+05
 -1      1449 4.74915E+06 5.24887E+06-2.68114E+05-1.68680E+06-4.02001E+05-1.86391E+05
 -1      1450-4.64994E+05-1.30728E+05 2.00809E+05-2.33215E+06 1.74694E+05-1.62401E+05
 -1      1451-1.01550E+07-8.07598E+06-5.88076E+05-6.47621E+06-2.39226E+05-9.69278E+04
 -1      1452-1.24026E+07-1.68484E+07 1.20526E+06-1.42723E+07 3.32196E+05 5.91056E+05
 -1      1453-2.00824E+05-2.49928E+07-5.49913E+05-7.06275E+06 3.96268E+06 2.13621E+06
 -1      1454-2.10690E+06-1.52108E+06-2.55753E+06-2.61997E+06-2.21709E+06 2.48939E+06
 -1      1455 2.76841E+06 5.30850E+06 1.85125E+05-3.73580E+06 9.51399E+05 1.68786E+06
 -1      1456 4.85954E+06 2.33811E+06-3.78589E+05-4.37196E+06-1.09150E+06-6.53966E+05
 -1      1457 1.92845E+06 3.64952E+05-2.15500E+05-3.49573E+06-4.76624E+05-3.47592E+05
 -1      1458-2.64856E+06-1.34564E+06 3.40239E+05-3.94092E+06 3.15588E+05 1.84618E+05
 -1      1459-8.19827E+06-4.23058E+06-6.54833E+04-6.53886E+06 8.79711E+04 3.05849E+05
 -1      1460-1.42394E+07-7.76300E+06-9.45980E+05-9.60290E+06-2.72420E+04 4.86111E+05
 -1      1461-1.65329E+07-1.13429E+07 1.21208E+06-1.44269E+07 7.79116E+05 7.28866E+04
 -1      1462-1.75870E+07-1.66777E+07 1.87913E+06-2.31565E+07 1.30389E+06 8.29758E+05
 -1      1463-1.26771E+07-3.31130E+07-2.62675E+06-2.26906E+07-7.62603E+05 2.84836E+06
 -1      1464-5.00486E+06-4.32284E+07 6.90786E+04-1.75794E+07 3.51608E+06 6.59032E+06
 -1      1465 2.94547E+06-1.31488E+07 2.75504E+06-4.72691E+06-1.40467E+06-1.94075E+06
 -1      1466 8.57997E+06 2.42827E+06 9.12224E+05-5.03551E+06 7.14342E+05 7.87616E+05
 -1      1467-4.43608E+06-1.49136E+06-5.79010E+05-3.04289E+06 1.26502E+05-1.49587E+06
 -1      1468-1.67495E+07-3.02209E+06 1.34000E+06-7.72305E+06-6.96312E+05-1.99700E+06
 -1      1469-3.45231E+07-1.25543E+07-2.83735E+06-2.30182E+07 2.13320E+06-2.09134E+05
 -1      1470-1.30616E+07-3.32783E+07-1.39784E+05-2.84476E+07 6.14084E+06-3.60450E+06
 -1      1471 2.56301E+07-1.50336E+07 3.12159E+06-6.06701E+06 4.89063E+06 1.21601E+07
 -1      1472 2.90858E+07 2.24721E+06-3.04302E+06-6.63111E+06-6.80548E+05 9.81913E+05
 -1      1473 2.05183E+07 4.48421E+06 2.82738E+06-4.31552E+06 8.90464E+03-1.01940E+06
 -1      1474 4.58703E+05-1.21555E+06-1.62318E+05-7.77728E+05-2.49961E+05 1.94141E+06
 -1      1475-4.84200E+06-5.04391E+05 2.35100E+05-1.32837E+06 7.33131E+05-1.43938E+06
 -1      1476-1.14278E+07-5.01444E+05-3.14540E+05-2.50224E+06 2.92261E+04 5.20717E+05
 -1      1477-1.59239E+07 5.23600E+05 1.36488E+06-4.16841E+06-8.99909E+05-2.11456E+06
 -1      1478-2.35400E+07 4.16166E+05-4.07519E+05-6.59692E+06 2.07620E+06 4.50027E+06
 -1      1479-5.02191E+07-6.97921E+06-1.47058E+06-1.80283E+07 5.84301E+06 2.66277E+06
 -1      1480-4.58958E+07-1.28937E+07 1.54854E+06-2.89965E+07-2.86064E+06 6.00349E+06
 -1      1481-3.25400E+07-2.06611E+07-1.56503E+07-3.04848E+07 1.57044E+07 2.07175E+07
 -3
    1PSTEP                        11           1           1          
    1PGM                1.000000E+00                                  
    1PGK                9.703723E+10                                  
    1PHID                         -1                                  
    1PSUBC                         0                                  
    1PMODE                         3                                  
  100CL  103 49578.03666        1481                     2    3MODAL      1
 -4  TOSTRAIN    6    1
 -5  EXX         1    4    1    1
 -5  EYY         1    4    2    2
 -5  EZZ         1    4    3    3
 -5  EXY         1    4    1    2
 -5  EYZ         1    4    2    3
 -5  EZX         1    4    3    1
 -1         1-1.44879E+02-3.39221E+01-4.56279E+00-2.36312E+02 1.17132E+02 1.64095E+02
 -1         2-2.67480E+02-5.64556E-01 1.12391E+02-2.25560E+02-2.15735E+01 4.66192E+01
 -1         3-2.95281E+02 4.63635E+01 8.91080E+01-1.40921E+02 4.45318E+01 2.06377E+01
 -1         4-1.46482E+02 4.45213E+01 3.78528E+01-5.14265E+01 1.61020E+01 3.49430E+01
 -1         5-1.04734E+02 2.93052E+01 3.60843E+01-3.26025E+01-6.92971E+00-1.62435E+01
 -1         6-7.43419E+01 1.86548E+01 1.97264E+01-1.97699E+01 2.41292E-01 4.17304E+00
 -1         7-3.60421E+01 6.92562E+00 1.28343E+01-1.07111E+01 5.43805E+00-1.00057E+01
 -1         8-2.80721E+00-4.96359E+00 2.37633E+00-6.13896E+00-1.53828E+00 1.39587E+01
 -1         9 9.44072E+01-9.85967E+00-2.11114E+01-2.95275E+01-2.67578E-01-7.55077E+00
 -1        10 1.53494E+02-2.62181E+01-6.20789E+01-4.53055E+01-4.43025E+00 6.79758E+00
 -1        11 1.52983E+02-1.21446E+02 8.27237E-01-4.15618E+01 3.21724E+01 8.26122E+01
 -1        12-2.42996E+01-1.70318E+02 7.42707E+01-2.20253E+02 4.78868E+01-2.83584E+01
 -1        13-1.85716E+02-1.16004E+01 6.32203E+01-1.79657E+02 1.59262E+01-1.05864E+00
 -1        14-1.03751E+02 9.14938E+00 4.32383E+01-6.04297E+01-5.37727E+00-1.55139E+01
 -1        15-3.07385E+01 1.15626E+00 9.12150E+00-2.37757E+01 9.08186E-01-1.09134E+01
 -1        16 3.72859E+01-2.04409E-01-1.05857E+01-3.50849E+01 4.65164E+00 4.97590E+00
 -1        17 3.09245E+01-7.65439E+01 2.91556E+01-3.26178E+01-9.60396E+00-1.35241E+01
 -1        18 4.26924E+01-2.48628E+02 8.10944E+01-1.36451E+02 2.79501E+01 5.16631E+01
 -1        19-1.73106E+01-1.72868E+02 6.15856E+01-1.76499E+02-6.51530E+00 2.25966E+01
 -1        20-8.41640E+01-7.30088E+01 7.00620E+01-1.80673E+02 1.05533E+01 6.42000E+00
 -1        21-8.70241E+01-4.13836E+01 5.56942E+01-1.12765E+02 6.25848E+00 3.24918E-01
 -1        22-7.64475E+01-2.01564E+01 3.30183E+01-7.52251E+01-2.06681E-01 4.09659E+00
 -1        23-4.82050E+01-1.06149E+01 2.25979E+01-5.12057E+01 6.21232E-01 2.34509E+00
 -1        24-2.09612E+01-3.43838E+00 1.08676E+01-3.07129E+01 2.34602E+00 1.06633E+00
 -1        25 4.44669E+00 6.04683E-02-2.60387E+00-2.61608E+01-3.17306E+00-2.10829E+00
 -1        26 2.01036E+01 6.67172E+00-1.19771E+01-3.09631E+01-7.44972E+00-4.79178E+00
 -1        27 5.39469E+00 2.50212E+01-1.10553E+01-2.62106E+01 6.27637E+00 1.15136E+01
 -1        28-5.12598E+00 6.49886E-01-8.87124E+00-1.81969E+01-1.53451E+01 1.68915E+01
 -1        29 4.19159E+01-1.49799E+02 3.93378E+01-5.57227E+01 3.03967E+01 1.66585E+01
 -1        30-5.10388E+01-8.21908E+01 5.74880E+01-1.11748E+02 2.84473E+00 4.63275E+00
 -1        31-5.17714E+01-3.00757E+01 2.90346E+01-5.10656E+01-1.88709E+00-5.09989E-01
 -1        32-9.20395E+00-4.08356E-01 4.58994E+00-1.87013E+01 1.22134E+00-1.43248E+00
 -1        33 1.56935E+01 2.27817E+01-1.61277E+01-1.20076E+01-2.67352E+00-1.47808E+00
 -1        34-9.28481E+00 5.20433E+01-1.51006E+01-1.18493E+01 2.12281E+00 4.19955E+00
 -1        35 3.16096E+01-1.19079E+02 4.10623E+01-3.31945E+01-1.08946E+01-4.85705E+00
 -1        36 6.83933E+00-1.15408E+02 4.74451E+01-5.79778E+01-1.09535E+01-5.58016E+00
 -1        37-2.70895E+01-8.33330E+01 3.90691E+01-7.09266E+01 3.14684E+00 1.25669E+00
 -1        38-3.68206E+01-5.27378E+01 3.22523E+01-4.83330E+01-3.50620E-01-1.29859E+00
 -1        39-3.34540E+01-2.89629E+01 2.59669E+01-3.21824E+01-3.47993E-01-1.58467E+00
 -1        40-1.61396E+01-1.08371E+01 1.06954E+01-1.88552E+01-1.59500E+00 5.93887E-01
 -1        41 2.46863E+00 5.39649E+00-3.35508E+00-5.76679E+00-2.27552E+00-2.68153E+00
 -1        42 1.06734E+01 2.38854E+01-1.33398E+01 1.52152E+00-1.04350E+00 6.82148E-01
 -1        43 1.16445E+01 4.48620E+01-2.18806E+01 5.97878E+00 1.48563E-01 2.25724E+00
 -1        44-3.40534E+00 6.48983E+01-2.35928E+01 3.88978E+00-5.97992E+00-9.67737E-01
 -1        45-1.64480E+01 7.10603E+01-2.45986E+01-1.36063E-01-4.51306E+00 3.13876E+00
 -1        46 2.54998E+01-1.01672E+02 2.80290E+01-1.51031E+01 3.30463E+00 4.87326E-01
 -1        47-1.89073E+01-6.44740E+01 3.19068E+01-3.74368E+01 1.55877E+00 1.32964E+00
 -1        48-1.95265E+01-1.85483E+01 1.51706E+01-1.37967E+01 3.83352E-01-2.59079E+00
 -1        49 1.37442E+01 1.78170E+01-1.26080E+01 1.21707E+01 3.92136E-01-2.62461E+00
 -1        50 1.61806E+01 6.22269E+01-3.00051E+01 3.57981E+01 1.48627E+00 1.01984E+00
 -1        51-2.44545E+01 9.80426E+01-2.67660E+01 1.44562E+01 3.13952E+00 3.30221E-01
 -1        52 1.72491E+01-7.44679E+01 2.55764E+01 3.53748E-01-4.89093E+00 3.36705E+00
 -1        53 2.56569E+00-6.79074E+01 2.49717E+01-3.90816E+00-6.35665E+00-1.12864E+00
 -1        54-1.45852E+01-4.68984E+01 2.38842E+01-6.31369E+00 3.18038E-01 2.60649E+00
 -1        55-1.53573E+01-2.50266E+01 1.55837E+01-2.40572E+00-9.91073E-01 6.53526E-01
 -1        56-8.48316E+00-5.96115E+00 5.90523E+00 4.42557E+00-2.39248E+00-2.63494E+00
 -1        57 1.01141E+01 1.03316E+01-8.16841E+00 1.72088E+01-1.70320E+00 5.99164E-01
 -1        58 2.75266E+01 2.82247E+01-2.33632E+01 3.02321E+01-3.95337E-01-1.63454E+00
 -1        59 3.21854E+01 5.13690E+01-2.99627E+01 4.60273E+01-3.24387E-01-1.20130E+00
 -1        60 2.42442E+01 8.09727E+01-3.70481E+01 6.79366E+01 3.14432E+00 9.85314E-01
 -1        61-7.48290E+00 1.11825E+02-4.58045E+01 5.55200E+01-1.09570E+01-5.37172E+00
 -1        62-3.06083E+01 1.15086E+02-3.99384E+01 3.16376E+01-1.12437E+01-4.94493E+00
 -1        63 9.84351E+00-5.49464E+01 1.58928E+01 1.29930E+01 2.26999E+00 4.63434E+00
 -1        64-1.97326E+01-2.34952E+01 1.80445E+01 1.27006E+01-3.02683E+00-1.40341E+00
 -1        65 2.85069E+00 3.33858E-01-2.16242E+00 1.75597E+01 1.31534E+00-1.22279E+00
 -1        66 4.54649E+01 2.98113E+01-2.65682E+01 4.87621E+01-1.80123E+00-7.29810E-01
 -1        67 4.71915E+01 8.06654E+01-5.52679E+01 1.07462E+02 2.50124E+00 4.45031E+00
 -1        68-4.08890E+01 1.45780E+02-3.82606E+01 5.31783E+01 2.98367E+01 1.60844E+01
 -1        69 5.67583E+00 1.26495E+00 9.06877E+00 1.97268E+01-1.66934E+01 1.87437E+01
 -1        70-7.23646E+00-2.63618E+01 1.22142E+01 2.81284E+01 7.16347E+00 1.27086E+01
 -1        71-2.53581E+01-6.37323E+00 1.40820E+01 3.29183E+01-8.21832E+00-4.92398E+00
 -1        72-1.10977E+01 6.74554E-01 5.04501E+00 2.63208E+01-3.58870E+00-2.61716E+00
 -1        73 1.39238E+01 4.11362E+00-8.58009E+00 2.96728E+01 2.37619E+00 1.39006E+00
 -1        74 4.11493E+01 1.12749E+01-2.00858E+01 4.92338E+01 6.62371E-01 2.30286E+00
 -1        75 6.94171E+01 2.06535E+01-3.06747E+01 7.23042E+01-2.05116E-01 3.66013E+00
 -1        76 8.05662E+01 4.14888E+01-5.30430E+01 1.08626E+02 5.86628E+00 5.48793E-01
 -1        77 7.90788E+01 7.22324E+01-6.74897E+01 1.74355E+02 9.81755E+00 6.24759E+00
 -1        78 1.57058E+01 1.69576E+02-5.99675E+01 1.70847E+02-5.74195E+00 2.14465E+01
 -1        79-4.16456E+01 2.46155E+02-7.98493E+01 1.32363E+02 2.64740E+01 4.96213E+01
 -1        80-3.44455E+01 8.67351E+01-3.30117E+01 3.55908E+01-1.05764E+01-1.46127E+01
 -1        81-4.49684E+01 1.35024E+00 1.27652E+01 3.79144E+01 5.37857E+00 5.93029E+00
 -1        82 2.26846E+01 5.12579E-01-6.35692E+00 2.29111E+01 9.52487E-01-1.12631E+01
 -1        83 9.57560E+01-7.60333E+00-4.04474E+01 5.81500E+01-5.24282E+00-1.50362E+01
 -1        84 1.77726E+02 1.23139E+01-6.08490E+01 1.73314E+02 1.60618E+01-1.57466E+00
 -1        85 2.17911E+01 1.74011E+02-7.55022E+01 2.14194E+02 4.62369E+01-2.71397E+01
 -1        86-1.70385E+02 1.35789E+02-9.09136E-01 4.56810E+01 3.68235E+01 9.15585E+01
 -1        87-1.72404E+02 2.96752E+01 6.95075E+01 4.99284E+01-5.12413E+00 7.39323E+00
 -1        88-1.08653E+02 1.20741E+01 2.45490E+01 3.24933E+01 6.70467E-02-7.67549E+00
 -1        89-4.96769E+00 7.63848E+00-2.91767E-01 5.85583E+00-1.88206E+00 1.46177E+01
 -1        90 2.80388E+01-4.62082E+00-1.01888E+01 1.00018E+01 5.52005E+00-1.08377E+01
 -1        91 6.58783E+01-1.63906E+01-1.77979E+01 1.88404E+01 2.20055E-01 3.92069E+00
 -1        92 9.67806E+01-2.70596E+01-3.33940E+01 3.13856E+01-6.77579E+00-1.59214E+01
 -1        93 1.38485E+02-4.18911E+01-3.56892E+01 4.96709E+01 1.56326E+01 3.38844E+01
 -1        94 2.81489E+02-4.40817E+01-8.55585E+01 1.35742E+02 4.39945E+01 2.00491E+01
 -1        95 2.51289E+02 2.80265E+00-1.05939E+02 2.18326E+02-2.15390E+01 4.52028E+01
 -1        96 1.31605E+02 4.21634E+01 4.43545E+00 2.29533E+02 1.18245E+02 1.55991E+02
 -1        97-1.79567E+02-5.03049E+01-1.84499E+01-2.51403E+02 2.60926E+02 3.31128E+02
 -1        98-2.29530E+02 4.39991E+01 7.61026E+01-9.03483E+01 1.73094E+01 1.40588E+01
 -1        99-8.69273E+01 2.31782E+01 2.81768E+01-1.95140E+01 2.03415E+00-4.36172E+00
 -1       100-2.63588E+01 6.57189E+00 9.46983E+00-8.07974E+00 4.29999E+00-8.97120E+00
 -1       101 7.55721E+01-7.56319E+00-1.90086E+01-2.26272E+01 1.63156E+00-2.81093E+01
 -1       102 1.80407E+02-1.38936E+02 2.95793E+00-4.50675E+01 3.26513E+01 1.38232E+02
 -1       103 4.24077E+01-1.90949E+02 6.85694E+01-8.39337E+01 3.70511E+01 2.16292E+01
 -1       104-7.42864E+01-6.34373E+01 5.50060E+01-1.47390E+02 3.18111E+00 2.04794E+00
 -1       105-5.95348E+01-1.47886E+01 2.58074E+01-6.09884E+01 5.45928E-01-4.77685E+00
 -1       106-1.79620E+01-2.18977E+00 8.84256E+00-2.39558E+01-1.04010E+00-6.36301E+00
 -1       107 1.93075E+01 4.28545E+00-9.39034E+00-2.52962E+01-4.11786E+00-3.75867E+00
 -1       108-7.21146E+00-2.18969E+00-6.35923E+00-7.00658E+00-3.57164E+01 8.64447E+00
 -1       109 2.52349E+01-9.69926E+01 3.15304E+01-1.94915E+01 6.55346E-01 4.99277E+00
 -1       110-1.98355E+01-6.57719E+01 3.08693E+01-5.79003E+01-2.85301E+00 6.14893E-01
 -1       111-2.70809E+01-2.34883E+01 2.04315E+01-2.58917E+01-4.62337E+00-7.26285E+00
 -1       112 1.81578E+00 4.55976E+00-2.61352E+00-4.65218E+00-5.55151E+00-7.95040E+00
 -1       113 8.20754E+00 3.66091E+01-1.74408E+01 3.84444E+00-4.60600E+00-1.12319E+00
 -1       114-1.40700E+01 5.51221E+01-1.84990E+01 1.67508E+00-6.81845E+00 5.24028E+00
 -1       115 1.47099E+01-5.76499E+01 1.91919E+01-1.58582E+00-6.98807E+00 5.80031E+00
 -1       116-1.05049E+01-3.83238E+01 1.90909E+01-4.08230E+00-4.61431E+00-6.50347E-01
 -1       117-6.67116E+00-5.01162E+00 4.65677E+00 3.56608E+00-5.62265E+00-7.81972E+00
 -1       118 2.23074E+01 2.28905E+01-1.83499E+01 2.43226E+01-4.64801E+00-7.39796E+00
 -1       119 1.75986E+01 6.38238E+01-2.92194E+01 5.54659E+01-2.87471E+00 1.58721E-01
 -1       120-2.44381E+01 9.40103E+01-3.07377E+01 1.84828E+01 1.53158E-02 4.54413E+00
 -1       121 7.94468E+00 4.11707E+00 6.44705E+00 7.50075E+00-3.93283E+01 9.66407E+00
 -1       122-2.38988E+01-3.83499E+00 1.10791E+01 2.68833E+01-4.34492E+00-3.21635E+00
 -1       123 1.24377E+01 2.70024E+00-7.07156E+00 2.31297E+01-1.10979E+00-6.17374E+00
 -1       124 5.39734E+01 1.51870E+01-2.39625E+01 5.86185E+01 4.52925E-01-4.99655E+00
 -1       125 6.98992E+01 6.28985E+01-5.29576E+01 1.42245E+02 2.93749E+00 1.51232E+00
 -1       126-4.12977E+01 1.89166E+02-6.74683E+01 8.15738E+01 3.36414E+01 2.05872E+01
 -1       127-2.00470E+02 1.55903E+02-3.54554E+00 4.87641E+01 3.81497E+01 1.53139E+02
 -1       128-8.70071E+01 9.24328E+00 2.20125E+01 2.51214E+01 1.95535E+00-3.01483E+01
 -1       129 1.97462E+01-4.65214E+00-7.29432E+00 7.49872E+00 4.41768E+00-9.43458E+00
 -1       130 8.04186E+01-2.13359E+01-2.60148E+01 1.87806E+01 2.04893E+00-4.95943E+00
 -1       131 2.18366E+02-4.21715E+01-7.29273E+01 8.65365E+01 1.72183E+01 1.43307E+01
 -1       132 1.64377E+02 6.02176E+01 1.75121E+01 2.44995E+02 2.60243E+02 3.16595E+02
 -1       133-2.38133E+02-8.58226E+01-2.19944E+02-2.93002E+02 7.95276E+02 9.76302E+02
 -1       134-2.69544E+02-5.63935E+00 1.16680E+02-1.81629E+02 5.69382E+01 1.69849E+02
 -1       135-1.74790E+02 4.41392E+01 3.89987E+01-4.51214E+01 4.31134E+01 8.10142E+01
 -1       136-6.65939E+01 3.72487E+01 5.07898E+01-1.31663E+01-7.73269E+00 3.52013E+01
 -1       137-6.90155E+01 1.60992E+01-1.88995E+01-7.01881E+00 1.97272E+01 2.98363E+01
 -1       138-3.86801E+01 1.06628E+01 4.69791E+00-1.02378E+01 8.75588E+00 1.91130E+01
 -1       139-1.88289E+01 5.78975E+00 2.64144E+01-6.32006E+00 1.12531E+01 6.69512E-01
 -1       140-9.40556E+00-2.19174E+00-8.25937E+00 2.95209E+00-8.64325E+00-9.14378E+00
 -1       141 6.02959E+01-4.77370E+00 5.93282E-01-1.45298E+01-2.44447E-01-2.26591E+01
 -1       142 1.71609E+02-2.90283E+01-8.65509E+01-3.99675E+01 7.35509E+00 1.75344E+01
 -1       143 2.17611E+02-1.58477E+02 3.84403E+01-5.32761E+01 6.08958E+01 3.79959E+02
 -1       144-3.25677E+01-1.58766E+02 5.86272E+01-1.74865E+02 1.79238E+02 7.26389E+01
 -1       145-9.73549E+01-2.53737E+00-9.65489E+00-9.28071E+01 4.64486E+01 5.93055E+01
 -1       146-7.01095E+01 4.16648E+00 3.06163E+01-3.15085E+01-5.64677E+00-2.18451E+01
 -1       147-1.59023E+01 2.74631E+00 1.45683E+00-1.25022E+01 1.60099E+00-1.73380E+01
 -1       148 1.02916E+01-2.24343E+00 1.16422E+01-2.45584E+01 1.38221E+01 1.69255E+01
 -1       149 3.63109E+01-9.49544E+01 5.48548E+01-2.38123E+01-4.28864E+01 2.99456E+01
 -1       150 4.56558E+01-1.42939E+02 4.51788E+01-3.86451E+01 1.08520E+02 5.01443E+01
 -1       151-7.35117E+00-9.77703E+01-2.76192E+00-8.54063E+01 4.96492E+01 6.73950E+01
 -1       152-6.28456E+01-5.23766E+01 9.31365E+01-1.14516E+02-5.06712E+01-6.13592E+01
 -1       153-5.14164E+01-2.71691E+01 3.71438E+01-7.47962E+01-7.64227E+00-2.45915E+01
 -1       154-4.27322E+01-1.03197E+01 1.32977E+01-4.72165E+01 7.54327E+00-5.62407E+00
 -1       155-2.91727E+01-5.20026E+00 1.02771E+01-3.05707E+01 2.48218E+00-4.55698E+00
 -1       156-1.42672E+01-1.09879E+00 1.05046E+01-1.73330E+01-6.62476E+00-1.45267E+01
 -1       157-9.97440E-02-8.31496E-01 1.30521E+00-1.91386E+01-5.93281E+00-1.49324E+01
 -1       158 1.83493E+01 1.52126E+00-1.64525E+01-1.96776E+01-5.77783E+00-2.70068E+01
 -1       159 3.94787E+00 2.33641E+01-8.84103E+00-5.80060E+00-2.27768E+00 3.45589E+01
 -1       160-1.08284E+01-4.85090E+00-1.54566E+01 7.82341E-01-5.46790E+01 1.70105E+01
 -1       161 3.75988E+01-7.21082E+01 4.66819E+01-1.84861E+01 4.79303E+01-1.70084E+01
 -1       162-3.43619E+01-5.01381E+01 4.09716E+01-7.23009E+01-1.87426E+01-1.09433E+01
 -1       163-3.02501E+01-1.63830E+01 1.83280E+01-3.14315E+01-5.95688E+00-1.46086E+01
 -1       164-6.28112E+00-3.75423E-01 2.70971E+00-1.22254E+01-5.37928E+00-1.46296E+01
 -1       165 1.14315E+01 1.63664E+01-1.43043E+01-6.00001E+00-6.75821E+00-9.92485E+00
 -1       166-1.04809E+01 3.19224E+01-8.33321E+00-8.05528E+00-2.22199E+01-1.36415E+01
 -1       167 1.75217E+01-7.60316E+01-7.93240E+00-5.88976E+00 3.01678E+01 3.09393E+01
 -1       168 3.44776E+00-7.55680E+01 3.23083E+01-3.05529E+01-1.45092E+01-5.15425E+00
 -1       169-1.36496E+01-4.79208E+01 1.76913E+01-4.53809E+01-1.16441E+00 6.61978E+00
 -1       170-2.03891E+01-3.12962E+01 2.03790E+01-2.92298E+01-1.01509E+01-8.20353E+00
 -1       171-2.10674E+01-1.83444E+01 1.32337E+01-1.93786E+01-8.64266E+00-1.26693E+01
 -1       172-1.00553E+01-6.66009E+00 6.23017E+00-1.14864E+01-9.30315E+00-1.07466E+01
 -1       173 1.30929E+00 3.69326E+00-1.59607E+00-3.49694E+00-8.48640E+00-1.27196E+01
 -1       174 5.88683E+00 1.48451E+01-8.20949E+00 1.72564E+00-9.58596E+00-8.13385E+00
 -1       175 5.28292E+00 2.76632E+01-1.46554E+01 1.68525E+00-1.24211E+01-4.58129E+00
 -1       176-3.69733E+00 3.88571E+01-1.20151E+01 2.10597E+00-1.01692E+01-2.21826E-01
 -1       177-1.08814E+01 4.14073E+01-1.97720E+01 4.31605E+00-7.57583E+00 1.96524E+01
 -1       178 1.43278E+01-5.22753E+01 6.97224E+00-7.45728E+00 1.42767E+01 1.45073E+01
 -1       179-9.39607E+00-3.88127E+01 1.43208E+01-2.24462E+01-3.26698E+00 4.67203E+00
 -1       180-1.20575E+01-1.17287E+01 8.83003E+00-8.37429E+00-7.38716E+00-1.37537E+01
 -1       181 8.49818E+00 1.12816E+01-7.31133E+00 7.38183E+00-7.37994E+00-1.39207E+01
 -1       182 7.83954E+00 3.75155E+01-1.33140E+01 2.14421E+01-3.31071E+00 3.66264E+00
 -1       183-1.37197E+01 5.04522E+01-6.39700E+00 7.13468E+00 1.34982E+01 1.34355E+01
 -1       184 1.13253E+01-4.32267E+01 2.08752E+01-4.43451E+00-7.05815E+00 2.16900E+01
 -1       185 3.15776E+00-4.05118E+01 1.29516E+01-2.08867E+00-1.06431E+01-6.52858E-03
 -1       186-6.95505E+00-2.90152E+01 1.57788E+01-1.81502E+00-1.24433E+01-3.73696E+00
 -1       187-8.68960E+00-1.55984E+01 9.59385E+00-2.32718E+00-9.62795E+00-7.99138E+00
 -1       188-5.01786E+00-4.03997E+00 3.11682E+00 2.66576E+00-8.56763E+00-1.24947E+01
 -1       189 6.45149E+00 6.35107E+00-4.71774E+00 1.04866E+01-9.36751E+00-1.07363E+01
 -1       190 1.74297E+01 1.78817E+01-1.16964E+01 1.81990E+01-8.68200E+00-1.28988E+01
 -1       191 1.76249E+01 3.04170E+01-1.89735E+01 2.78610E+01-1.00939E+01-8.30225E+00
 -1       192 1.20029E+01 4.64114E+01-1.66365E+01 4.34821E+01-1.17587E+00 5.77074E+00
 -1       193-3.89730E+00 7.34947E+01-3.11337E+01 2.91830E+01-1.48043E+01-5.34718E+00
 -1       194-1.69530E+01 7.39393E+01 8.35812E+00 5.46185E+00 2.91772E+01 2.92858E+01
 -1       195 1.12555E+01-3.38088E+01 8.34782E+00 8.95196E+00-2.43402E+01-1.49083E+01
 -1       196-1.41419E+01-1.69637E+01 1.59301E+01 6.21715E+00-7.06499E+00-9.57514E+00
 -1       197 2.50974E+00 3.54416E-01-1.24020E+00 1.15839E+01-5.33769E+00-1.43606E+01
 -1       198 2.64803E+01 1.62444E+01-1.67998E+01 2.99910E+01-5.93070E+00-1.48221E+01
 -1       199 3.18304E+01 4.91256E+01-3.92408E+01 6.97579E+01-1.87318E+01-1.12263E+01
 -1       200-3.65535E+01 6.97894E+01-4.59787E+01 1.72389E+01 4.50655E+01-1.60463E+01
 -1       201 1.19844E+01 6.79278E+00 1.71871E+01-9.49934E-01-5.98593E+01 1.87571E+01
 -1       202-5.26474E+00-2.51803E+01 9.99431E+00 5.93017E+00-1.36739E+00 3.84779E+01
 -1       203-2.22164E+01-9.17283E-01 1.84051E+01 2.09068E+01-6.76139E+00-2.82571E+01
 -1       204-3.76416E+00 1.45843E+00-7.18165E-02 1.95767E+01-6.26406E+00-1.54838E+01
 -1       205 1.02249E+01 1.44573E+00-9.02788E+00 1.67061E+01-6.63993E+00-1.39484E+01
 -1       206 2.48544E+01 5.54245E+00-8.89681E+00 2.93454E+01 2.36581E+00-4.54544E+00
 -1       207 3.86272E+01 1.06088E+01-1.18814E+01 4.53899E+01 7.33552E+00-6.21053E+00
 -1       208 4.76213E+01 2.73444E+01-3.56177E+01 7.19784E+01-7.81837E+00-2.40676E+01
 -1       209 5.92190E+01 5.21010E+01-9.03990E+01 1.10506E+02-5.06878E+01-5.99696E+01
 -1       210 6.26997E+00 9.51091E+01 3.46093E+00 8.29229E+01 4.94678E+01 6.39932E+01
 -1       211-4.42772E+01 1.41710E+02-4.32248E+01 3.76304E+01 1.02821E+02 4.80246E+01
 -1       212-4.02871E+01 1.07826E+02-6.20140E+01 2.53311E+01-4.72224E+01 3.38136E+01
 -1       213-1.36379E+01 3.18344E+00-1.20327E+01 2.68209E+01 1.62767E+01 1.99404E+01
 -1       214 1.06261E+01-1.73306E+00 5.89257E-02 1.19061E+01 1.62720E+00-1.78603E+01
 -1       215 6.49513E+01-3.24390E+00-2.90246E+01 3.03395E+01-5.52558E+00-2.15436E+01
 -1       216 9.34052E+01 3.15856E+00 9.37289E+00 8.88356E+01 4.73754E+01 5.63099E+01
 -1       217 2.98352E+01 1.64462E+02-6.23288E+01 1.70930E+02 1.72513E+02 6.93393E+01
 -1       218-2.41332E+02 1.78407E+02-4.26160E+01 5.69743E+01 7.46125E+01 4.18826E+02
 -1       219-1.91376E+02 3.28961E+01 9.62761E+01 4.35170E+01 8.21597E+00 1.95360E+01
 -1       220-6.92756E+01 5.80844E+00-4.95193E-01 1.63833E+01 2.44085E-01-2.41025E+01
 -1       221 5.59219E+00 3.76639E+00 1.07412E+01-3.66436E+00-1.00593E+01-1.02525E+01
 -1       222 1.36488E+01-4.22511E+00-2.60837E+01 5.90863E+00 1.20934E+01 1.49981E+00
 -1       223 3.38613E+01-9.24122E+00-4.04263E+00 9.86063E+00 8.85220E+00 1.81740E+01
 -1       224 6.39610E+01-1.46590E+01 1.91988E+01 6.68914E+00 1.99051E+01 2.72223E+01
 -1       225 6.25382E+01-3.55714E+01-4.82094E+01 1.29287E+01-8.62341E+00 3.42248E+01
 -1       226 1.65894E+02-4.27994E+01-3.81605E+01 4.26636E+01 4.26613E+01 7.96561E+01
 -1       227 2.53003E+02 8.23516E+00-1.08905E+02 1.76294E+02 5.68972E+01 1.64620E+02
 -1       228 2.20086E+02 9.73693E+01 2.13184E+02 2.86272E+02 7.92324E+02 9.37649E+02
 -1       229-8.48873E+02-5.66344E+02-1.79596E+02-8.34694E+02 1.43576E+03 1.72942E+03
 -1       230-4.34696E+01 9.62420E+01-5.08092E+01 5.43872E+01 2.27550E+01 7.92037E+01
 -1       231-3.14707E+01-1.52258E+01-4.55862E+01-6.78637E+00 5.72356E+01 6.39916E+01
 -1       232-2.07405E+01 4.59053E+00 3.63739E+01-1.04800E+01 6.33747E+00 4.96424E+00
 -1       233 1.12177E+01 7.82649E+00 3.03440E+01 7.77249E+00 7.21832E+00-2.82781E+01
 -1       234 4.76196E+02-2.17418E+02 2.94646E+01-1.52517E+02 7.07641E+01 6.43256E+02
 -1       235 1.18267E+02-3.61506E+01-3.12526E+01 5.68291E+01 1.11134E+02 3.22331E+01
 -1       236-9.59528E+01-7.58177E+01 1.44062E+02-1.16949E+02-7.36015E+01-9.56950E+01
 -1       237-2.42462E+01-6.64233E-01-2.97161E+00-2.88721E+01 5.91923E+00-6.19758E+00
 -1       238-1.38682E+01-1.48338E+00 1.40391E+01-1.15363E+01-6.46857E+00-1.72276E+01
 -1       239 3.68399E+01-6.25496E+00-2.58922E+01-2.05223E+01-1.51910E+01-4.69731E+01
 -1       240-4.63501E+01 1.64010E+00-1.51981E+01 1.34625E+01-5.98510E+01 1.73953E+01
 -1       241-2.03719E+01-4.07055E+01-2.82931E+01 7.93966E-01 6.29008E+01 7.23447E+01
 -1       242-1.72249E+00-2.96702E+01 1.23936E+00-2.81085E+01-1.86166E+00 5.71174E+00
 -1       243-1.34208E+01-1.14657E+01 7.87681E+00-1.18934E+01-8.84970E+00-1.41753E+01
 -1       244 9.27900E-01 2.11046E+00-9.11737E-01-2.15803E+00-1.15136E+01-1.60465E+01
 -1       245 2.05395E+00 2.13870E+01-1.24381E+01 1.90562E+00-1.43697E+01-5.25375E+00
 -1       246 1.99059E+00 3.10150E+01-2.13338E+01 1.00354E+01-1.46679E+01 2.91231E+01
 -1       247-3.05978E+00-3.27731E+01 2.30476E+01-1.12580E+01-1.39152E+01 3.24305E+01
 -1       248-2.89154E+00-2.24260E+01 1.30105E+01-1.89269E+00-1.41660E+01-4.14695E+00
 -1       249-3.43908E+00-2.33658E+00 1.93986E+00 1.57860E+00-1.16574E+01-1.57592E+01
 -1       250 1.09904E+01 1.11676E+01-6.85151E+00 1.11179E+01-8.93489E+00-1.44686E+01
 -1       251 8.15943E-01 2.86039E+01-8.12029E-01 2.67866E+01-1.72281E+00 4.69044E+00
 -1       252 1.96246E+01 3.93086E+01 2.86329E+01-2.17187E-01 6.14450E+01 6.93434E+01
 -1       253 5.11060E+01-1.49072E+00 1.78855E+01-1.42403E+01-6.58178E+01 1.92833E+01
 -1       254-4.18913E+01 7.99494E+00 2.82353E+01 2.18091E+01-1.75136E+01-4.99879E+01
 -1       255 1.12929E+01 1.52672E+00-1.28864E+01 1.08820E+01-6.33396E+00-1.62223E+01
 -1       256 2.15517E+01 8.62262E-01 3.92467E+00 2.78404E+01 5.74677E+00-7.21289E+00
 -1       257 9.13697E+01 7.60134E+01-1.40486E+02 1.13380E+02-7.41636E+01-9.27691E+01
 -1       258-1.13998E+02 3.48308E+01 3.31649E+01-5.58462E+01 1.04663E+02 3.00146E+01
 -1       259-5.25258E+02 2.49740E+02-3.44476E+01 1.62330E+02 9.20752E+01 7.07368E+02
 -1       260-1.43146E+01-9.28603E+00-3.35817E+01-7.79226E+00 8.13918E+00-3.01795E+01
 -1       261 1.79436E+01-2.68371E+00-3.76858E+01 1.14647E+01 7.56120E+00 6.86033E+00
 -1       262 2.88299E+01 1.62842E+01 4.43096E+01 5.66317E+00 5.71696E+01 5.98098E+01
 -1       263 3.97739E+01-9.60596E+01 4.85821E+01-5.39114E+01 2.26596E+01 7.79267E+01
 -1       264 8.07535E+02 5.80178E+02 1.71239E+02 8.16695E+02 1.42896E+03 1.66461E+03
 -1       265 3.13695E-04 1.79067E+03 1.42360E-03 1.55852E+02-2.61960E+02 1.07427E-03
 -1       266 6.61209E-04 2.01755E+03 1.24222E-03 5.52349E+01 2.22483E+02-8.69859E-04
 -1       267 1.02617E-03 2.11064E+03 9.99349E-04-1.98226E+01 2.21086E+02 1.03128E-03
 -1       268 6.93251E-04 1.95377E+03 1.19888E-03-1.49129E+01 3.38727E+02-6.99337E-04
 -1       269 2.48889E-04 1.65341E+03 1.15172E-03-3.57721E+01 1.07402E+02-6.80377E-04
 -1       270 2.72989E-04 1.21831E+03 9.81655E-04-4.00709E+01 1.09784E+02 1.90605E-03
 -1       271-1.76783E-04 7.58000E+02 4.25717E-04-3.56855E+01-5.59850E+01-9.89609E-04
 -1       272-6.36124E-04 3.97135E+02 4.92444E-04-2.59730E+01-8.47601E+01 8.59388E-04
 -1       273-3.63169E-04 1.50202E+02 5.41311E-04-8.27984E+00 1.87885E+02 1.64564E-04
 -1       274-3.31900E-04-1.71389E+01-9.35664E-06-6.44896E+00 2.95493E+01-1.02511E-04
 -1       275-2.60180E-04-1.49836E+02-1.80851E-05-1.44111E+01 1.47906E+01 7.76721E-05
 -1       276-6.27410E-05-2.03145E+02-1.29161E-04-6.15861E+00-3.26672E+01 1.55995E-04
 -1       277-1.19672E-04-2.34409E+02-1.42861E-04 1.54641E+00-2.13615E+01-2.88775E-05
 -1       278-9.57037E-05-2.47409E+02-1.80328E-04 5.86774E+00-2.17491E+01-1.04289E-04
 -1       279-2.22506E-05-2.44527E+02-1.45204E-04 1.55915E+01 3.29438E+01 2.29305E-04
 -1       280-2.27860E+02 1.82165E+03-3.09055E+02 2.59435E+02-3.15502E+01-1.19855E+02
 -1       281-7.52251E+01 1.88104E+03-3.62415E+02-5.66871E+01 2.39949E+00 5.81233E+01
 -1       282-8.56090E+01 1.53615E+03-2.85627E+02-3.48766E+02 6.55228E+00 3.48941E+01
 -1       283 2.69000E+01 8.38024E+02-2.44998E+02-4.44016E+02-5.33425E+00-2.77083E+01
 -1       284 7.07674E+01 3.48068E+01-2.11881E+01-1.89556E+02-2.54251E+01 4.10024E+01
 -1       285 1.27310E+01-1.29419E+02 2.62459E+01-6.75184E+01 8.95909E+00 3.41368E+01
 -1       286 1.13106E+01-2.19221E+02 4.35708E+01-2.59194E+01-4.07660E+00 6.03058E-01
 -1       287 2.90157E+01-2.48630E+02 5.39039E+01 1.12864E+01-1.09186E-04-1.38559E+01
 -1       288-4.57855E+02 1.44049E+03-6.18112E+02 2.42048E+02 3.02394E+02-1.27147E+02
 -1       289-3.55621E+02 1.45468E+03-6.71471E+02 5.86030E+01 1.80503E+02 8.01468E+01
 -1       290-2.11932E+02 1.46764E+03-7.24831E+02-1.31689E+02 1.98586E+02-4.51419E+01
 -1       291-2.73551E+02 1.34822E+03-6.48043E+02-3.93331E+02 1.40869E+02-1.35790E+02
 -1       292-2.57664E+02 1.19054E+03-5.71255E+02-6.25450E+02 2.55822E+02 4.41665E+01
 -1       293-1.03962E+02 1.06781E+03-5.30626E+02-6.89661E+02 1.15849E+02-4.85472E+00
 -1       294 2.93935E+01 9.84051E+02-4.89997E+02-8.12198E+02 5.83775E+01-9.35644E+01
 -1       295 2.58547E+02 3.61764E+02-2.66187E+02-6.97236E+02 1.34080E+02-2.00682E+02
 -1       296 2.04834E+02-1.56297E+02-4.23766E+01-2.95585E+02-1.04639E+01-3.58056E+01
 -1       297 1.22839E+02-1.42313E+02 5.05763E+00-1.62106E+02 3.18939E+01 1.73765E+01
 -1       298 5.95895E+01-1.18347E+02 5.24918E+01-1.18961E+02-3.53321E+01-1.07328E+01
 -1       299 3.33243E+01-1.52641E+02 6.98168E+01-8.97732E+01 7.79179E-01-8.95760E+00
 -1       300 2.71397E+01-1.96767E+02 8.71417E+01-5.20352E+01-3.18620E+01 7.58014E+00
 -1       301 4.47543E+01-2.13888E+02 9.74748E+01-2.86630E+01-1.19978E+01 1.17630E+01
 -1       302 6.63633E+01-2.25273E+02 1.07808E+02-9.41521E+00-1.35927E+01-3.91182E+01
 -1       303-4.41266E+02 5.52558E+02-1.15792E+02 5.29799E+02-3.11065E+02 2.09863E+02
 -1       304-7.47699E+02 1.36383E+03-3.32114E+02-6.24566E+01-6.51688E+01-5.66321E+01
 -1       305-1.95284E+02 7.18261E+02-2.43125E+02-7.73642E+02-1.32181E+02-1.46008E+02
 -1       306-7.63253E+01 8.34319E+02-3.55510E+02-5.13772E+02-1.21999E+02 1.28442E+02
 -1       307 8.03006E+01-2.19453E+02 1.55874E+01-6.74314E+01 1.72926E+01-1.02529E+01
 -1       308 6.39000E+01-1.51940E+02 3.35993E+01-1.19218E+02 5.44643E+00 7.37686E+00
 -1       309 8.15100E+01-1.71612E+02 4.83905E+01-8.85633E+01 1.49684E+01-6.03869E+00
 -1       310 4.26729E+01-1.93572E+02 4.96069E+01-1.09275E+01-1.02260E+00 3.54953E+01
 -1       311-5.89502E+02-3.63548E+02 4.93447E+02 5.10783E+02 4.32594E+02 1.87238E+02
 -1       312-7.82456E+02-4.19049E+02 4.39986E+02 6.79371E+02 1.33565E+02-2.11982E+02
 -1       313-7.47837E+02-2.32844E+02 3.86526E+02 9.00652E+02 5.74691E+01 6.09010E+01
 -1       314-9.89391E+02 4.30868E+02 2.23565E+02 9.18696E+02 3.14990E+02-7.22502E+01
 -1       315-1.42141E+03 1.17054E+03 6.06035E+01 5.45907E+02 3.34747E+02 4.56654E+01
 -1       316-1.00630E+03 9.25608E+02 7.28046E+01-7.85678E+02 1.96019E+02-2.95184E+02
 -1       317-1.16022E+02 4.74342E+02 8.50050E+01-9.64655E+02 1.76571E+02-3.08669E+02
 -1       318 1.49656E+02 4.28897E+02-6.80083E+01-5.89084E+02 3.74585E+02-5.80407E+01
 -1       319 9.35319E+01 5.52582E+02-2.21021E+02-3.04630E+02 2.42066E+01-1.74828E+02
 -1       320 2.81580E+01-1.31193E+02 7.35513E+01-3.28007E+01 1.63584E+00-1.66826E+01
 -1       321 5.60223E+01-1.08496E+02 4.41292E+01-9.88447E+01-7.92284E+01 1.39149E+01
 -1       322 5.54822E+01-1.55789E+02 1.47068E+01-1.02375E+02 1.59152E+01-6.29695E+01
 -1       323 6.26978E+01-1.31828E+02 1.21730E+01-9.91068E+01-1.44696E+01 9.15146E+00
 -1       324 1.35809E+02-1.24680E+02 9.63935E+00-1.04135E+02 4.08522E+01 7.89168E+01
 -1       325 1.23584E+02-1.93134E+02 5.22681E-01-5.49979E+01-5.55476E+01-4.31215E+01
 -1       326 1.42631E+02-1.56033E+02-8.59388E+00 2.44714E+01 7.13816E+01 3.64155E+01
 -1       327 2.56334E+02-6.53738E+01-4.08750E+01 5.98551E+01 3.91984E+01 9.19100E+00
 -1       328 2.04108E+02-4.26836E+01-7.31565E+01 7.68278E+01-9.93884E+01 7.99900E+00
 -1       329-4.32837E+02-7.01572E+02 4.49162E+02 6.75773E+02-3.04992E+02 2.52706E+02
 -1       330-7.44539E+02-3.09940E+02 4.03834E+02 1.14684E+03 1.92589E+02-2.11419E+01
 -1       331-2.69657E+02-1.71902E+02 4.57843E+02 1.36936E+03 4.65480E+02-3.89113E+02
 -1       332 3.87689E+01-7.17639E+01 3.39149E+01-6.98793E+01-2.70672E+01 4.84041E+01
 -1       333 6.75583E+01-7.38829E+01 7.59572E+00-2.09616E+02-6.45962E+01-1.05223E+02
 -1       334 3.41235E+02-1.96049E+02-2.93998E+01 1.27652E+02-5.63012E+01-6.14717E+01
 -1       335 2.04625E+02 6.52140E+00-1.12321E+02 1.75032E+02 8.78909E+01 1.01941E+02
 -1       336 1.79429E+03 3.92836E-04 1.47415E-03 1.53851E+02 1.13770E-03-2.73243E+02
 -1       337 1.81591E+03-1.89501E+02-3.17295E+02 2.96394E+02-1.06507E+02-7.93636E+01
 -1       338 1.40407E+03-3.69504E+02-6.34591E+02 3.64050E+02-5.95373E+01 2.12202E+02
 -1       339 6.00281E+02-4.54211E+02-1.14856E+02 5.32499E+02 8.49973E+01-2.31262E+02
 -1       340-1.08470E+02-7.28147E+02 4.04878E+02 8.27223E+02 9.30257E+01 1.65961E+02
 -1       341-4.22821E+02-7.61079E+02 4.13009E+02 1.14211E+03-2.62594E+01-2.77172E+01
 -1       342-8.91782E+02-7.01581E+02 4.21141E+02 1.36563E+03-3.31865E+02-5.63969E+02
 -1       343-4.11775E+02-9.61005E+02 6.38112E+02 1.10193E+03 7.15857E+02 5.09083E+02
 -1       344 3.92048E+02-2.10852E+03 8.55084E+02 7.62508E+02 1.67091E+02 5.16640E+01
 -1       345-6.12453E+01-2.85378E+01 5.31230E+01-6.52317E+01-3.55892E+01-6.85362E+01
 -1       346-9.57535E+01-5.45738E+01 2.93375E+01-1.37789E+02-2.58305E+01 3.62528E+00
 -1       347 3.97120E+01-1.62387E+02 5.55215E+00-4.51766E+02 1.19792E+02-2.81858E+01
 -1       348 4.58429E+02-3.57358E+02-2.23266E+01-1.34173E+02 6.32238E+01 2.14648E+02
 -1       349 5.79282E+02-3.44558E+02-5.02057E+01 2.16557E+02 3.54389E+01-1.65638E+02
 -1       350 3.20039E+02-1.07974E+02-1.00846E+02 2.75991E+02-4.37079E+01 1.55612E+01
 -1       351 2.39140E+02 1.24750E+02-1.51485E+02 3.40669E+02-1.89990E+01 8.50479E+01
 -1       352-2.76016E+00 1.29945E+02-8.60755E+00 2.38299E+02-3.48247E+01-1.18404E+02
 -1       353-3.20941E+02 1.12689E+02 1.34271E+02 1.26474E+02 4.52428E+00 9.65468E+01
 -1       354-4.52570E+02 5.27715E+01 6.71352E+01 1.01185E+02 1.67640E+01-2.00702E+01
 -1       355-4.38852E+02-1.76540E-04-3.78794E-04 4.24374E+01-3.96847E-04-8.61266E+01
 -1       356 2.06290E+03 5.71583E-04 1.27978E-03 6.32989E+01-1.26634E-03 2.13770E+02
 -1       357 1.46536E+03-3.16918E+02-6.91775E+02 2.12873E+02 4.87174E+01 2.33406E+02
 -1       358 2.67802E+02-6.62723E+02 1.99414E+02 6.50797E+02-4.94179E+01 2.16656E+02
 -1       359-7.95760E+02-9.55680E+02 7.13705E+02 1.35564E+03 1.50877E+02 6.84367E+02
 -1       360-2.09596E+03-3.92041E+03 1.60036E+03-2.51468E+03-1.07474E+02-5.73569E+02
 -1       361 1.39084E+03-7.66992E+02-2.10671E+02-9.81268E+02 2.88637E+02-1.71502E+02
 -1       362 6.89248E+02-3.71094E+02-1.70271E+02 5.33391E+02 1.16843E+02 2.96945E+02
 -1       363 7.43484E+01 2.23203E+02-9.82288E+01 4.42437E+02 3.01607E+00 5.84512E+01
 -1       364-3.52086E+02 1.04496E+02 1.59112E+02 7.04677E+01-1.64960E+01 6.29728E+01
 -1       365-5.34442E+02-2.04389E-04-2.94355E-04 1.88621E+01 4.54450E-04 5.51879E+01
 -1       366 2.24678E+03 6.05413E-04 1.26282E-03-1.41065E+01 1.04077E-03 2.57494E+02
 -1       367 2.03152E+03-1.03204E+02-3.74478E+02 3.38523E+01 1.80905E+01-1.67329E+01
 -1       368 1.50977E+03-2.59152E+02-7.48958E+02 5.28954E+01-7.72144E+01 2.43187E+02
 -1       369 1.03747E+03-4.59057E+02-3.77503E+02 2.30446E+02-5.40898E+00-7.89881E+01
 -1       370 5.92740E+02-7.00437E+02-6.04942E+00 5.23744E+02 7.83831E+01 1.50745E+02
 -1       371 2.11805E+02-9.90286E+02 5.00110E+02 8.55877E+02-8.46811E+01 4.26750E+01
 -1       372-9.44251E+02-1.14552E+03 1.00627E+03 1.21893E+03 1.08717E+02 2.40189E+02
 -1       373-4.59748E+03-1.82685E+03 1.67595E+03-1.88461E+03-6.85451E+02 5.42889E+01
 -1       374-3.04899E+03-2.25446E+03 1.57986E+03-2.87277E+03 8.64869E+02 1.09247E+03
 -1       375-6.58532E+02-2.36174E+02 6.02454E+02-4.49939E+02 2.45628E+01 4.82839E+01
 -1       376 7.28413E+01 1.59917E+02-3.36262E+02 1.53001E+02-3.18977E+01 1.27963E+02
 -1       377 9.87676E+00 9.42138E+01-8.13529E+01 5.46237E+01 2.70818E+01 8.07985E+01
 -1       378 1.07990E+01-5.01356E+01 6.73333E+01-6.63795E+00 1.05066E+01 1.48382E+01
 -1       379-2.11552E+01-1.72779E+01 2.73642E+01-2.69905E+01 5.94741E+00 1.85359E+01
 -1       380-2.59236E+01 4.66675E+00-1.92189E+01-1.51051E+01-6.54976E+00-1.81111E+01
 -1       381-1.72215E+01 1.65306E+01-5.05801E-01 2.96210E+01 2.22867E+00 9.47196E+00
 -1       382-3.37718E+01 1.89898E+01 6.82485E+01 3.16124E+01 1.45935E+00-6.06018E+00
 -1       383 3.33074E+02-5.19239E+01-1.55913E+02-6.91670E+01 2.32344E+01-1.06056E+02
 -1       384 1.55473E+03-5.65703E+02-2.88882E+02-5.70778E+02 4.04529E+01 3.91630E+02
 -1       385 2.35952E+03-7.81644E+02-3.58616E+02-1.23415E+00 6.51256E+01 1.73922E+02
 -1       386 9.65381E+02-3.05786E+02-2.90337E+02 9.09562E+02-8.60275E+01 3.28552E+02
 -1       387 1.91575E+02-1.38638E+01-1.67655E+02 8.01661E+02-8.52327E+01 1.17113E+02
 -1       388-2.53171E+02 3.64227E+02-4.49723E+01 3.91511E+02 6.95294E+01 1.70458E+02
 -1       389-3.54868E+02 2.21339E+02 6.94902E+01 1.32548E+02 8.47548E+00-1.82004E+01
 -1       390-3.92224E+02 9.54502E+01 1.83953E+02 1.14598E+01 1.93118E+01 5.95947E+01
 -1       391-5.25591E+02 3.25303E+01 9.19761E+01 8.15547E+00-1.97186E+01-7.59450E+00
 -1       392-5.96701E+02-3.12921E-04-3.39237E-04-2.66461E+00-2.97808E-04 4.96289E+01
 -1       393 2.17724E+03 5.81904E-04 1.40483E-03-1.56413E+01-1.16089E-04 2.93608E+02
 -1       394 1.57074E+03-2.18253E+02-7.59371E+02-1.53121E+02 1.40849E+01 1.86665E+02
 -1       395 8.93644E+02-7.85207E+02-3.31513E+00 1.66839E+02-3.09398E+01 1.54248E+02
 -1       396 3.07196E+02-1.34501E+03 4.75858E+02 6.13345E+02 2.98273E+02 1.29590E+02
 -1       397-3.19607E+02-4.69609E+02 5.60315E+02-4.61922E+02 1.45522E+02 4.92668E+01
 -1       398 9.92592E+01-2.78974E+01-1.60687E+02 1.11156E+01-5.16872E+01-6.81073E+01
 -1       399-3.52111E+01-1.14595E+01 5.09792E+01-1.44732E+01 8.85965E+00-8.93531E+00
 -1       400 1.36656E+00-4.43709E-01-1.69399E+01-4.55957E+00-4.88272E+00-1.90632E+01
 -1       401-6.02619E+01-6.95667E+00 3.71409E+01-2.35954E+01-1.01879E+01-5.01737E+01
 -1       402 1.53904E+02-1.27363E+02-5.63145E+01-9.73271E+01-1.36418E+02 3.49257E+01
 -1       403-2.86592E+02 3.73140E+02-4.57929E+01-9.54699E+00 1.06628E+01 1.11317E+02
 -1       404-4.52667E+02 1.20413E+02 2.08384E+02-7.86435E+01 2.89165E+01 3.95523E+01
 -1       405-5.47353E+02-3.05851E-04-3.85509E-04-2.72441E+00-3.66619E-05 1.23883E+02
 -1       406 2.00515E+03 7.20378E-04 1.32974E-03-8.24677E+00-4.63809E-04 7.40529E+01
 -1       407 1.88251E+03-5.38302E+01-3.84891E+02-2.03434E+02 2.17647E+01 1.88980E+01
 -1       408 1.55293E+03-2.07180E+02-7.69784E+02-3.82425E+02 6.14296E+00 1.56475E+02
 -1       409 1.33783E+03-4.77956E+02-3.85182E+02-3.65077E+02-1.52929E+01-3.31270E+01
 -1       410 1.21616E+03-8.47282E+02-5.80455E-01-2.39018E+02-8.04196E+01 1.67372E+02
 -1       411 7.39249E+02-7.89402E+02-2.75687E+01 2.14319E+02-3.48775E+02 6.97091E+01
 -1       412 4.89353E+02-7.34329E+02-5.45542E+01 3.55024E+02-4.07786E+02 2.88881E+02
 -1       413 2.03323E+02 5.66703E+01-3.32368E+02 1.49881E+02 1.46652E+02-3.57696E+01
 -1       414-3.93866E+01 6.49386E+01-1.56123E+02 3.38547E+01-4.05435E+01-6.77001E+01
 -1       415-1.24853E+02-9.52543E+01 1.49970E+02-1.15392E+02 5.18449E+01 6.18366E+01
 -1       416 1.72609E+01-2.95532E+01 4.50738E+01-2.92491E+01 5.85378E+00-1.31848E+00
 -1       417-7.30777E+00 7.64076E+00-2.35228E+01-1.18306E+01-7.29123E+00-2.94344E+01
 -1       418-1.33707E+01 5.29288E+00-5.40546E+00-6.86548E+00-5.73045E+00-1.87950E+01
 -1       419-1.24420E+01-1.55347E+00 1.66150E+01-5.65054E+00-1.84960E+00-2.31235E+01
 -1       420-1.47104E+01-5.44241E+00 3.52541E-02-1.63885E+01-1.41471E+00-2.03105E+00
 -1       421 5.44068E+01-1.46167E+01-2.71518E+01-2.06235E+01-4.01437E+00 1.56892E+01
 -1       422 1.92510E+01 2.93675E+01 2.07028E+01 3.26266E+01-2.93575E+01-3.22867E+01
 -1       423-8.48336E+01 9.36711E+00 5.36991E+01 2.40373E+01-5.22277E+01-1.11178E+01
 -1       424-2.23202E+02 2.27887E+02-4.66134E+01-1.21790E+02 6.46941E+01 1.11981E+02
 -1       425-3.87415E+02 1.37546E+02 9.31012E+01-9.65215E+01 9.04928E+01-8.49298E+01
 -1       426-4.86316E+02 2.57139E+01 2.32816E+02-1.84568E+02-4.05356E+01 4.49755E+01
 -1       427-4.50472E+02 1.79069E+00 1.16408E+02-1.08307E+02 5.60720E+01 1.68537E+01
 -1       428-4.47285E+02 3.78351E-04-5.12585E-04-9.23893E+00 5.36325E-04 5.40682E+01
 -1       429 1.68731E+03 6.21944E-04 1.37685E-03-2.84231E+01 1.22658E-03 2.25977E+02
 -1       430 1.53737E+03-2.65801E+02-7.44246E+02-5.66996E+02-7.31518E+01 1.00188E+02
 -1       431 9.35370E+02-4.98051E+02-4.91171E+01-5.89992E+02-1.15615E+02 4.48680E+02
 -1       432 1.20462E+02-5.21561E-01-9.31749E+01 3.90034E+01 8.33478E+01 3.29653E+01
 -1       433-3.93973E+01 9.62091E+00 4.95669E+01-2.03402E+01-4.12735E+00 9.12707E+00
 -1       434-1.11070E+01-6.42968E+00-1.87784E+00-1.36664E+01-9.10277E+00-2.01923E+01
 -1       435-2.56529E+00 1.48276E-01 5.45289E+00-5.13212E+00-8.82206E+00-2.19228E+01
 -1       436 1.80284E+01 9.17099E+00-1.68148E+01 7.73705E+00-7.81421E-01 5.64361E-01
 -1       437-5.59805E+01 1.49370E+01 3.30690E+01-1.19980E+01-1.77959E+01 1.31219E+01
 -1       438-2.91252E+02-2.86804E+02 2.88444E+02-7.27354E+00 9.02665E+01 1.63391E+02
 -1       439-4.40871E+02 7.31797E-04-5.33619E-04-1.14142E+01-6.27715E-04 2.06028E+00
 -1       440 1.26614E+03-3.24139E-04 9.20063E-04-5.70955E+01-8.67361E-04 1.63910E+01
 -1       441 1.30718E+03-5.60930E+00-3.59354E+02-4.60970E+02-4.06860E+01 3.93980E+00
 -1       442 1.48841E+03-9.35847E+01-7.18708E+02-7.95801E+02-3.38729E+01 1.75676E+02
 -1       443 1.24330E+03-2.63390E+02-4.08182E+02-5.52390E+02-5.23781E+01-2.51454E+02
 -1       444 7.17802E+02-2.99378E+02-9.76550E+01-5.81776E+02-2.22925E+02 2.38283E+02
 -1       445-6.16732E+01-1.99917E+00 6.81612E+01 7.71171E+00 3.04504E+01 5.39349E+00
 -1       446-1.53827E+01-3.45340E+01 4.83048E+01-1.35271E+01-2.37376E+00 8.47516E+00
 -1       447 8.86432E+00-1.25514E+01-1.90303E+01-1.23220E+01-2.10764E+01-8.05096E+00
 -1       448-8.17596E+00-1.17104E+01 1.26510E-01-1.23092E+01-1.27007E+01-1.31877E+01
 -1       449-5.59213E+00-4.40234E+00 9.18492E+00-4.01249E+00-1.41038E+01-1.96434E+01
 -1       450-4.41726E+00-2.44853E+00 4.61576E+00-4.49872E+00-1.30115E+01-1.62446E+01
 -1       451 5.41023E-01 4.60304E-01-1.38663E+00-7.49558E-01-1.19080E+01-1.86465E+01
 -1       452 1.93291E+00 5.69050E+00-4.50381E+00 7.51344E-01-1.52773E+01-1.29257E+01
 -1       453-9.88216E-01 1.45982E+01-8.17547E+00 1.54205E+00-1.31928E+01-5.18492E+00
 -1       454 5.47237E+00 1.05351E+01-9.57068E-01-3.94735E-01-1.55403E+01-2.09138E+00
 -1       455 1.48834E+01 2.23274E+01-4.48917E+00 1.62852E+01-2.38697E+01-3.66661E+00
 -1       456-2.36407E+02-3.80128E+02 3.44072E+02 3.45932E+02-6.38992E+01 6.01334E+01
 -1       457-3.89214E+02-1.29712E+02 1.72036E+02 1.71489E+02 2.59481E+01-5.27108E+01
 -1       458-5.42020E+02 5.04236E-04-9.19695E-04 4.28119E+00 8.50231E-06 2.77358E+02
 -1       459 9.10570E+02-9.14806E-04 9.93686E-04-3.13277E+01 8.46676E-04-1.12046E+02
 -1       460 8.07466E+02 3.89386E+02-5.37129E+02-6.09531E+02-2.01515E+02 2.70732E+02
 -1       461-3.00906E+01-2.57402E+01 4.07936E+01-1.82866E+01 1.56147E+01 8.45978E+00
 -1       462 8.81345E+00-1.69443E+01-8.10370E+00-5.74576E+00-1.23806E+01-8.33424E+00
 -1       463-4.54842E+00-5.57257E+00 6.66076E+00-3.19100E+00-1.11745E+01-1.88862E+01
 -1       464 3.27776E+00 5.36832E+00-6.11573E+00 2.83862E+00-1.11668E+01-1.92595E+01
 -1       465-8.65713E+00 1.66777E+01 8.30419E+00 5.46273E+00-1.23167E+01-8.97163E+00
 -1       466 2.83581E+01 2.58112E+01-4.01140E+01 1.79687E+01 1.48232E+01 7.85563E+00
 -1       467-7.03693E+02-3.26384E+02 5.07589E+02 7.59375E+02-2.56204E+02 2.34027E+02
 -1       468-7.95431E+02 7.76583E-04-9.39037E-04 3.95605E+01 1.19947E-03-7.62851E+01
 -1       469 7.35393E+02-3.82504E-04 9.95558E-04 1.20841E+01 4.71636E-04 2.46273E+02
 -1       470 5.91249E+02 9.66012E+01-1.77775E+02-7.57907E+01 4.19732E+01-3.07865E+01
 -1       471 3.93314E+02 2.29959E+02-3.55551E+02-8.36419E+01-2.44538E+01 7.55533E+01
 -1       472 1.97514E+02 1.64399E+01-1.47855E+02 1.36336E+02-9.34298E-01-8.11211E+01
 -1       473 1.09297E+02-6.57428E+01 5.98406E+01 1.92955E+02 6.04211E+01 8.67124E+01
 -1       474-1.74986E+01-2.41290E+01 7.13364E+00-1.86652E+01-2.53671E+01-3.95185E+00
 -1       475-6.40960E+00-1.10552E+01 2.11171E+00 2.89849E-01-1.56479E+01-1.57563E+00
 -1       476 9.73736E-01-1.53005E+01 8.08198E+00-1.35403E+00-1.35345E+01-4.32296E+00
 -1       477-2.98930E+00-5.97805E+00 4.87328E+00-1.04777E+00-1.55386E+01-1.27871E+01
 -1       478-1.85799E+00-5.69733E-01 2.06150E+00 4.13660E-01-1.19475E+01-1.83116E+01
 -1       479 3.13763E+00 2.37596E+00-4.05923E+00 4.15015E+00-1.29972E+01-1.62055E+01
 -1       480 4.36656E+00 4.26998E+00-8.76340E+00 3.65353E+00-1.40946E+01-1.99276E+01
 -1       481 7.15232E+00 1.13574E+01 4.79276E-01 1.18554E+01-1.28024E+01-1.33519E+01
 -1       482-9.05465E+00 1.19294E+01 1.95787E+01 1.15371E+01-2.11158E+01-8.80630E+00
 -1       483 1.45630E+01 3.37730E+01-4.79775E+01 1.31007E+01-2.60786E+00 7.99569E+00
 -1       484 5.95505E+01 1.27194E+00-6.88558E+01-6.09730E+00 2.75936E+01 5.27735E+00
 -1       485-7.38235E+02 2.99360E+02 1.25218E+02 5.74518E+02-2.19134E+02 2.37648E+02
 -1       486-1.27164E+03 2.77454E+02 3.98162E+02 5.57595E+02-5.47329E+01-2.47462E+02
 -1       487-1.49338E+03 1.40516E+02 6.71107E+02 8.60678E+02-3.42720E+01 1.70491E+02
 -1       488-1.27648E+03 2.38659E+01 3.35553E+02 5.03715E+02-3.19518E+01 1.38240E+00
 -1       489-1.21542E+03 2.45710E-04-9.50316E-04 5.59469E+01-9.02855E-04-2.32284E+01
 -1       490 6.76976E+02-2.32680E-04 5.59946E-04 4.07798E+00-6.12697E-04 1.18220E+02
 -1       491 4.33954E+02 7.30151E+01-3.02675E+02 1.28841E+01 5.07196E+01 8.69054E+01
 -1       492 2.26949E+02-9.55195E+01 3.29957E+01 1.22332E+02 7.11329E+01 7.76068E+01
 -1       493 6.10247E+01-1.66013E+01-3.59351E+01 1.35558E+01-1.86806E+01 1.46733E+01
 -1       494-2.03103E+01-1.02682E+01 1.82348E+01-8.81676E+00-1.08939E-02 2.36698E+00
 -1       495 1.23587E+00-4.82124E-02-5.09341E+00 5.05359E+00-8.84606E+00-2.17390E+01
 -1       496 9.73015E+00 6.39330E+00 2.53104E+00 1.29918E+01-9.07464E+00-2.03405E+01
 -1       497 3.73655E+01-1.01560E+01-4.88948E+01 2.02438E+01-3.60656E+00 7.51707E+00
 -1       498-1.15778E+02-6.92843E-01 9.35628E+01-3.95383E+01 7.98943E+01 3.15004E+01
 -1       499-9.37480E+02 5.01339E+02 6.00768E+01 5.93714E+02-1.08041E+02 4.55839E+02
 -1       500-1.53974E+03 2.91027E+02 7.23663E+02 6.01720E+02-6.68276E+01 9.50949E+01
 -1       501-1.66763E+03-6.95543E-04-1.33877E-03 2.82636E+01 1.14143E-03 2.18606E+02
 -1       502 6.25208E+02-9.02154E-05 5.41329E-04-1.44120E+01 3.11322E-04 5.53389E+01
 -1       503 6.04954E+02-3.50372E+00-1.24899E+02-2.56097E+00 3.85352E+01 2.31542E+01
 -1       504 4.83923E+02 3.56645E+00-2.49799E+02 5.90080E+00-1.62006E+01 2.11477E+01
 -1       505 3.42979E+02-8.58352E+01-1.21824E+02 9.49607E+00 1.75800E+01-1.41467E+01
 -1       506 2.83034E+02-2.24407E+02 6.14999E+00-6.41603E+00-3.35387E+01 8.52512E+01
 -1       507 1.94707E+02-2.37715E+02 1.77524E+01-1.35470E+02 1.68357E+02-2.05032E+00
 -1       508 1.45938E+02-3.18078E+02 2.93559E+01-1.81022E+02 8.06288E+01 7.25090E+01
 -1       509 9.34884E+01-1.10556E+01-5.90667E+01-2.51716E+01-5.67396E+01-1.18053E+01
 -1       510-2.14977E+01-3.34599E+01-2.27684E+01-3.61144E+01-3.25300E+01-3.48907E+01
 -1       511-6.05597E+01 1.75016E+01 2.97725E+01 2.19216E+01-3.13670E+00 1.92516E+01
 -1       512 1.50015E+01 6.36608E+00 7.26924E-01 1.76782E+01-1.08113E+00-9.30420E-01
 -1       513 1.12926E+01 1.28928E+00-1.65038E+01 4.97540E+00-2.07128E+00-2.33808E+01
 -1       514 1.13054E+01-5.47352E+00 5.68419E+00 6.35806E+00-5.99979E+00-1.88522E+01
 -1       515 5.98571E+00-7.55350E+00 2.42978E+01 1.15693E+01-7.37429E+00-2.92188E+01
 -1       516-1.70152E+01 2.99246E+01-4.48088E+01 2.75622E+01 5.88572E+00-2.09287E+00
 -1       517 1.19423E+02 9.59815E+01-1.48920E+02 1.12326E+02 5.15126E+01 5.83387E+01
 -1       518 3.71875E+01-6.70700E+01 1.56315E+02-3.16976E+01-4.20193E+01-6.53844E+01
 -1       519-1.95816E+02-5.82881E+01 3.34704E+02-1.47121E+02 1.40519E+02-3.46382E+01
 -1       520-4.89532E+02 7.18855E+02 5.71693E+01-3.82507E+02-4.05419E+02 2.81692E+02
 -1       521-7.21121E+02 7.80486E+02 2.60544E+01-2.12377E+02-3.40169E+02 8.21899E+01
 -1       522-1.20093E+03 8.37734E+02-5.06309E+00 2.52108E+02-8.51459E+01 1.55350E+02
 -1       523-1.33130E+03 4.77878E+02 3.85577E+02 3.86183E+02-1.20971E+01-3.21794E+01
 -1       524-1.54879E+03 2.12265E+02 7.76219E+02 4.11156E+02 2.80454E+00 1.62045E+02
 -1       525-1.88637E+03 5.31297E+01 3.88109E+02 2.19463E+02 3.20064E+01 1.60201E+01
 -1       526-2.01273E+03-7.68700E-04-1.27451E-03 1.18688E+01-4.22008E-04 7.19224E+01
 -1       527 6.32986E+02 1.39330E-04 4.20134E-04-1.51025E+00 1.93219E-04 7.72414E+01
 -1       528 4.53541E+02-4.02640E+01-2.27100E+02-4.27128E+01-1.61044E+01 7.34112E+01
 -1       529 1.99734E+02-2.09944E+02 4.88712E+00-1.50272E+02 1.45061E+01 4.70965E+01
 -1       530 5.65419E+01-5.65168E+02 1.98540E+02-3.47147E+02-1.03870E+02 2.07934E+01
 -1       531-1.69213E+02 1.47876E+02 5.93226E+01 1.04482E+02-1.53197E+02 4.00615E+01
 -1       532 6.53506E+01 8.35738E+00-3.99507E+01 2.66259E+01-1.17886E+01-5.34670E+01
 -1       533-3.42675E+00 1.18873E+00 1.79107E+01 4.62250E+00-4.88228E+00-1.85761E+01
 -1       534 3.33259E+01 1.18751E+01-5.08005E+01 1.39263E+01 8.68499E+00-9.77117E+00
 -1       535-9.52622E+01 2.82746E+01 1.60405E+02-1.33777E+01-5.21568E+01-6.53554E+01
 -1       536 3.06650E+02 4.76288E+02-5.64074E+02 4.50739E+02 1.32311E+02 4.48104E+01
 -1       537-2.64600E+02 1.31775E+03-4.83173E+02-6.39009E+02 3.04771E+02 1.23350E+02
 -1       538-8.66911E+02 7.69232E+02-7.59985E+00-1.47319E+02-2.89759E+01 1.61632E+02
 -1       539-1.57204E+03 2.14196E+02 7.67245E+02 1.84077E+02 1.19656E+01 1.91722E+02
 -1       540-2.20187E+03-5.67564E-04-1.41940E-03 1.80505E+01-5.26516E-05 2.98316E+02
 -1       541 6.28080E+02 1.02551E-04 3.50932E-04 7.31106E+00-4.25518E-04 7.58713E+01
 -1       542 5.60587E+02-2.62062E+01-1.02201E+02-3.91152E+01-4.55432E+00-1.16200E+01
 -1       543 3.85683E+02-6.70220E+01-2.04401E+02-7.39309E+01 3.92946E+01 6.10972E+01
 -1       544 2.33110E+02-8.33647E+01-1.00388E+02-1.71036E+02-2.08852E+00-1.62537E+01
 -1       545 1.03716E+02-1.19559E+02 3.62454E+00-2.88464E+02 5.33182E+01 9.40803E+01
 -1       546 1.84182E+00-2.88081E+02 1.85674E+02-5.02468E+02-6.78939E+01-4.35108E+01
 -1       547-5.02888E+02-3.73543E+02 3.67724E+02-8.55579E+02-7.65883E+01 2.07630E+02
 -1       548-2.43141E+03 6.58261E+02 4.18006E+02-1.93840E+02 1.09002E+02 2.64009E+02
 -1       549-1.67645E+03 6.48902E+02 3.15576E+02 5.39745E+02 6.37318E+01 4.32155E+02
 -1       550-3.67430E+02 6.05672E+01 1.71473E+02 7.27599E+01 2.55732E+01-1.16713E+02
 -1       551 3.62524E+01-2.29620E+01-7.42484E+01-3.37017E+01 1.12958E+00-5.15861E+00
 -1       552 1.77371E+01-1.83165E+01 7.03923E-01-3.21447E+01 2.46247E+00 1.03990E+01
 -1       553 2.56171E+01-2.42109E+00 2.01231E+01 1.75158E+01-7.69512E+00-1.99005E+01
 -1       554 1.79407E+01 1.84422E+01-2.70079E+01 2.67246E+01 5.42538E+00 1.71552E+01
 -1       555-1.09164E+01 5.07674E+01-6.89450E+01 4.68413E+00 9.67972E+00 1.36776E+01
 -1       556-9.62196E+00-9.43531E+01 8.39551E+01-5.24691E+01 2.69714E+01 7.69560E+01
 -1       557-7.17119E+01-1.60762E+02 3.38098E+02-1.49507E+02-3.14457E+01 1.23944E+02
 -1       558 6.27921E+02 2.39490E+02-5.97695E+02 4.41150E+02 2.52339E+01 5.35690E+01
 -1       559 2.90824E+03 2.27079E+03-1.59028E+03 2.72436E+03 8.42293E+02 1.01107E+03
 -1       560 4.57512E+03 1.88324E+03-1.69115E+03 1.82776E+03-6.55850E+02 1.39983E+02
 -1       561 1.09104E+03 1.09529E+03-1.02352E+03-1.17811E+03 7.48486E+01 1.73370E+02
 -1       562-1.40725E+02 9.70747E+02-5.16826E+02-8.45632E+02-1.01201E+02 3.52205E+01
 -1       563-5.56057E+02 6.98316E+02-1.01368E+01-4.96179E+02 9.05964E+01 1.65109E+02
 -1       564-1.01888E+03 4.55232E+02 3.74067E+02-1.96448E+02-8.67645E+00-7.96637E+01
 -1       565-1.51893E+03 2.54535E+02 7.58271E+02-1.98226E+01-7.45357E+01 2.54285E+02
 -1       566-2.06619E+03 1.02271E+02 3.79135E+02-1.53306E+01 1.93513E+01-1.71862E+01
 -1       567-2.28900E+03-6.02814E-04-1.28191E-03 1.53460E+01 1.00273E-03 2.70812E+02
 -1       568 5.43234E+02 1.22852E-04 3.16970E-04-1.83124E+01 3.75835E-04 5.83079E+01
 -1       569 3.54763E+02-7.69879E+01-1.71336E+02-1.09715E+02-6.57250E+00 7.36739E+01
 -1       570-7.30224E+01-1.27250E+02 6.94585E+01-2.85649E+02-2.33383E+01 3.07255E+01
 -1       571-6.24863E+02 8.70333E+01 2.40314E+02-6.03160E+02 1.61589E+02 3.08053E+02
 -1       572-1.49558E+03 7.55428E+02 2.44821E+02 9.90163E+02 2.34568E+02-1.37056E+02
 -1       573 2.32463E+03 3.88622E+03-1.65231E+03 2.19361E+03 6.42898E-01-5.98686E+02
 -1       574 9.22410E+02 9.43930E+02-7.92542E+02-1.31643E+03 2.06250E+02 7.25082E+02
 -1       575-2.17933E+02 6.64850E+02-2.08430E+02-6.27515E+02-6.21330E+01 2.22095E+02
 -1       576-1.48034E+03 3.15631E+02 7.03238E+02-1.77339E+02 4.94631E+01 2.48927E+02
 -1       577-2.12780E+03-5.67511E-04-1.30098E-03-6.18187E+01-1.25025E-03 2.31446E+02
 -1       578 4.41683E+02 1.24450E-04 4.29366E-04-4.38185E+01-2.04855E-04-7.48961E+01
 -1       579 4.49012E+02-4.45768E+01-6.91347E+01-1.02996E+02 2.76560E+01-2.93546E+01
 -1       580 3.25304E+02-7.65181E+01-1.38270E+02-1.47649E+02-1.53758E+01 6.51729E+01
 -1       581 6.20865E+01-1.31621E+02-1.48831E+00-2.03913E+02 4.89015E+00-8.87797E+01
 -1       582-1.74504E+02-1.37840E+02 1.35293E+02-2.69646E+02 3.92243E+00 1.18625E+02
 -1       583-3.35511E+02 3.38494E+01 1.24098E+02-2.81858E+02-4.95763E+01-5.43211E+01
 -1       584-6.37014E+02 2.70467E+02 1.12904E+02-2.69049E+02-2.88082E+01-1.66447E+02
 -1       585-4.42828E+02 2.63834E+02 6.71290E+01 1.18093E+02 3.68684E+01 2.74382E+02
 -1       586 1.75935E+01 3.46452E+01 2.13543E+01 4.46011E+02 1.55962E+02-4.86455E+01
 -1       587 1.20517E+02 2.91170E+00-6.71185E+00 1.01193E+02 1.47817E+00 1.29205E+01
 -1       588 7.63723E+01-1.40999E+01-3.47781E+01 5.41786E+01-3.21635E+01-5.20638E+01
 -1       589 4.91930E+02-1.12519E+02-6.18788E+01-2.96875E+02 2.29530E+02-2.42261E+02
 -1       590 8.83231E+02 1.27597E+00-5.03854E+02-6.38300E+02-6.02050E+01 2.44666E+02
 -1       591 6.67141E+02 1.30492E+03-9.45828E+02-8.97961E+02 1.03383E+02 7.68590E+01
 -1       592 8.49764E+02 9.08590E+02-7.53698E+02-1.13142E+03 6.47699E+02 3.72708E+02
 -1       593 9.73481E+02 8.69542E+02-5.61569E+02-1.35961E+03-3.13423E+02-3.99792E+02
 -1       594 4.83023E+02 8.25809E+02-4.84147E+02-1.12491E+03-2.16312E+01-3.18093E+01
 -1       595 1.75420E+02 7.09377E+02-4.06725E+02-8.20476E+02 6.95475E+01 1.76083E+02
 -1       596-5.70391E+02 4.47197E+02 1.20738E+02-5.05266E+02 9.19038E+01-2.23902E+02
 -1       597-1.42228E+03 3.71931E+02 6.48203E+02-3.25839E+02-6.78217E+01 2.38013E+02
 -1       598-1.88462E+03 1.91260E+02 3.24101E+02-2.76883E+02-1.11227E+02-7.86571E+01
 -1       599-1.88139E+03-3.76137E-04-1.48805E-03-1.53059E+02 1.14400E-03-2.47521E+02
 -1       600-2.07289E+02-1.46466E+01 1.20342E+02-1.90140E+02 1.22423E+02 1.40464E+02
 -1       601-3.61212E+02 1.48369E+02 6.59666E+01-1.65113E+02-4.66118E+01-6.76651E+01
 -1       602-3.56175E+01 4.04044E-01 5.82575E+00 1.72814E+02-5.46567E+01-1.21931E+02
 -1       603-1.19902E+01-1.00353E+01-2.62348E+01 3.95033E+01-3.72937E+01 4.94354E+01
 -1       604 4.43372E+02-7.88690E+01-2.51102E+00-3.37641E+02 1.14428E+02-2.61546E+02
 -1       605 6.60984E+02 1.30556E+02-4.42930E+02-8.51126E+02 1.36335E+01-1.77213E+02
 -1       606 8.20576E+02 4.52711E+02-4.80382E+02-1.13899E+03 3.85189E+00-5.73944E+01
 -1       607 4.61769E+02 7.31513E+02-4.63739E+02-7.54101E+02-2.94735E+02 2.74153E+02
 -1       608-2.67568E+02 6.16155E+01 1.05390E+02-1.19816E+02-1.41507E+02-5.44838E+01
 -1       609-2.87479E+02 2.78609E+01 6.22098E+01-1.14757E+02 3.93221E+01 1.51214E+01
 -1       610-1.27250E+02 1.04830E+02 1.90292E+01-6.03817E+01 5.67731E+01 2.92482E+01
 -1       611-1.12223E+02 1.62946E+02 4.66323E+00 1.99854E+01-6.78456E+01-5.36357E+01
 -1       612-1.23650E+02 1.11604E+02-9.70281E+00 6.54336E+01 4.07937E+01 8.26129E+01
 -1       613-3.12219E+01 9.93102E+01-1.36970E+01 4.69641E+01-4.55401E+01 2.42996E+01
 -1       614-2.40981E+00 8.13155E+01-1.76913E+01 9.55085E+00-6.17137E+00-6.25484E+01
 -1       615 3.96045E+02-6.70395E+02 5.68549E+01-5.00247E+02 3.08384E+02-2.77514E+01
 -1       616 4.14730E+02-6.64639E+02 5.84111E+01-5.32119E+02 3.30651E+02 5.62472E+01
 -1       617 5.68804E+02-5.89042E+02 5.99676E+01-6.77381E+02 9.54524E+01 7.87249E+01
 -1       618 5.70357E+02-2.34149E+02-1.69614E+02-7.26997E+02 2.64619E+02-9.86226E+01
 -1       619 6.33092E+02 2.10318E+02-3.99195E+02-8.44619E+02 1.35323E+02 7.18763E+01
 -1       620 7.95801E+02 4.46179E+02-4.59974E+02-7.78849E+02 2.29611E+02-2.51466E+02
 -1       621 5.65370E+02 4.68079E+02-5.20753E+02-6.03268E+02 2.68036E+02 1.88004E+02
 -1       622-3.63741E+01 1.73398E+02-5.03358E+01 6.15258E+00 1.92826E+00 3.58305E+01
 -1       623-7.53449E+01 1.88154E+02-5.66241E+01 6.80340E+01 7.61476E+00-4.12217E+00
 -1       624-3.93948E+01 2.23185E+02-5.77095E+01 5.08722E+01 4.44805E+01-3.05743E+00
 -1       625 4.82349E+02-1.91156E+03 4.84267E+02-2.21186E+02 3.53956E+01 1.90998E+01
 -1       626 4.42398E+02-1.11917E+03 3.85739E+02-2.94732E+02 2.81247E+01-1.50045E+01
 -1       627 4.17405E+02-5.53283E+02 1.33424E+02-4.60290E+02-2.44016E+02 5.64301E+01
 -1       628-7.39567E+01 2.50521E+02-1.19701E+02 1.50555E+01-2.69965E+01-3.96499E+01
 -1       629-4.93823E+01 2.38832E+02-1.11623E+02 3.03970E+01-2.23924E+01 1.19809E+01
 -1       630-3.30675E+01 2.22688E+02-1.03545E+02 5.34496E+01-3.72149E+01-6.26723E-01
 -1       631-4.56878E+01 2.18446E+02-1.00637E+02 8.66282E+01-4.61770E+00-2.95443E+00
 -1       632-4.15474E+01 2.17701E+02-9.77277E+01 1.29351E+02-3.01852E+01-9.52476E+00
 -1       633-4.52039E+01 8.45524E+01-2.57862E+01 1.78754E+02-2.06704E+01-4.48202E+01
 -1       634-1.64949E+02-3.16611E+01 4.61554E+01 2.20823E+02-6.92574E+01-9.90676E+01
 -1       635-3.18760E+02-1.16339E+02 2.03423E+02 4.89852E+02 1.57528E+02-2.92088E+01
 -1       636-3.20284E+02-3.03477E+02 3.60690E+02 8.52148E+02 1.28417E+02-1.39719E+02
 -1       637-3.95604E+01-1.02476E+03 6.36186E+02 1.08527E+03 2.64157E+02-3.89578E+02
 -1       638 4.49816E+02-2.08901E+03 9.11681E+02 6.97492E+02 2.54456E+02-8.32557E+01
 -1       639 4.81138E+02-1.84339E+03 8.11596E+02 2.38672E+02 1.51117E+02-5.10834E+00
 -1       640 3.22333E+02-1.48335E+03 7.11511E+02 1.46365E+01 2.68265E+02-4.41438E+01
 -1       641 3.31006E+02-1.47501E+03 6.88778E+02-1.52958E+02 2.26438E+02 4.26423E+01
 -1       642 3.98881E+02-1.47100E+03 6.66045E+02-3.03955E+02 2.75027E+02-5.04521E+01
 -1       643-3.34227E+01 2.98028E+02-5.98505E+01-1.28714E+01 3.00862E+00-1.67799E+01
 -1       644-1.15651E+01 2.68052E+02-5.17726E+01 2.86089E+01 5.31682E+00 3.68976E+00
 -1       645-1.31418E+01 1.78365E+02-4.88638E+01 7.63395E+01-5.01758E+00 1.05332E+01
 -1       646-3.85262E+01-2.26814E+01 2.30775E+01 1.33596E+02 1.89886E+01 7.92536E+01
 -1       647-1.27992E+02-4.96665E+02 1.80345E+02 4.29340E+02-7.76351E+01-1.66945E+01
 -1       648 1.39088E+02-1.78315E+03 4.55840E+02 5.01939E+02-2.28169E+01-3.48889E+01
 -1       649 1.17272E+02-2.05487E+03 3.55754E+02 3.42951E+00-7.73912E+01 6.88827E+01
 -1       650 1.98867E+02-1.89012E+03 3.33022E+02-2.91577E+02-6.02856E+01-9.20915E+01
 -1       651 1.88411E-05 2.95435E+02 1.79044E-04-1.76153E+01 2.99396E+01 2.72052E-04
 -1       652 1.02374E-04 3.00884E+02 2.06502E-04-5.75357E+00-2.66630E+01-1.53075E-04
 -1       653 1.52512E-04 2.92511E+02 2.05125E-04-3.56427E-02-1.97036E+01 2.01089E-05
 -1       654 1.04294E-04 2.40472E+02 1.86177E-04 4.45977E+00-4.03839E+01 1.84415E-04
 -1       655 1.28836E-04 1.69063E+02-3.86419E-07 1.00453E+01 6.65042E+00-1.27709E-04
 -1       656 9.79785E-05 8.42307E+01 4.77043E-05 1.41320E+01 1.47780E+01 2.03103E-04
 -1       657 5.30731E-04-1.37017E+01-3.09332E-04 2.33826E+01 8.12055E+01 4.96191E-04
 -1       658 8.47689E-04-3.00548E+02-3.76331E-04 1.29676E+01 9.70061E+00-2.16601E-04
 -1       659-4.86468E-05-6.89853E+02-9.77574E-04 1.62331E+01 2.76273E+02-6.26611E-05
 -1       660 1.44321E-05-1.13135E+03-1.17694E-03 7.35258E+01 2.01162E+01 1.47491E-03
 -1       661-1.69612E-05-1.69655E+03-7.00860E-04 7.39398E+01-1.07714E+02-8.18604E-05
 -1       662-1.16033E-03-2.07253E+03-1.50145E-03 2.84188E+01 3.67998E+02 6.70542E-04
 -1       663-1.17188E-03-2.31793E+03-1.51931E-03 7.79880E+00 2.29665E+02 8.01036E-04
 -1       664-6.14138E-04-2.12121E+03-1.27424E-03-6.58939E+01 2.04586E+02-1.68479E-03
 -1       665-3.83419E-04-1.83657E+03-1.35151E-03-1.56556E+02-3.02858E+02 1.55482E-03
 -1       666-1.98952E-13 3.97620E-11-9.10205E-12 5.10880E-11-2.75282E+02-1.26234E-03
 -1       667 1.06581E-14 6.30109E-11 7.86216E-12 2.27511E-11 2.05463E+02-4.81157E-04
 -1       668-3.64153E-14 3.11289E-11-1.77529E-11-4.25615E-12 9.50890E+01 5.05705E-04
 -1       669-2.75335E-14-6.97575E-12-2.46425E-12-2.14762E-11-6.65491E+01 7.89025E-04
 -1       670-5.32907E-15-4.56009E-11 6.26721E-12-3.76099E-11 1.86971E+02 5.65069E-04
 -1       671-1.93179E-14-8.99307E-11 3.00737E-12-3.17781E-11 1.59225E+01 3.66558E-04
 -1       672-1.68754E-14-1.20947E-10 3.61133E-12 9.01001E-13-1.94831E+01-7.45381E-05
 -1       673 6.92779E-14-2.09855E-10 4.19220E-13 4.87437E-11 3.52678E+01-1.35620E-04
 -1       674 4.21796E-11-2.38174E-11-4.51262E-11 4.12426E-12 3.06567E+02-1.29448E+02
 -1       675-6.53699E-12 4.61533E-11 2.53973E-11 4.10774E-11 1.99245E+02-4.46391E+01
 -1       676-3.14468E-11 8.63238E-11-7.25608E-11-4.07798E-11 2.56743E+02 4.66963E+01
 -1       677-6.52367E-12 1.76410E-11-3.81937E-11-1.15818E-12 5.32696E+01-8.91786E+01
 -1       678-3.51633E-11-3.13977E-11 7.71635E-11-3.93824E-11-1.02398E+01-3.12243E+01
 -1       679 3.54342E-11-1.31396E-10 6.85820E-11-5.33542E-11-3.51738E+01-9.33628E+00
 -1       680 6.70772E-11-1.78340E-10 1.27215E-10 2.82054E-11-3.17585E+01 8.17655E+00
 -1       681 5.87264E-11-1.51478E-10-2.09691E-11-1.09922E-11-1.36858E+01-3.86727E+01
 -1       682 6.36575E-11-1.39462E-10 5.92848E-10-1.10461E-10 4.30690E+02 1.84935E+02
 -1       683 2.31881E-10-2.27409E-10-1.08009E-10 1.25887E-10 6.51953E+01 5.54480E+01
 -1       684 3.55473E-11 1.89184E-10-6.87868E-10 1.57267E-12 3.51756E+02 4.11527E+01
 -1       685 4.90989E-11 1.78595E-11-3.22133E-10 1.90425E-12 1.90726E+02-3.11710E+02
 -1       686-1.03725E-10 5.23244E-11 1.22540E-10-1.63141E-11 3.00108E+01-1.81429E+02
 -1       687 1.70255E-11 2.43627E-11 3.90150E-11 4.45972E-11 4.13509E+00-1.79514E+01
 -1       688-6.47121E-11-1.59865E-10 1.23365E-11-1.62025E-10 1.56475E+01-6.34653E+01
 -1       689 1.61791E-10-3.23151E-10 1.45548E-10-5.97460E-11 3.99722E+01 7.86656E+01
 -1       690 1.12064E-10-2.16257E-11-9.97524E-11 1.46361E-10 6.99467E+01 3.56898E+01
 -1       691 6.14833E-11-7.91802E-11-1.51131E-10-2.65743E-12-1.01078E+02 6.60798E+00
 -1       692-2.73076E-10-3.19744E-14-1.78986E-11-5.57652E-11-1.51714E-03-2.86921E+02
 -1       693-2.45365E-10 8.15472E-11-1.92869E-10 8.95550E-12-6.20048E+01 2.16573E+02
 -1       694-1.47429E-10 8.73139E-11 3.39343E-10-1.50770E-10 8.64832E+01 1.73671E+02
 -1       695 3.01188E-11-3.12147E-10-3.73955E-10-2.20705E-10-3.25176E+02-5.59110E+02
 -1       696 2.23725E-10 4.59593E-10-1.16738E-09 4.28969E-10 1.91740E+02 6.10283E+01
 -1       697-4.58398E-11 1.35947E-10 2.88233E-10 1.58565E-10-3.47622E+01-6.95622E+01
 -1       698-9.75942E-11-1.13434E-09 5.10727E-10-1.30980E-10 1.16625E+02-2.93272E+01
 -1       699-2.63324E-10 2.09795E-10 2.05791E-12 1.01775E-10 3.24021E+01-1.67328E+02
 -1       700-2.08604E-12-4.95704E-11 1.29245E-10-1.40612E-10-1.80308E+01 8.56484E+01
 -1       701 2.21208E-10-6.58252E-11-1.08458E-10-7.11309E-12 5.59573E+00 9.81816E+01
 -1       702 2.85418E-10 2.13829E-13 1.30564E-10-5.33663E-11 4.49441E-04-8.90204E+01
 -1       703-1.23023E-10-6.12843E-14 6.53699E-13-1.65130E-11-5.51613E-04 2.41350E+02
 -1       704-1.15907E-10 6.85061E-11-1.19644E-10-3.58193E-11-7.86726E+01 2.43128E+02
 -1       705-3.14653E-10 1.39867E-10 1.07347E-10 9.68914E-12 7.40097E+01 1.69674E+02
 -1       706-1.31762E-09 1.88322E-10-2.24020E-10 2.22516E-10 1.09505E+02 2.64378E+02
 -1       707-2.14044E-09 7.71525E-10-1.03007E-09-1.00646E-09 4.44857E+02 6.25415E+02
 -1       708-1.52795E-10 2.92262E-10-4.12195E-09 8.78313E-11-1.67626E-01 2.32701E+02
 -1       709 1.79181E-10 2.65550E-10-1.42068E-09-2.23103E-12-6.84395E+01-4.21304E+01
 -1       710 3.02360E-10 6.47132E-11-7.93636E-10 1.22761E-11-5.07575E+00-3.78667E+01
 -1       711 2.23636E-11-1.10621E-10 1.41007E-09-8.90803E-11-1.77291E+01 4.43945E+01
 -1       712 1.80748E-09-1.74786E-09 5.71864E-10 8.16471E-11 3.43078E+01 2.24153E+02
 -1       713 1.24202E-09-2.19034E-10-3.31249E-10-4.71506E-10-9.12038E+01 3.32675E+02
 -1       714 4.84685E-10-9.42523E-11-3.23506E-10 1.17094E-10 7.10497E+01 1.75515E+02
 -1       715 1.82956E-10-9.56314E-11-3.29942E-11-1.65939E-11 2.03748E+01 6.00814E+01
 -1       716 1.22977E-10-2.24543E-14 8.16738E-11 1.03841E-11 1.68595E-05 4.56640E+01
 -1       717 8.52651E-12-6.57252E-14 3.28981E-12 2.40163E-12 4.14293E-04 5.74598E+01
 -1       718-1.15495E-10-5.09282E-12 5.28044E-10 2.44347E-11 6.46863E+00 1.56475E+02
 -1       719-2.57738E-11 4.72996E-11-1.04825E-10 1.27780E-10-8.10423E+01 1.78048E+02
 -1       720 8.52509E-11-1.09708E-11 3.88074E-10-1.66381E-10-4.30667E+02 2.87725E+02
 -1       721 2.21958E-10-1.49718E-10 2.29000E-09-6.45944E-11 2.22512E+02-1.40340E+01
 -1       722-1.52137E-10-1.94496E-11 7.48040E-10-3.47376E-11 1.58282E+02 1.99262E+02
 -1       723 1.01377E-11-2.18424E-10 1.03387E-09 4.33904E-11-1.40191E+01-4.58678E+01
 -1       724-6.11637E-11-1.23975E-10 1.21957E-10-4.09962E-12 7.92247E-01-2.74202E+01
 -1       725 2.66005E-10 2.47394E-10-8.05722E-10-3.02943E-11 1.06025E+01 7.46946E+01
 -1       726-3.27394E-10-4.56611E-10 1.22306E-09 1.35140E-10-3.43774E+01-2.08531E+01
 -1       727-1.06539E-10 2.49436E-11-2.20034E-10-7.17701E-11 6.46609E+01 1.18009E+02
 -1       728 1.96418E-11-1.44660E-11 1.46019E-11 8.78808E-12-3.90329E+01 4.36391E+01
 -1       729 3.30758E-11-2.37366E-13 6.85039E-11 3.37004E-11 4.17974E-04 4.90498E+01
 -1       730 1.38449E-11 3.21521E-13-8.34000E-12 1.46709E-11 3.03764E-04 8.96760E-01
 -1       731 1.25008E-11 1.04166E-11 1.18799E-10-4.56559E-11-3.05293E+01 1.69813E+02
 -1       732-6.70752E-11 1.27244E-10-7.14380E-10-9.49285E-12-2.25022E+02 2.51682E+02
 -1       733 2.72323E-10 2.08615E-10-1.89591E-09 7.46190E-11-1.19686E+01-9.00352E+01
 -1       734-3.64703E-10-2.55081E-10 2.47384E-09-2.72100E-11-3.36944E+01-1.55973E+01
 -1       735 2.03671E-10 3.14020E-10-9.13303E-10 9.89459E-11-1.88230E+01-2.34718E+01
 -1       736 5.47510E-11 1.65246E-10-2.00647E-10 2.58079E-11-9.49943E+00-1.80058E+01
 -1       737-3.46671E-10-1.38082E-10 3.14642E-09 1.11201E-10-1.28266E+01-4.63925E+00
 -1       738 3.76309E-10-3.02657E-10 6.33939E-10-7.67886E-11-2.70280E+01-3.34483E+01
 -1       739 3.61844E-11-7.51921E-11-7.78209E-11-2.44993E-11-5.91737E+01 5.27159E+01
 -1       740-6.99956E-11 1.75304E-13 1.32763E-10 6.61879E-11 2.09890E-04 2.69940E+02
 -1       741 3.87033E-11-1.38778E-14-1.51328E-11-8.09741E-13 2.72287E-04 2.38609E+02
 -1       742 2.36232E-11 4.71427E-11-2.58394E-11 2.68105E-11-2.03230E+01 7.34300E+01
 -1       743 4.13358E-11-5.04379E-11-1.99697E-10-2.95932E-11 5.92652E+01 9.56713E+01
 -1       744 2.90176E-10-5.18033E-11-1.91234E-09-4.74874E-11-3.06391E+01-3.75232E+01
 -1       745-2.26901E-10-2.29972E-11 1.45891E-09 7.35107E-11-1.37546E+01-4.05533E+00
 -1       746 7.46836E-11-7.28999E-11-1.13968E-10 2.89449E-12-9.43443E+00-1.76625E+01
 -1       747 1.23799E-11-3.36971E-11 5.44589E-10 1.16807E-10-1.87064E+01-2.36933E+01
 -1       748-2.45699E-10-9.48492E-11 4.21225E-10 8.84980E-11-3.40373E+01-1.61565E+01
 -1       749 4.35953E-10 3.16287E-10-2.02137E-09-1.82172E-10-1.58034E+01-8.68375E+01
 -1       750 1.17325E-10 1.19016E-12 7.69305E-11-9.52127E-12-2.21948E+02 2.49425E+02
 -1       751-1.22247E-10-1.71719E-10 1.62275E-10 1.72880E-10-3.04110E+01 1.64772E+02
 -1       752-1.09310E-10 5.17142E-13 2.52290E-10 7.96003E-11 4.48962E-04-3.76965E+01
 -1       753 2.31886E-11-2.66454E-15 1.74527E-12 1.70279E-11 3.14834E-04 4.99549E+01
 -1       754 1.51692E-11-2.05169E-12 2.91696E-11 3.30732E-11-1.45706E+01 2.12159E+01
 -1       755 7.60806E-11 1.26121E-13-3.03963E-10 5.90485E-11-3.39596E+01 8.90989E+01
 -1       756 8.23983E-11-1.79483E-11-3.64228E-10-4.56382E-11 8.79272E+01 7.30113E+01
 -1       757-1.86961E-10-4.71643E-10 1.24525E-09 4.50696E-11-3.55883E+01-2.23645E+01
 -1       758-3.37205E-12 3.69248E-12 7.95988E-10 4.27227E-11 1.46513E+01 8.42667E+01
 -1       759-1.00485E-10-5.52919E-12 8.02390E-10-4.01266E-11 2.41949E-01-2.88593E+01
 -1       760 1.51854E-10 1.21546E-10-2.12042E-10 5.90013E-11-1.40947E+01-4.45871E+01
 -1       761 2.62670E-11 2.46662E-10-8.84722E-10-3.12549E-11 1.58537E+02 1.90124E+02
 -1       762-3.73817E-11 3.31576E-10 1.19183E-09 1.28102E-10 2.16952E+02-1.14149E+01
 -1       763 1.39615E-10-3.22714E-10-1.05798E-09-2.11074E-10-4.28729E+02 2.80359E+02
 -1       764-1.91683E-10-1.44431E-10 1.73549E-10 1.42310E-10-8.61588E+01 1.66140E+02
 -1       765 3.98828E-11-2.98601E-12-7.67290E-10 1.32186E-10 3.74389E+00 1.62105E+02
 -1       766-5.06049E-11-1.18294E-13 3.05470E-10 8.12870E-11 5.07670E-04 5.51906E+01
 -1       767 3.98686E-11 4.06342E-14 2.79776E-12 1.30740E-11 1.32899E-04 7.14656E+01
 -1       768 6.04105E-11-1.67879E-11 2.43333E-12 8.01625E-12 4.04974E+01 6.11381E+01
 -1       769 9.22050E-11-4.88933E-11-3.99007E-11 3.08678E-11 5.47113E+01 1.00250E+02
 -1       770 3.52768E-10-6.94366E-11-3.12749E-10 2.94366E-11-7.78178E+01 2.13591E+02
 -1       771 6.74067E-10-4.92775E-10-7.54096E-10-6.40237E-11 5.88325E+01 2.48402E+02
 -1       772 8.43958E-11 6.95626E-11-5.26754E-10-1.02650E-10-1.97823E+01 5.07061E+01
 -1       773 1.05973E-10 5.32596E-11-9.67590E-10-3.96270E-11-8.21815E+00-4.34260E+01
 -1       774 1.15074E-10 8.73008E-11 9.66201E-10-1.12779E-11-6.95527E+01-3.97452E+01
 -1       775-5.20570E-11-1.69589E-10 4.87873E-10-1.32649E-10-1.35367E-01 2.23179E+02
 -1       776-1.41295E-09 1.87955E-09-1.06578E-10 5.26001E-10 4.14987E+02 5.39603E+02
 -1       777-3.32496E-10-5.20378E-11 3.91462E-10-3.43737E-10 7.37233E+01 1.97545E+02
 -1       778 1.36587E-10-1.36002E-10-4.10320E-10 2.37339E-11 8.62641E+01 1.84325E+02
 -1       779 1.10475E-10-6.56320E-11-7.46654E-10 1.50077E-10-7.59165E+01 2.54401E+02
 -1       780 7.88276E-11-2.00617E-13 3.26710E-10 8.28346E-11-5.38742E-04 2.54468E+02
 -1       781 3.95914E-11-1.01252E-13 5.29354E-13-5.88862E-12 4.50132E-04-7.78762E+01
 -1       782 6.14200E-11-1.65574E-11-4.87992E-11 1.00542E-11-1.39493E+01 6.66334E+01
 -1       783 3.02469E-11-4.63309E-11-5.28733E-11-2.74773E-11 5.60026E+00 1.20271E+02
 -1       784-2.87450E-11 6.71405E-11-3.32508E-10-4.35063E-11-3.25671E+01-1.67673E+02
 -1       785-5.45380E-11-2.97871E-10 1.64335E-10 9.43423E-12 1.52304E+02-5.03623E+01
 -1       786 6.11644E-12 4.13269E-11-8.37874E-11 3.01488E-11-3.17962E+01-5.32740E+01
 -1       787-8.04903E-11-4.59924E-10 2.65616E-09 1.07150E-10 2.32096E+02-2.61326E+02
 -1       788 2.01799E-10 1.50524E-09-1.81532E-09-6.31554E-11 1.28005E+02 7.60332E+01
 -1       789 9.83951E-11 1.91013E-10-3.45075E-11 9.75682E-11-3.06687E+02-3.93974E+02
 -1       790-3.46484E-11-4.03714E-10 6.09551E-10 2.61610E-11 6.30277E+01 1.85896E+02
 -1       791 2.72806E-10-1.15542E-10-5.60186E-10-6.00009E-11-7.01966E+01 2.42404E+02
 -1       792 4.95902E-10 7.49623E-13 1.79206E-10 1.22391E-10-1.51719E-03-2.61492E+02
 -1       793-4.97380E-12-3.01732E-11-7.89542E-11 2.45102E-11-1.42153E+02-5.63455E+01
 -1       794 4.88498E-13-1.59369E-12-2.17118E-10 7.18758E-12 5.44262E+01 2.82148E+01
 -1       795 6.41470E-11-8.81726E-11-6.28693E-11-1.45374E-11 3.94466E+01 8.22171E+01
 -1       796-1.05560E-12-5.61999E-11 1.07268E-10-2.11893E-11-6.85111E+00-6.27207E+01
 -1       797 8.70344E-11-2.49372E-10 1.32731E-09-2.70439E-10 3.18889E+02-2.76871E+01
 -1       798-8.16236E-11 1.00195E-10 1.29235E-10-6.66159E-11 1.13328E+02 7.38064E+01
 -1       799-9.69914E-11 4.72212E-10-2.07251E-10 6.42200E-11 1.45319E+02 6.44028E+01
 -1       800 4.27747E-11-3.12980E-10-1.25695E-10-1.94120E-11 2.65581E+02 1.85386E+02
 -1       801 1.48255E-11-6.39062E-11 4.03565E-11-1.60113E-11-2.72023E+01-3.93017E+01
 -1       802 9.12594E-12-5.74136E-11 3.60385E-11 4.90429E-12-3.71109E+01-3.89866E-01
 -1       803 8.43651E-12-7.87744E-11-2.17793E-11-2.65855E-11-2.93561E+01-8.40679E+00
 -1       804-1.67916E-12 3.00726E-12 6.80623E-11 1.00937E-11-7.02522E+01-9.41251E+01
 -1       805 6.32866E-12-1.00506E-11-1.75888E-11 7.16138E-12 1.20641E+02-1.30388E+02
 -1       806 4.31868E-11-1.03071E-10 2.77285E-10-1.42208E-11 2.47501E+02-8.21730E+01
 -1       807-2.25830E-11 9.11911E-11 2.95295E-11-1.43731E-10 2.67625E+02-4.67927E+01
 -1       808-1.38163E-10 3.65418E-10-1.98613E-10-1.88525E-11 2.79337E+02-5.14342E+01
 -1       809 7.91034E-15-5.26761E-11-4.22937E-11 1.81696E-11 3.25200E+01-2.11390E-04
 -1       810-3.02813E-14-4.27782E-11 5.37603E-12-2.46192E-13-1.74715E+01-3.82165E-05
 -1       811-4.55191E-14-3.52626E-11 1.46692E-11-1.46263E-11 8.75745E+00 2.69133E-04
 -1       812-1.43052E-13-1.14988E-11 3.16557E-11-1.71543E-11 8.02107E+01 7.64676E-04
 -1       813-2.94487E-13 1.36140E-11 1.20594E-10-2.49258E-11 2.68498E+02-5.84357E-04
 -1       814 8.93174E-14 2.35190E-11-2.24585E-11-2.20624E-11-1.27367E+02 4.41326E-04
 -1       815 9.54792E-15 3.83125E-11-2.38689E-11-5.99574E-11 2.14328E+02 1.09998E-04
 -1       816 3.39284E-13 1.40574E-10-2.30102E-10-1.64135E-11-3.17215E+02-2.02710E-03
 -1       817-3.13695E-04-1.79067E+03-1.42360E-03-1.55852E+02-2.61960E+02 1.07427E-03
 -1       818-6.61209E-04-2.01755E+03-1.24222E-03-5.52349E+01 2.22483E+02-8.69859E-04
 -1       819-1.02617E-03-2.11064E+03-9.99349E-04 1.98226E+01 2.21086E+02 1.03128E-03
 -1       820-6.93251E-04-1.95377E+03-1.19888E-03 1.49129E+01 3.38727E+02-6.99337E-04
 -1       821-2.48889E-04-1.65341E+03-1.15172E-03 3.57721E+01 1.07402E+02-6.80377E-04
 -1       822-2.72989E-04-1.21831E+03-9.81655E-04 4.00709E+01 1.09784E+02 1.90605E-03
 -1       823 1.76783E-04-7.58000E+02-4.25717E-04 3.56855E+01-5.59850E+01-9.89609E-04
 -1       824 6.36124E-04-3.97135E+02-4.92444E-04 2.59730E+01-8.47601E+01 8.59388E-04
 -1       825 3.63169E-04-1.50202E+02-5.41311E-04 8.27984E+00 1.87885E+02 1.64564E-04
 -1       826 3.31900E-04 1.71389E+01 9.35664E-06 6.44896E+00 2.95493E+01-1.02511E-04
 -1       827 2.60180E-04 1.49836E+02 1.80851E-05 1.44111E+01 1.47906E+01 7.76721E-05
 -1       828 6.27410E-05 2.03145E+02 1.29161E-04 6.15861E+00-3.26672E+01 1.55995E-04
 -1       829 1.19672E-04 2.34409E+02 1.42861E-04-1.54641E+00-2.13615E+01-2.88775E-05
 -1       830 9.57037E-05 2.47409E+02 1.80328E-04-5.86774E+00-2.17491E+01-1.04289E-04
 -1       831 2.22506E-05 2.44527E+02 1.45204E-04-1.55915E+01 3.29438E+01 2.29305E-04
 -1       832 2.27860E+02-1.82165E+03 3.09055E+02-2.59435E+02-3.15502E+01-1.19855E+02
 -1       833 7.52251E+01-1.88104E+03 3.62415E+02 5.66871E+01 2.39949E+00 5.81233E+01
 -1       834 8.56090E+01-1.53615E+03 2.85627E+02 3.48766E+02 6.55228E+00 3.48941E+01
 -1       835-2.69000E+01-8.38024E+02 2.44998E+02 4.44016E+02-5.33425E+00-2.77083E+01
 -1       836-7.07674E+01-3.48068E+01 2.11881E+01 1.89556E+02-2.54251E+01 4.10024E+01
 -1       837-1.27310E+01 1.29419E+02-2.62459E+01 6.75184E+01 8.95909E+00 3.41368E+01
 -1       838-1.13106E+01 2.19221E+02-4.35708E+01 2.59194E+01-4.07660E+00 6.03058E-01
 -1       839-2.90157E+01 2.48630E+02-5.39039E+01-1.12864E+01-1.09186E-04-1.38559E+01
 -1       840 4.57855E+02-1.44049E+03 6.18112E+02-2.42048E+02 3.02394E+02-1.27147E+02
 -1       841 3.55621E+02-1.45468E+03 6.71471E+02-5.86030E+01 1.80503E+02 8.01468E+01
 -1       842 2.11932E+02-1.46764E+03 7.24831E+02 1.31689E+02 1.98586E+02-4.51419E+01
 -1       843 2.73551E+02-1.34822E+03 6.48043E+02 3.93331E+02 1.40869E+02-1.35790E+02
 -1       844 2.57664E+02-1.19054E+03 5.71255E+02 6.25450E+02 2.55822E+02 4.41665E+01
 -1       845 1.03962E+02-1.06781E+03 5.30626E+02 6.89661E+02 1.15849E+02-4.85472E+00
 -1       846-2.93935E+01-9.84051E+02 4.89997E+02 8.12198E+02 5.83775E+01-9.35644E+01
 -1       847-2.58547E+02-3.61764E+02 2.66187E+02 6.97236E+02 1.34080E+02-2.00682E+02
 -1       848-2.04834E+02 1.56297E+02 4.23766E+01 2.95585E+02-1.04639E+01-3.58056E+01
 -1       849-1.22839E+02 1.42313E+02-5.05763E+00 1.62106E+02 3.18939E+01 1.73765E+01
 -1       850-5.95895E+01 1.18347E+02-5.24918E+01 1.18961E+02-3.53321E+01-1.07328E+01
 -1       851-3.33243E+01 1.52641E+02-6.98168E+01 8.97732E+01 7.79179E-01-8.95760E+00
 -1       852-2.71397E+01 1.96767E+02-8.71417E+01 5.20352E+01-3.18620E+01 7.58014E+00
 -1       853-4.47543E+01 2.13888E+02-9.74748E+01 2.86630E+01-1.19978E+01 1.17630E+01
 -1       854-6.63633E+01 2.25273E+02-1.07808E+02 9.41521E+00-1.35927E+01-3.91182E+01
 -1       855 4.41266E+02-5.52558E+02 1.15792E+02-5.29799E+02-3.11065E+02 2.09863E+02
 -1       856 7.47699E+02-1.36383E+03 3.32114E+02 6.24566E+01-6.51688E+01-5.66321E+01
 -1       857 1.95284E+02-7.18261E+02 2.43125E+02 7.73642E+02-1.32181E+02-1.46008E+02
 -1       858 7.63253E+01-8.34319E+02 3.55510E+02 5.13772E+02-1.21999E+02 1.28442E+02
 -1       859-8.03006E+01 2.19453E+02-1.55874E+01 6.74314E+01 1.72926E+01-1.02529E+01
 -1       860-6.39000E+01 1.51940E+02-3.35993E+01 1.19218E+02 5.44643E+00 7.37686E+00
 -1       861-8.15100E+01 1.71612E+02-4.83905E+01 8.85633E+01 1.49684E+01-6.03869E+00
 -1       862-4.26729E+01 1.93572E+02-4.96069E+01 1.09275E+01-1.02260E+00 3.54953E+01
 -1       863 5.89502E+02 3.63548E+02-4.93447E+02-5.10783E+02 4.32594E+02 1.87238E+02
 -1       864 7.82456E+02 4.19049E+02-4.39986E+02-6.79371E+02 1.33565E+02-2.11982E+02
 -1       865 7.47837E+02 2.32844E+02-3.86526E+02-9.00652E+02 5.74691E+01 6.09010E+01
 -1       866 9.89391E+02-4.30868E+02-2.23565E+02-9.18696E+02 3.14990E+02-7.22502E+01
 -1       867 1.42141E+03-1.17054E+03-6.06035E+01-5.45907E+02 3.34747E+02 4.56654E+01
 -1       868 1.00630E+03-9.25608E+02-7.28046E+01 7.85678E+02 1.96019E+02-2.95184E+02
 -1       869 1.16022E+02-4.74342E+02-8.50050E+01 9.64655E+02 1.76571E+02-3.08669E+02
 -1       870-1.49656E+02-4.28897E+02 6.80083E+01 5.89084E+02 3.74585E+02-5.80407E+01
 -1       871-9.35319E+01-5.52582E+02 2.21021E+02 3.04630E+02 2.42066E+01-1.74828E+02
 -1       872-2.81580E+01 1.31193E+02-7.35513E+01 3.28007E+01 1.63584E+00-1.66826E+01
 -1       873-5.60223E+01 1.08496E+02-4.41292E+01 9.88447E+01-7.92284E+01 1.39149E+01
 -1       874-5.54822E+01 1.55789E+02-1.47068E+01 1.02375E+02 1.59152E+01-6.29695E+01
 -1       875-6.26978E+01 1.31828E+02-1.21730E+01 9.91068E+01-1.44696E+01 9.15146E+00
 -1       876-1.35809E+02 1.24680E+02-9.63935E+00 1.04135E+02 4.08522E+01 7.89168E+01
 -1       877-1.23584E+02 1.93134E+02-5.22681E-01 5.49979E+01-5.55476E+01-4.31215E+01
 -1       878-1.42631E+02 1.56033E+02 8.59388E+00-2.44714E+01 7.13816E+01 3.64155E+01
 -1       879-2.56334E+02 6.53738E+01 4.08750E+01-5.98551E+01 3.91984E+01 9.19100E+00
 -1       880-2.04108E+02 4.26836E+01 7.31565E+01-7.68278E+01-9.93884E+01 7.99900E+00
 -1       881 4.32837E+02 7.01572E+02-4.49162E+02-6.75773E+02-3.04992E+02 2.52706E+02
 -1       882 7.44539E+02 3.09940E+02-4.03834E+02-1.14684E+03 1.92589E+02-2.11419E+01
 -1       883 2.69657E+02 1.71902E+02-4.57843E+02-1.36936E+03 4.65480E+02-3.89113E+02
 -1       884-3.87689E+01 7.17639E+01-3.39149E+01 6.98793E+01-2.70672E+01 4.84041E+01
 -1       885-6.75583E+01 7.38829E+01-7.59572E+00 2.09616E+02-6.45962E+01-1.05223E+02
 -1       886-3.41235E+02 1.96049E+02 2.93998E+01-1.27652E+02-5.63012E+01-6.14717E+01
 -1       887-2.04625E+02-6.52140E+00 1.12321E+02-1.75032E+02 8.78909E+01 1.01941E+02
 -1       888-1.79429E+03-3.92836E-04-1.47415E-03-1.53851E+02 1.13770E-03-2.73243E+02
 -1       889-1.81591E+03 1.89501E+02 3.17295E+02-2.96394E+02-1.06507E+02-7.93636E+01
 -1       890-1.40407E+03 3.69504E+02 6.34591E+02-3.64050E+02-5.95373E+01 2.12202E+02
 -1       891-6.00281E+02 4.54211E+02 1.14856E+02-5.32499E+02 8.49973E+01-2.31262E+02
 -1       892 1.08470E+02 7.28147E+02-4.04878E+02-8.27223E+02 9.30257E+01 1.65961E+02
 -1       893 4.22821E+02 7.61079E+02-4.13009E+02-1.14211E+03-2.62594E+01-2.77172E+01
 -1       894 8.91782E+02 7.01581E+02-4.21141E+02-1.36563E+03-3.31865E+02-5.63969E+02
 -1       895 4.11775E+02 9.61005E+02-6.38112E+02-1.10193E+03 7.15857E+02 5.09083E+02
 -1       896-3.92048E+02 2.10852E+03-8.55084E+02-7.62508E+02 1.67091E+02 5.16640E+01
 -1       897 6.12453E+01 2.85378E+01-5.31230E+01 6.52317E+01-3.55892E+01-6.85362E+01
 -1       898 9.57535E+01 5.45738E+01-2.93375E+01 1.37789E+02-2.58305E+01 3.62528E+00
 -1       899-3.97120E+01 1.62387E+02-5.55215E+00 4.51766E+02 1.19792E+02-2.81858E+01
 -1       900-4.58429E+02 3.57358E+02 2.23266E+01 1.34173E+02 6.32238E+01 2.14648E+02
 -1       901-5.79282E+02 3.44558E+02 5.02057E+01-2.16557E+02 3.54389E+01-1.65638E+02
 -1       902-3.20039E+02 1.07974E+02 1.00846E+02-2.75991E+02-4.37079E+01 1.55612E+01
 -1       903-2.39140E+02-1.24750E+02 1.51485E+02-3.40669E+02-1.89990E+01 8.50479E+01
 -1       904 2.76016E+00-1.29945E+02 8.60755E+00-2.38299E+02-3.48247E+01-1.18404E+02
 -1       905 3.20941E+02-1.12689E+02-1.34271E+02-1.26474E+02 4.52428E+00 9.65468E+01
 -1       906 4.52570E+02-5.27715E+01-6.71352E+01-1.01185E+02 1.67640E+01-2.00702E+01
 -1       907 4.38852E+02 1.76540E-04 3.78794E-04-4.24374E+01-3.96847E-04-8.61266E+01
 -1       908-2.06290E+03-5.71583E-04-1.27978E-03-6.32989E+01-1.26634E-03 2.13770E+02
 -1       909-1.46536E+03 3.16918E+02 6.91775E+02-2.12873E+02 4.87174E+01 2.33406E+02
 -1       910-2.67802E+02 6.62723E+02-1.99414E+02-6.50797E+02-4.94179E+01 2.16656E+02
 -1       911 7.95760E+02 9.55680E+02-7.13705E+02-1.35564E+03 1.50877E+02 6.84367E+02
 -1       912 2.09596E+03 3.92041E+03-1.60036E+03 2.51468E+03-1.07474E+02-5.73569E+02
 -1       913-1.39084E+03 7.66992E+02 2.10671E+02 9.81268E+02 2.88637E+02-1.71502E+02
 -1       914-6.89248E+02 3.71094E+02 1.70271E+02-5.33391E+02 1.16843E+02 2.96945E+02
 -1       915-7.43484E+01-2.23203E+02 9.82288E+01-4.42437E+02 3.01607E+00 5.84512E+01
 -1       916 3.52086E+02-1.04496E+02-1.59112E+02-7.04677E+01-1.64960E+01 6.29728E+01
 -1       917 5.34442E+02 2.04389E-04 2.94355E-04-1.88621E+01 4.54450E-04 5.51879E+01
 -1       918-2.24678E+03-6.05413E-04-1.26282E-03 1.41065E+01 1.04077E-03 2.57494E+02
 -1       919-2.03152E+03 1.03204E+02 3.74478E+02-3.38523E+01 1.80905E+01-1.67329E+01
 -1       920-1.50977E+03 2.59152E+02 7.48958E+02-5.28954E+01-7.72144E+01 2.43187E+02
 -1       921-1.03747E+03 4.59057E+02 3.77503E+02-2.30446E+02-5.40898E+00-7.89881E+01
 -1       922-5.92740E+02 7.00437E+02 6.04942E+00-5.23744E+02 7.83831E+01 1.50745E+02
 -1       923-2.11805E+02 9.90286E+02-5.00110E+02-8.55877E+02-8.46811E+01 4.26750E+01
 -1       924 9.44251E+02 1.14552E+03-1.00627E+03-1.21893E+03 1.08717E+02 2.40189E+02
 -1       925 4.59748E+03 1.82685E+03-1.67595E+03 1.88461E+03-6.85451E+02 5.42889E+01
 -1       926 3.04899E+03 2.25446E+03-1.57986E+03 2.87277E+03 8.64869E+02 1.09247E+03
 -1       927 6.58532E+02 2.36174E+02-6.02454E+02 4.49939E+02 2.45628E+01 4.82839E+01
 -1       928-7.28413E+01-1.59917E+02 3.36262E+02-1.53001E+02-3.18977E+01 1.27963E+02
 -1       929-9.87676E+00-9.42138E+01 8.13529E+01-5.46237E+01 2.70818E+01 8.07985E+01
 -1       930-1.07990E+01 5.01356E+01-6.73333E+01 6.63795E+00 1.05066E+01 1.48382E+01
 -1       931 2.11552E+01 1.72779E+01-2.73642E+01 2.69905E+01 5.94741E+00 1.85359E+01
 -1       932 2.59236E+01-4.66675E+00 1.92189E+01 1.51051E+01-6.54976E+00-1.81111E+01
 -1       933 1.72215E+01-1.65306E+01 5.05801E-01-2.96210E+01 2.22867E+00 9.47196E+00
 -1       934 3.37718E+01-1.89898E+01-6.82485E+01-3.16124E+01 1.45935E+00-6.06018E+00
 -1       935-3.33074E+02 5.19239E+01 1.55913E+02 6.91670E+01 2.32344E+01-1.06056E+02
 -1       936-1.55473E+03 5.65703E+02 2.88882E+02 5.70778E+02 4.04529E+01 3.91630E+02
 -1       937-2.35952E+03 7.81644E+02 3.58616E+02 1.23415E+00 6.51256E+01 1.73922E+02
 -1       938-9.65381E+02 3.05786E+02 2.90337E+02-9.09562E+02-8.60275E+01 3.28552E+02
 -1       939-1.91575E+02 1.38638E+01 1.67655E+02-8.01661E+02-8.52327E+01 1.17113E+02
 -1       940 2.53171E+02-3.64227E+02 4.49723E+01-3.91511E+02 6.95294E+01 1.70458E+02
 -1       941 3.54868E+02-2.21339E+02-6.94902E+01-1.32548E+02 8.47548E+00-1.82004E+01
 -1       942 3.92224E+02-9.54502E+01-1.83953E+02-1.14598E+01 1.93118E+01 5.95947E+01
 -1       943 5.25591E+02-3.25303E+01-9.19761E+01-8.15547E+00-1.97186E+01-7.59450E+00
 -1       944 5.96701E+02 3.12921E-04 3.39237E-04 2.66461E+00-2.97808E-04 4.96289E+01
 -1       945-2.17724E+03-5.81904E-04-1.40483E-03 1.56413E+01-1.16089E-04 2.93608E+02
 -1       946-1.57074E+03 2.18253E+02 7.59371E+02 1.53121E+02 1.40849E+01 1.86665E+02
 -1       947-8.93644E+02 7.85207E+02 3.31513E+00-1.66839E+02-3.09398E+01 1.54248E+02
 -1       948-3.07196E+02 1.34501E+03-4.75858E+02-6.13345E+02 2.98273E+02 1.29590E+02
 -1       949 3.19607E+02 4.69609E+02-5.60315E+02 4.61922E+02 1.45522E+02 4.92668E+01
 -1       950-9.92592E+01 2.78974E+01 1.60687E+02-1.11156E+01-5.16872E+01-6.81073E+01
 -1       951 3.52111E+01 1.14595E+01-5.09792E+01 1.44732E+01 8.85965E+00-8.93531E+00
 -1       952-1.36656E+00 4.43709E-01 1.69399E+01 4.55957E+00-4.88272E+00-1.90632E+01
 -1       953 6.02619E+01 6.95667E+00-3.71409E+01 2.35954E+01-1.01879E+01-5.01737E+01
 -1       954-1.53904E+02 1.27363E+02 5.63145E+01 9.73271E+01-1.36418E+02 3.49257E+01
 -1       955 2.86592E+02-3.73140E+02 4.57929E+01 9.54699E+00 1.06628E+01 1.11317E+02
 -1       956 4.52667E+02-1.20413E+02-2.08384E+02 7.86435E+01 2.89165E+01 3.95523E+01
 -1       957 5.47353E+02 3.05851E-04 3.85509E-04 2.72441E+00-3.66619E-05 1.23883E+02
 -1       958-2.00515E+03-7.20378E-04-1.32974E-03 8.24677E+00-4.63809E-04 7.40529E+01
 -1       959-1.88251E+03 5.38302E+01 3.84891E+02 2.03434E+02 2.17647E+01 1.88980E+01
 -1       960-1.55293E+03 2.07180E+02 7.69784E+02 3.82425E+02 6.14296E+00 1.56475E+02
 -1       961-1.33783E+03 4.77956E+02 3.85182E+02 3.65077E+02-1.52929E+01-3.31270E+01
 -1       962-1.21616E+03 8.47282E+02 5.80455E-01 2.39018E+02-8.04196E+01 1.67372E+02
 -1       963-7.39249E+02 7.89402E+02 2.75687E+01-2.14319E+02-3.48775E+02 6.97091E+01
 -1       964-4.89353E+02 7.34329E+02 5.45542E+01-3.55024E+02-4.07786E+02 2.88881E+02
 -1       965-2.03323E+02-5.66703E+01 3.32368E+02-1.49881E+02 1.46652E+02-3.57696E+01
 -1       966 3.93866E+01-6.49386E+01 1.56123E+02-3.38547E+01-4.05435E+01-6.77001E+01
 -1       967 1.24853E+02 9.52543E+01-1.49970E+02 1.15392E+02 5.18449E+01 6.18366E+01
 -1       968-1.72609E+01 2.95532E+01-4.50738E+01 2.92491E+01 5.85378E+00-1.31848E+00
 -1       969 7.30777E+00-7.64076E+00 2.35228E+01 1.18306E+01-7.29123E+00-2.94344E+01
 -1       970 1.33707E+01-5.29288E+00 5.40546E+00 6.86548E+00-5.73045E+00-1.87950E+01
 -1       971 1.24420E+01 1.55347E+00-1.66150E+01 5.65054E+00-1.84960E+00-2.31235E+01
 -1       972 1.47104E+01 5.44241E+00-3.52541E-02 1.63885E+01-1.41471E+00-2.03105E+00
 -1       973-5.44068E+01 1.46167E+01 2.71518E+01 2.06235E+01-4.01437E+00 1.56892E+01
 -1       974-1.92510E+01-2.93675E+01-2.07028E+01-3.26266E+01-2.93575E+01-3.22867E+01
 -1       975 8.48336E+01-9.36711E+00-5.36991E+01-2.40373E+01-5.22277E+01-1.11178E+01
 -1       976 2.23202E+02-2.27887E+02 4.66134E+01 1.21790E+02 6.46941E+01 1.11981E+02
 -1       977 3.87415E+02-1.37546E+02-9.31012E+01 9.65215E+01 9.04928E+01-8.49298E+01
 -1       978 4.86316E+02-2.57139E+01-2.32816E+02 1.84568E+02-4.05356E+01 4.49755E+01
 -1       979 4.50472E+02-1.79069E+00-1.16408E+02 1.08307E+02 5.60720E+01 1.68537E+01
 -1       980 4.47285E+02-3.78351E-04 5.12585E-04 9.23893E+00 5.36325E-04 5.40682E+01
 -1       981-1.68731E+03-6.21944E-04-1.37685E-03 2.84231E+01 1.22658E-03 2.25977E+02
 -1       982-1.53737E+03 2.65801E+02 7.44246E+02 5.66996E+02-7.31518E+01 1.00188E+02
 -1       983-9.35370E+02 4.98051E+02 4.91171E+01 5.89992E+02-1.15615E+02 4.48680E+02
 -1       984-1.20462E+02 5.21561E-01 9.31749E+01-3.90034E+01 8.33478E+01 3.29653E+01
 -1       985 3.93973E+01-9.62091E+00-4.95669E+01 2.03402E+01-4.12735E+00 9.12707E+00
 -1       986 1.11070E+01 6.42968E+00 1.87784E+00 1.36664E+01-9.10277E+00-2.01923E+01
 -1       987 2.56529E+00-1.48276E-01-5.45289E+00 5.13212E+00-8.82206E+00-2.19228E+01
 -1       988-1.80284E+01-9.17099E+00 1.68148E+01-7.73705E+00-7.81421E-01 5.64361E-01
 -1       989 5.59805E+01-1.49370E+01-3.30690E+01 1.19980E+01-1.77959E+01 1.31219E+01
 -1       990 2.91252E+02 2.86804E+02-2.88444E+02 7.27354E+00 9.02665E+01 1.63391E+02
 -1       991 4.40871E+02-7.31797E-04 5.33619E-04 1.14142E+01-6.27715E-04 2.06028E+00
 -1       992-1.26614E+03 3.24139E-04-9.20063E-04 5.70955E+01-8.67361E-04 1.63910E+01
 -1       993-1.30718E+03 5.60930E+00 3.59354E+02 4.60970E+02-4.06860E+01 3.93980E+00
 -1       994-1.48841E+03 9.35847E+01 7.18708E+02 7.95801E+02-3.38729E+01 1.75676E+02
 -1       995-1.24330E+03 2.63390E+02 4.08182E+02 5.52390E+02-5.23781E+01-2.51454E+02
 -1       996-7.17802E+02 2.99378E+02 9.76550E+01 5.81776E+02-2.22925E+02 2.38283E+02
 -1       997 6.16732E+01 1.99917E+00-6.81612E+01-7.71171E+00 3.04504E+01 5.39349E+00
 -1       998 1.53827E+01 3.45340E+01-4.83048E+01 1.35271E+01-2.37376E+00 8.47516E+00
 -1       999-8.86432E+00 1.25514E+01 1.90303E+01 1.23220E+01-2.10764E+01-8.05096E+00
 -1      1000 8.17596E+00 1.17104E+01-1.26510E-01 1.23092E+01-1.27007E+01-1.31877E+01
 -1      1001 5.59213E+00 4.40234E+00-9.18492E+00 4.01249E+00-1.41038E+01-1.96434E+01
 -1      1002 4.41726E+00 2.44853E+00-4.61576E+00 4.49872E+00-1.30115E+01-1.62446E+01
 -1      1003-5.41023E-01-4.60304E-01 1.38663E+00 7.49558E-01-1.19080E+01-1.86465E+01
 -1      1004-1.93291E+00-5.69050E+00 4.50381E+00-7.51344E-01-1.52773E+01-1.29257E+01
 -1      1005 9.88216E-01-1.45982E+01 8.17547E+00-1.54205E+00-1.31928E+01-5.18492E+00
 -1      1006-5.47237E+00-1.05351E+01 9.57068E-01 3.94735E-01-1.55403E+01-2.09138E+00
 -1      1007-1.48834E+01-2.23274E+01 4.48917E+00-1.62852E+01-2.38697E+01-3.66661E+00
 -1      1008 2.36407E+02 3.80128E+02-3.44072E+02-3.45932E+02-6.38992E+01 6.01334E+01
 -1      1009 3.89214E+02 1.29712E+02-1.72036E+02-1.71489E+02 2.59481E+01-5.27108E+01
 -1      1010 5.42020E+02-5.04236E-04 9.19695E-04-4.28119E+00 8.50231E-06 2.77358E+02
 -1      1011-9.10570E+02 9.14806E-04-9.93686E-04 3.13277E+01 8.46676E-04-1.12046E+02
 -1      1012-8.07466E+02-3.89386E+02 5.37129E+02 6.09531E+02-2.01515E+02 2.70732E+02
 -1      1013 3.00906E+01 2.57402E+01-4.07936E+01 1.82866E+01 1.56147E+01 8.45978E+00
 -1      1014-8.81345E+00 1.69443E+01 8.10370E+00 5.74576E+00-1.23806E+01-8.33424E+00
 -1      1015 4.54842E+00 5.57257E+00-6.66076E+00 3.19100E+00-1.11745E+01-1.88862E+01
 -1      1016-3.27776E+00-5.36832E+00 6.11573E+00-2.83862E+00-1.11668E+01-1.92595E+01
 -1      1017 8.65713E+00-1.66777E+01-8.30419E+00-5.46273E+00-1.23167E+01-8.97163E+00
 -1      1018-2.83581E+01-2.58112E+01 4.01140E+01-1.79687E+01 1.48232E+01 7.85563E+00
 -1      1019 7.03693E+02 3.26384E+02-5.07589E+02-7.59375E+02-2.56204E+02 2.34027E+02
 -1      1020 7.95431E+02-7.76583E-04 9.39037E-04-3.95605E+01 1.19947E-03-7.62851E+01
 -1      1021-7.35393E+02 3.82504E-04-9.95558E-04-1.20841E+01 4.71636E-04 2.46273E+02
 -1      1022-5.91249E+02-9.66012E+01 1.77775E+02 7.57907E+01 4.19732E+01-3.07865E+01
 -1      1023-3.93314E+02-2.29959E+02 3.55551E+02 8.36419E+01-2.44538E+01 7.55533E+01
 -1      1024-1.97514E+02-1.64399E+01 1.47855E+02-1.36336E+02-9.34298E-01-8.11211E+01
 -1      1025-1.09297E+02 6.57428E+01-5.98406E+01-1.92955E+02 6.04211E+01 8.67124E+01
 -1      1026 1.74986E+01 2.41290E+01-7.13364E+00 1.86652E+01-2.53671E+01-3.95185E+00
 -1      1027 6.40960E+00 1.10552E+01-2.11171E+00-2.89849E-01-1.56479E+01-1.57563E+00
 -1      1028-9.73736E-01 1.53005E+01-8.08198E+00 1.35403E+00-1.35345E+01-4.32296E+00
 -1      1029 2.98930E+00 5.97805E+00-4.87328E+00 1.04777E+00-1.55386E+01-1.27871E+01
 -1      1030 1.85799E+00 5.69733E-01-2.06150E+00-4.13660E-01-1.19475E+01-1.83116E+01
 -1      1031-3.13763E+00-2.37596E+00 4.05923E+00-4.15015E+00-1.29972E+01-1.62055E+01
 -1      1032-4.36656E+00-4.26998E+00 8.76340E+00-3.65353E+00-1.40946E+01-1.99276E+01
 -1      1033-7.15232E+00-1.13574E+01-4.79276E-01-1.18554E+01-1.28024E+01-1.33519E+01
 -1      1034 9.05465E+00-1.19294E+01-1.95787E+01-1.15371E+01-2.11158E+01-8.80630E+00
 -1      1035-1.45630E+01-3.37730E+01 4.79775E+01-1.31007E+01-2.60786E+00 7.99569E+00
 -1      1036-5.95505E+01-1.27194E+00 6.88558E+01 6.09730E+00 2.75936E+01 5.27735E+00
 -1      1037 7.38235E+02-2.99360E+02-1.25218E+02-5.74518E+02-2.19134E+02 2.37648E+02
 -1      1038 1.27164E+03-2.77454E+02-3.98162E+02-5.57595E+02-5.47329E+01-2.47462E+02
 -1      1039 1.49338E+03-1.40516E+02-6.71107E+02-8.60678E+02-3.42720E+01 1.70491E+02
 -1      1040 1.27648E+03-2.38659E+01-3.35553E+02-5.03715E+02-3.19518E+01 1.38240E+00
 -1      1041 1.21542E+03-2.45710E-04 9.50316E-04-5.59469E+01-9.02855E-04-2.32284E+01
 -1      1042-6.76976E+02 2.32680E-04-5.59946E-04-4.07798E+00-6.12697E-04 1.18220E+02
 -1      1043-4.33954E+02-7.30151E+01 3.02675E+02-1.28841E+01 5.07196E+01 8.69054E+01
 -1      1044-2.26949E+02 9.55195E+01-3.29957E+01-1.22332E+02 7.11329E+01 7.76068E+01
 -1      1045-6.10247E+01 1.66013E+01 3.59351E+01-1.35558E+01-1.86806E+01 1.46733E+01
 -1      1046 2.03103E+01 1.02682E+01-1.82348E+01 8.81676E+00-1.08939E-02 2.36698E+00
 -1      1047-1.23587E+00 4.82124E-02 5.09341E+00-5.05359E+00-8.84606E+00-2.17390E+01
 -1      1048-9.73015E+00-6.39330E+00-2.53104E+00-1.29918E+01-9.07464E+00-2.03405E+01
 -1      1049-3.73655E+01 1.01560E+01 4.88948E+01-2.02438E+01-3.60656E+00 7.51707E+00
 -1      1050 1.15778E+02 6.92843E-01-9.35628E+01 3.95383E+01 7.98943E+01 3.15004E+01
 -1      1051 9.37480E+02-5.01339E+02-6.00768E+01-5.93714E+02-1.08041E+02 4.55839E+02
 -1      1052 1.53974E+03-2.91027E+02-7.23663E+02-6.01720E+02-6.68276E+01 9.50949E+01
 -1      1053 1.66763E+03 6.95543E-04 1.33877E-03-2.82636E+01 1.14143E-03 2.18606E+02
 -1      1054-6.25208E+02 9.02154E-05-5.41329E-04 1.44120E+01 3.11322E-04 5.53389E+01
 -1      1055-6.04954E+02 3.50372E+00 1.24899E+02 2.56097E+00 3.85352E+01 2.31542E+01
 -1      1056-4.83923E+02-3.56645E+00 2.49799E+02-5.90080E+00-1.62006E+01 2.11477E+01
 -1      1057-3.42979E+02 8.58352E+01 1.21824E+02-9.49607E+00 1.75800E+01-1.41467E+01
 -1      1058-2.83034E+02 2.24407E+02-6.14999E+00 6.41603E+00-3.35387E+01 8.52512E+01
 -1      1059-1.94707E+02 2.37715E+02-1.77524E+01 1.35470E+02 1.68357E+02-2.05032E+00
 -1      1060-1.45938E+02 3.18078E+02-2.93559E+01 1.81022E+02 8.06288E+01 7.25090E+01
 -1      1061-9.34884E+01 1.10556E+01 5.90667E+01 2.51716E+01-5.67396E+01-1.18053E+01
 -1      1062 2.14977E+01 3.34599E+01 2.27684E+01 3.61144E+01-3.25300E+01-3.48907E+01
 -1      1063 6.05597E+01-1.75016E+01-2.97725E+01-2.19216E+01-3.13670E+00 1.92516E+01
 -1      1064-1.50015E+01-6.36608E+00-7.26924E-01-1.76782E+01-1.08113E+00-9.30420E-01
 -1      1065-1.12926E+01-1.28928E+00 1.65038E+01-4.97540E+00-2.07128E+00-2.33808E+01
 -1      1066-1.13054E+01 5.47352E+00-5.68419E+00-6.35806E+00-5.99979E+00-1.88522E+01
 -1      1067-5.98571E+00 7.55350E+00-2.42978E+01-1.15693E+01-7.37429E+00-2.92188E+01
 -1      1068 1.70152E+01-2.99246E+01 4.48088E+01-2.75622E+01 5.88572E+00-2.09287E+00
 -1      1069-1.19423E+02-9.59815E+01 1.48920E+02-1.12326E+02 5.15126E+01 5.83387E+01
 -1      1070-3.71875E+01 6.70700E+01-1.56315E+02 3.16976E+01-4.20193E+01-6.53844E+01
 -1      1071 1.95816E+02 5.82881E+01-3.34704E+02 1.47121E+02 1.40519E+02-3.46382E+01
 -1      1072 4.89532E+02-7.18855E+02-5.71693E+01 3.82507E+02-4.05419E+02 2.81692E+02
 -1      1073 7.21121E+02-7.80486E+02-2.60544E+01 2.12377E+02-3.40169E+02 8.21899E+01
 -1      1074 1.20093E+03-8.37734E+02 5.06309E+00-2.52108E+02-8.51459E+01 1.55350E+02
 -1      1075 1.33130E+03-4.77878E+02-3.85577E+02-3.86183E+02-1.20971E+01-3.21794E+01
 -1      1076 1.54879E+03-2.12265E+02-7.76219E+02-4.11156E+02 2.80454E+00 1.62045E+02
 -1      1077 1.88637E+03-5.31297E+01-3.88109E+02-2.19463E+02 3.20064E+01 1.60201E+01
 -1      1078 2.01273E+03 7.68700E-04 1.27451E-03-1.18688E+01-4.22008E-04 7.19224E+01
 -1      1079-6.32986E+02-1.39330E-04-4.20134E-04 1.51025E+00 1.93219E-04 7.72414E+01
 -1      1080-4.53541E+02 4.02640E+01 2.27100E+02 4.27128E+01-1.61044E+01 7.34112E+01
 -1      1081-1.99734E+02 2.09944E+02-4.88712E+00 1.50272E+02 1.45061E+01 4.70965E+01
 -1      1082-5.65419E+01 5.65168E+02-1.98540E+02 3.47147E+02-1.03870E+02 2.07934E+01
 -1      1083 1.69213E+02-1.47876E+02-5.93226E+01-1.04482E+02-1.53197E+02 4.00615E+01
 -1      1084-6.53506E+01-8.35738E+00 3.99507E+01-2.66259E+01-1.17886E+01-5.34670E+01
 -1      1085 3.42675E+00-1.18873E+00-1.79107E+01-4.62250E+00-4.88228E+00-1.85761E+01
 -1      1086-3.33259E+01-1.18751E+01 5.08005E+01-1.39263E+01 8.68499E+00-9.77117E+00
 -1      1087 9.52622E+01-2.82746E+01-1.60405E+02 1.33777E+01-5.21568E+01-6.53554E+01
 -1      1088-3.06650E+02-4.76288E+02 5.64074E+02-4.50739E+02 1.32311E+02 4.48104E+01
 -1      1089 2.64600E+02-1.31775E+03 4.83173E+02 6.39009E+02 3.04771E+02 1.23350E+02
 -1      1090 8.66911E+02-7.69232E+02 7.59985E+00 1.47319E+02-2.89759E+01 1.61632E+02
 -1      1091 1.57204E+03-2.14196E+02-7.67245E+02-1.84077E+02 1.19656E+01 1.91722E+02
 -1      1092 2.20187E+03 5.67564E-04 1.41940E-03-1.80505E+01-5.26517E-05 2.98316E+02
 -1      1093-6.28080E+02-1.02551E-04-3.50932E-04-7.31106E+00-4.25518E-04 7.58713E+01
 -1      1094-5.60587E+02 2.62062E+01 1.02201E+02 3.91152E+01-4.55432E+00-1.16200E+01
 -1      1095-3.85683E+02 6.70220E+01 2.04401E+02 7.39309E+01 3.92946E+01 6.10972E+01
 -1      1096-2.33110E+02 8.33647E+01 1.00388E+02 1.71036E+02-2.08852E+00-1.62537E+01
 -1      1097-1.03716E+02 1.19559E+02-3.62454E+00 2.88464E+02 5.33182E+01 9.40803E+01
 -1      1098-1.84182E+00 2.88081E+02-1.85674E+02 5.02468E+02-6.78939E+01-4.35108E+01
 -1      1099 5.02888E+02 3.73543E+02-3.67724E+02 8.55579E+02-7.65883E+01 2.07630E+02
 -1      1100 2.43141E+03-6.58261E+02-4.18006E+02 1.93840E+02 1.09002E+02 2.64009E+02
 -1      1101 1.67645E+03-6.48902E+02-3.15576E+02-5.39745E+02 6.37318E+01 4.32155E+02
 -1      1102 3.67430E+02-6.05672E+01-1.71473E+02-7.27599E+01 2.55732E+01-1.16713E+02
 -1      1103-3.62524E+01 2.29620E+01 7.42484E+01 3.37017E+01 1.12958E+00-5.15861E+00
 -1      1104-1.77371E+01 1.83165E+01-7.03923E-01 3.21447E+01 2.46247E+00 1.03990E+01
 -1      1105-2.56171E+01 2.42109E+00-2.01231E+01-1.75158E+01-7.69512E+00-1.99005E+01
 -1      1106-1.79407E+01-1.84422E+01 2.70079E+01-2.67246E+01 5.42538E+00 1.71552E+01
 -1      1107 1.09164E+01-5.07674E+01 6.89450E+01-4.68413E+00 9.67972E+00 1.36776E+01
 -1      1108 9.62196E+00 9.43531E+01-8.39551E+01 5.24691E+01 2.69714E+01 7.69560E+01
 -1      1109 7.17119E+01 1.60762E+02-3.38098E+02 1.49507E+02-3.14457E+01 1.23944E+02
 -1      1110-6.27921E+02-2.39490E+02 5.97695E+02-4.41150E+02 2.52339E+01 5.35690E+01
 -1      1111-2.90824E+03-2.27079E+03 1.59028E+03-2.72436E+03 8.42293E+02 1.01107E+03
 -1      1112-4.57512E+03-1.88324E+03 1.69115E+03-1.82776E+03-6.55850E+02 1.39983E+02
 -1      1113-1.09104E+03-1.09529E+03 1.02352E+03 1.17811E+03 7.48486E+01 1.73370E+02
 -1      1114 1.40725E+02-9.70747E+02 5.16826E+02 8.45632E+02-1.01201E+02 3.52205E+01
 -1      1115 5.56057E+02-6.98316E+02 1.01368E+01 4.96179E+02 9.05964E+01 1.65109E+02
 -1      1116 1.01888E+03-4.55232E+02-3.74067E+02 1.96448E+02-8.67645E+00-7.96637E+01
 -1      1117 1.51893E+03-2.54535E+02-7.58271E+02 1.98226E+01-7.45357E+01 2.54285E+02
 -1      1118 2.06619E+03-1.02271E+02-3.79135E+02 1.53306E+01 1.93513E+01-1.71862E+01
 -1      1119 2.28900E+03 6.02814E-04 1.28191E-03-1.53460E+01 1.00273E-03 2.70812E+02
 -1      1120-5.43234E+02-1.22852E-04-3.16970E-04 1.83124E+01 3.75835E-04 5.83079E+01
 -1      1121-3.54763E+02 7.69879E+01 1.71336E+02 1.09715E+02-6.57250E+00 7.36739E+01
 -1      1122 7.30224E+01 1.27250E+02-6.94585E+01 2.85649E+02-2.33383E+01 3.07255E+01
 -1      1123 6.24863E+02-8.70333E+01-2.40314E+02 6.03160E+02 1.61589E+02 3.08053E+02
 -1      1124 1.49558E+03-7.55428E+02-2.44821E+02-9.90163E+02 2.34568E+02-1.37056E+02
 -1      1125-2.32463E+03-3.88622E+03 1.65231E+03-2.19361E+03 6.42898E-01-5.98686E+02
 -1      1126-9.22410E+02-9.43930E+02 7.92542E+02 1.31643E+03 2.06250E+02 7.25082E+02
 -1      1127 2.17933E+02-6.64850E+02 2.08430E+02 6.27515E+02-6.21330E+01 2.22095E+02
 -1      1128 1.48034E+03-3.15631E+02-7.03238E+02 1.77339E+02 4.94631E+01 2.48927E+02
 -1      1129 2.12780E+03 5.67511E-04 1.30098E-03 6.18187E+01-1.25025E-03 2.31446E+02
 -1      1130-4.41683E+02-1.24450E-04-4.29366E-04 4.38185E+01-2.04855E-04-7.48961E+01
 -1      1131-4.49012E+02 4.45768E+01 6.91347E+01 1.02996E+02 2.76560E+01-2.93546E+01
 -1      1132-3.25304E+02 7.65181E+01 1.38270E+02 1.47649E+02-1.53758E+01 6.51729E+01
 -1      1133-6.20865E+01 1.31621E+02 1.48831E+00 2.03913E+02 4.89015E+00-8.87797E+01
 -1      1134 1.74504E+02 1.37840E+02-1.35293E+02 2.69646E+02 3.92243E+00 1.18625E+02
 -1      1135 3.35511E+02-3.38494E+01-1.24098E+02 2.81858E+02-4.95763E+01-5.43211E+01
 -1      1136 6.37014E+02-2.70467E+02-1.12904E+02 2.69049E+02-2.88082E+01-1.66447E+02
 -1      1137 4.42828E+02-2.63834E+02-6.71290E+01-1.18093E+02 3.68684E+01 2.74382E+02
 -1      1138-1.75935E+01-3.46452E+01-2.13543E+01-4.46011E+02 1.55962E+02-4.86455E+01
 -1      1139-1.20517E+02-2.91170E+00 6.71185E+00-1.01193E+02 1.47817E+00 1.29205E+01
 -1      1140-7.63723E+01 1.40999E+01 3.47781E+01-5.41786E+01-3.21635E+01-5.20638E+01
 -1      1141-4.91930E+02 1.12519E+02 6.18788E+01 2.96875E+02 2.29530E+02-2.42261E+02
 -1      1142-8.83231E+02-1.27597E+00 5.03854E+02 6.38300E+02-6.02050E+01 2.44666E+02
 -1      1143-6.67141E+02-1.30492E+03 9.45828E+02 8.97961E+02 1.03383E+02 7.68590E+01
 -1      1144-8.49764E+02-9.08590E+02 7.53698E+02 1.13142E+03 6.47699E+02 3.72708E+02
 -1      1145-9.73481E+02-8.69542E+02 5.61569E+02 1.35961E+03-3.13423E+02-3.99792E+02
 -1      1146-4.83023E+02-8.25809E+02 4.84147E+02 1.12491E+03-2.16312E+01-3.18093E+01
 -1      1147-1.75420E+02-7.09377E+02 4.06725E+02 8.20476E+02 6.95475E+01 1.76083E+02
 -1      1148 5.70391E+02-4.47197E+02-1.20738E+02 5.05266E+02 9.19038E+01-2.23902E+02
 -1      1149 1.42228E+03-3.71931E+02-6.48203E+02 3.25839E+02-6.78217E+01 2.38013E+02
 -1      1150 1.88462E+03-1.91260E+02-3.24101E+02 2.76883E+02-1.11227E+02-7.86571E+01
 -1      1151 1.88139E+03 3.76137E-04 1.48805E-03 1.53059E+02 1.14400E-03-2.47521E+02
 -1      1152 2.07289E+02 1.46466E+01-1.20342E+02 1.90140E+02 1.22423E+02 1.40464E+02
 -1      1153 3.61212E+02-1.48369E+02-6.59666E+01 1.65113E+02-4.66118E+01-6.76651E+01
 -1      1154 3.56175E+01-4.04044E-01-5.82575E+00-1.72814E+02-5.46567E+01-1.21931E+02
 -1      1155 1.19902E+01 1.00353E+01 2.62348E+01-3.95033E+01-3.72937E+01 4.94354E+01
 -1      1156-4.43372E+02 7.88690E+01 2.51102E+00 3.37641E+02 1.14428E+02-2.61546E+02
 -1      1157-6.60984E+02-1.30556E+02 4.42930E+02 8.51126E+02 1.36335E+01-1.77213E+02
 -1      1158-8.20576E+02-4.52711E+02 4.80382E+02 1.13899E+03 3.85189E+00-5.73944E+01
 -1      1159-4.61769E+02-7.31513E+02 4.63739E+02 7.54101E+02-2.94735E+02 2.74153E+02
 -1      1160 2.67568E+02-6.16155E+01-1.05390E+02 1.19816E+02-1.41507E+02-5.44838E+01
 -1      1161 2.87479E+02-2.78609E+01-6.22098E+01 1.14757E+02 3.93221E+01 1.51214E+01
 -1      1162 1.27250E+02-1.04830E+02-1.90292E+01 6.03817E+01 5.67731E+01 2.92482E+01
 -1      1163 1.12223E+02-1.62946E+02-4.66323E+00-1.99854E+01-6.78456E+01-5.36357E+01
 -1      1164 1.23650E+02-1.11604E+02 9.70281E+00-6.54336E+01 4.07937E+01 8.26129E+01
 -1      1165 3.12219E+01-9.93102E+01 1.36970E+01-4.69641E+01-4.55401E+01 2.42996E+01
 -1      1166 2.40981E+00-8.13155E+01 1.76913E+01-9.55085E+00-6.17137E+00-6.25484E+01
 -1      1167-3.96045E+02 6.70395E+02-5.68549E+01 5.00247E+02 3.08384E+02-2.77514E+01
 -1      1168-4.14730E+02 6.64639E+02-5.84111E+01 5.32119E+02 3.30651E+02 5.62472E+01
 -1      1169-5.68804E+02 5.89042E+02-5.99676E+01 6.77381E+02 9.54524E+01 7.87249E+01
 -1      1170-5.70357E+02 2.34149E+02 1.69614E+02 7.26997E+02 2.64619E+02-9.86226E+01
 -1      1171-6.33092E+02-2.10318E+02 3.99195E+02 8.44619E+02 1.35323E+02 7.18763E+01
 -1      1172-7.95801E+02-4.46179E+02 4.59974E+02 7.78849E+02 2.29611E+02-2.51466E+02
 -1      1173-5.65370E+02-4.68079E+02 5.20753E+02 6.03268E+02 2.68036E+02 1.88004E+02
 -1      1174 3.63741E+01-1.73398E+02 5.03358E+01-6.15258E+00 1.92826E+00 3.58305E+01
 -1      1175 7.53449E+01-1.88154E+02 5.66241E+01-6.80340E+01 7.61476E+00-4.12217E+00
 -1      1176 3.93948E+01-2.23185E+02 5.77095E+01-5.08722E+01 4.44805E+01-3.05743E+00
 -1      1177-4.82349E+02 1.91156E+03-4.84267E+02 2.21186E+02 3.53956E+01 1.90998E+01
 -1      1178-4.42398E+02 1.11917E+03-3.85739E+02 2.94732E+02 2.81247E+01-1.50045E+01
 -1      1179-4.17405E+02 5.53283E+02-1.33424E+02 4.60290E+02-2.44016E+02 5.64301E+01
 -1      1180 7.39567E+01-2.50521E+02 1.19701E+02-1.50555E+01-2.69965E+01-3.96499E+01
 -1      1181 4.93823E+01-2.38832E+02 1.11623E+02-3.03970E+01-2.23924E+01 1.19809E+01
 -1      1182 3.30675E+01-2.22688E+02 1.03545E+02-5.34496E+01-3.72149E+01-6.26723E-01
 -1      1183 4.56878E+01-2.18446E+02 1.00637E+02-8.66282E+01-4.61770E+00-2.95443E+00
 -1      1184 4.15474E+01-2.17701E+02 9.77277E+01-1.29351E+02-3.01852E+01-9.52476E+00
 -1      1185 4.52039E+01-8.45524E+01 2.57862E+01-1.78754E+02-2.06704E+01-4.48202E+01
 -1      1186 1.64949E+02 3.16611E+01-4.61554E+01-2.20823E+02-6.92574E+01-9.90676E+01
 -1      1187 3.18760E+02 1.16339E+02-2.03423E+02-4.89852E+02 1.57528E+02-2.92088E+01
 -1      1188 3.20284E+02 3.03477E+02-3.60690E+02-8.52148E+02 1.28417E+02-1.39719E+02
 -1      1189 3.95604E+01 1.02476E+03-6.36186E+02-1.08527E+03 2.64157E+02-3.89578E+02
 -1      1190-4.49816E+02 2.08901E+03-9.11681E+02-6.97492E+02 2.54456E+02-8.32557E+01
 -1      1191-4.81138E+02 1.84339E+03-8.11596E+02-2.38672E+02 1.51117E+02-5.10834E+00
 -1      1192-3.22333E+02 1.48335E+03-7.11511E+02-1.46365E+01 2.68265E+02-4.41438E+01
 -1      1193-3.31006E+02 1.47501E+03-6.88778E+02 1.52958E+02 2.26438E+02 4.26423E+01
 -1      1194-3.98881E+02 1.47100E+03-6.66045E+02 3.03955E+02 2.75027E+02-5.04521E+01
 -1      1195 3.34227E+01-2.98028E+02 5.98505E+01 1.28714E+01 3.00862E+00-1.67799E+01
 -1      1196 1.15651E+01-2.68052E+02 5.17726E+01-2.86089E+01 5.31682E+00 3.68976E+00
 -1      1197 1.31418E+01-1.78365E+02 4.88638E+01-7.63395E+01-5.01758E+00 1.05332E+01
 -1      1198 3.85262E+01 2.26814E+01-2.30775E+01-1.33596E+02 1.89886E+01 7.92536E+01
 -1      1199 1.27992E+02 4.96665E+02-1.80345E+02-4.29340E+02-7.76351E+01-1.66945E+01
 -1      1200-1.39088E+02 1.78315E+03-4.55840E+02-5.01939E+02-2.28169E+01-3.48889E+01
 -1      1201-1.17272E+02 2.05487E+03-3.55754E+02-3.42951E+00-7.73912E+01 6.88827E+01
 -1      1202-1.98867E+02 1.89012E+03-3.33022E+02 2.91577E+02-6.02856E+01-9.20915E+01
 -1      1203-1.88411E-05-2.95435E+02-1.79044E-04 1.76153E+01 2.99396E+01 2.72052E-04
 -1      1204-1.02374E-04-3.00884E+02-2.06502E-04 5.75357E+00-2.66630E+01-1.53075E-04
 -1      1205-1.52512E-04-2.92511E+02-2.05125E-04 3.56427E-02-1.97036E+01 2.01089E-05
 -1      1206-1.04294E-04-2.40472E+02-1.86177E-04-4.45977E+00-4.03839E+01 1.84415E-04
 -1      1207-1.28836E-04-1.69063E+02 3.86391E-07-1.00453E+01 6.65042E+00-1.27709E-04
 -1      1208-9.79785E-05-8.42307E+01-4.77044E-05-1.41320E+01 1.47780E+01 2.03103E-04
 -1      1209-5.30731E-04 1.37017E+01 3.09332E-04-2.33826E+01 8.12055E+01 4.96191E-04
 -1      1210-8.47689E-04 3.00548E+02 3.76331E-04-1.29676E+01 9.70061E+00-2.16601E-04
 -1      1211 4.86468E-05 6.89853E+02 9.77574E-04-1.62331E+01 2.76273E+02-6.26611E-05
 -1      1212-1.44321E-05 1.13135E+03 1.17694E-03-7.35258E+01 2.01162E+01 1.47491E-03
 -1      1213 1.69612E-05 1.69655E+03 7.00860E-04-7.39398E+01-1.07714E+02-8.18604E-05
 -1      1214 1.16033E-03 2.07253E+03 1.50145E-03-2.84188E+01 3.67998E+02 6.70542E-04
 -1      1215 1.17188E-03 2.31793E+03 1.51931E-03-7.79880E+00 2.29665E+02 8.01036E-04
 -1      1216 6.14138E-04 2.12121E+03 1.27423E-03 6.58939E+01 2.04586E+02-1.68479E-03
 -1      1217 3.83419E-04 1.83657E+03 1.35151E-03 1.56556E+02-3.02858E+02 1.55482E-03
 -1      1218 8.48873E+02 5.66344E+02 1.79596E+02 8.34694E+02 1.43576E+03 1.72942E+03
 -1      1219 4.34696E+01-9.62420E+01 5.08092E+01-5.43872E+01 2.27550E+01 7.92037E+01
 -1      1220 3.14707E+01 1.52258E+01 4.55862E+01 6.78637E+00 5.72356E+01 6.39916E+01
 -1      1221 2.07405E+01-4.59053E+00-3.63739E+01 1.04800E+01 6.33747E+00 4.96424E+00
 -1      1222-1.12177E+01-7.82649E+00-3.03440E+01-7.77249E+00 7.21832E+00-2.82781E+01
 -1      1223-4.76196E+02 2.17418E+02-2.94646E+01 1.52517E+02 7.07641E+01 6.43256E+02
 -1      1224-1.18267E+02 3.61506E+01 3.12526E+01-5.68291E+01 1.11134E+02 3.22331E+01
 -1      1225 9.59528E+01 7.58177E+01-1.44062E+02 1.16949E+02-7.36015E+01-9.56950E+01
 -1      1226 2.42462E+01 6.64233E-01 2.97161E+00 2.88721E+01 5.91923E+00-6.19758E+00
 -1      1227 1.38682E+01 1.48338E+00-1.40391E+01 1.15363E+01-6.46857E+00-1.72276E+01
 -1      1228-3.68399E+01 6.25496E+00 2.58922E+01 2.05223E+01-1.51910E+01-4.69731E+01
 -1      1229 4.63501E+01-1.64010E+00 1.51981E+01-1.34625E+01-5.98510E+01 1.73953E+01
 -1      1230 2.03719E+01 4.07055E+01 2.82931E+01-7.93966E-01 6.29008E+01 7.23447E+01
 -1      1231 1.72249E+00 2.96702E+01-1.23936E+00 2.81085E+01-1.86166E+00 5.71174E+00
 -1      1232 1.34208E+01 1.14657E+01-7.87681E+00 1.18934E+01-8.84970E+00-1.41753E+01
 -1      1233-9.27900E-01-2.11046E+00 9.11737E-01 2.15803E+00-1.15136E+01-1.60465E+01
 -1      1234-2.05395E+00-2.13870E+01 1.24381E+01-1.90562E+00-1.43697E+01-5.25375E+00
 -1      1235-1.99059E+00-3.10150E+01 2.13338E+01-1.00354E+01-1.46679E+01 2.91231E+01
 -1      1236 3.05978E+00 3.27731E+01-2.30476E+01 1.12580E+01-1.39152E+01 3.24305E+01
 -1      1237 2.89154E+00 2.24260E+01-1.30105E+01 1.89269E+00-1.41660E+01-4.14695E+00
 -1      1238 3.43908E+00 2.33658E+00-1.93986E+00-1.57860E+00-1.16574E+01-1.57592E+01
 -1      1239-1.09904E+01-1.11676E+01 6.85151E+00-1.11179E+01-8.93489E+00-1.44686E+01
 -1      1240-8.15943E-01-2.86039E+01 8.12029E-01-2.67866E+01-1.72281E+00 4.69044E+00
 -1      1241-1.96246E+01-3.93086E+01-2.86329E+01 2.17187E-01 6.14450E+01 6.93434E+01
 -1      1242-5.11060E+01 1.49072E+00-1.78855E+01 1.42403E+01-6.58178E+01 1.92833E+01
 -1      1243 4.18913E+01-7.99494E+00-2.82353E+01-2.18091E+01-1.75136E+01-4.99879E+01
 -1      1244-1.12929E+01-1.52672E+00 1.28864E+01-1.08820E+01-6.33396E+00-1.62223E+01
 -1      1245-2.15517E+01-8.62262E-01-3.92467E+00-2.78404E+01 5.74677E+00-7.21289E+00
 -1      1246-9.13697E+01-7.60134E+01 1.40486E+02-1.13380E+02-7.41636E+01-9.27691E+01
 -1      1247 1.13998E+02-3.48308E+01-3.31649E+01 5.58462E+01 1.04663E+02 3.00146E+01
 -1      1248 5.25258E+02-2.49740E+02 3.44476E+01-1.62330E+02 9.20752E+01 7.07368E+02
 -1      1249 1.43146E+01 9.28603E+00 3.35817E+01 7.79226E+00 8.13918E+00-3.01795E+01
 -1      1250-1.79436E+01 2.68371E+00 3.76858E+01-1.14647E+01 7.56120E+00 6.86033E+00
 -1      1251-2.88299E+01-1.62842E+01-4.43096E+01-5.66317E+00 5.71696E+01 5.98098E+01
 -1      1252-3.97739E+01 9.60596E+01-4.85821E+01 5.39114E+01 2.26596E+01 7.79267E+01
 -1      1253-8.07535E+02-5.80178E+02-1.71239E+02-8.16695E+02 1.42896E+03 1.66461E+03
 -1      1254 2.38133E+02 8.58226E+01 2.19944E+02 2.93002E+02 7.95276E+02 9.76302E+02
 -1      1255 2.69544E+02 5.63935E+00-1.16680E+02 1.81629E+02 5.69382E+01 1.69849E+02
 -1      1256 1.74790E+02-4.41392E+01-3.89987E+01 4.51214E+01 4.31134E+01 8.10142E+01
 -1      1257 6.65939E+01-3.72487E+01-5.07898E+01 1.31663E+01-7.73269E+00 3.52013E+01
 -1      1258 6.90155E+01-1.60992E+01 1.88995E+01 7.01881E+00 1.97272E+01 2.98363E+01
 -1      1259 3.86801E+01-1.06628E+01-4.69791E+00 1.02378E+01 8.75588E+00 1.91130E+01
 -1      1260 1.88289E+01-5.78975E+00-2.64144E+01 6.32006E+00 1.12531E+01 6.69512E-01
 -1      1261 9.40556E+00 2.19174E+00 8.25937E+00-2.95209E+00-8.64325E+00-9.14378E+00
 -1      1262-6.02959E+01 4.77370E+00-5.93282E-01 1.45298E+01-2.44447E-01-2.26591E+01
 -1      1263-1.71609E+02 2.90283E+01 8.65509E+01 3.99675E+01 7.35509E+00 1.75344E+01
 -1      1264-2.17611E+02 1.58477E+02-3.84403E+01 5.32761E+01 6.08958E+01 3.79959E+02
 -1      1265 3.25677E+01 1.58766E+02-5.86272E+01 1.74865E+02 1.79238E+02 7.26389E+01
 -1      1266 9.73549E+01 2.53737E+00 9.65489E+00 9.28071E+01 4.64486E+01 5.93055E+01
 -1      1267 7.01095E+01-4.16648E+00-3.06163E+01 3.15085E+01-5.64677E+00-2.18451E+01
 -1      1268 1.59023E+01-2.74631E+00-1.45683E+00 1.25022E+01 1.60099E+00-1.73380E+01
 -1      1269-1.02916E+01 2.24343E+00-1.16422E+01 2.45584E+01 1.38221E+01 1.69255E+01
 -1      1270-3.63109E+01 9.49544E+01-5.48548E+01 2.38123E+01-4.28864E+01 2.99456E+01
 -1      1271-4.56558E+01 1.42939E+02-4.51788E+01 3.86451E+01 1.08520E+02 5.01443E+01
 -1      1272 7.35117E+00 9.77703E+01 2.76192E+00 8.54063E+01 4.96492E+01 6.73950E+01
 -1      1273 6.28456E+01 5.23766E+01-9.31365E+01 1.14516E+02-5.06712E+01-6.13592E+01
 -1      1274 5.14164E+01 2.71691E+01-3.71438E+01 7.47962E+01-7.64227E+00-2.45915E+01
 -1      1275 4.27322E+01 1.03197E+01-1.32977E+01 4.72165E+01 7.54327E+00-5.62407E+00
 -1      1276 2.91727E+01 5.20026E+00-1.02771E+01 3.05707E+01 2.48218E+00-4.55698E+00
 -1      1277 1.42672E+01 1.09879E+00-1.05046E+01 1.73330E+01-6.62476E+00-1.45267E+01
 -1      1278 9.97440E-02 8.31496E-01-1.30521E+00 1.91386E+01-5.93281E+00-1.49324E+01
 -1      1279-1.83493E+01-1.52126E+00 1.64525E+01 1.96776E+01-5.77783E+00-2.70068E+01
 -1      1280-3.94787E+00-2.33641E+01 8.84103E+00 5.80060E+00-2.27768E+00 3.45589E+01
 -1      1281 1.08284E+01 4.85090E+00 1.54566E+01-7.82341E-01-5.46790E+01 1.70105E+01
 -1      1282-3.75988E+01 7.21082E+01-4.66819E+01 1.84861E+01 4.79303E+01-1.70084E+01
 -1      1283 3.43619E+01 5.01381E+01-4.09716E+01 7.23009E+01-1.87426E+01-1.09433E+01
 -1      1284 3.02501E+01 1.63830E+01-1.83280E+01 3.14315E+01-5.95688E+00-1.46086E+01
 -1      1285 6.28112E+00 3.75423E-01-2.70971E+00 1.22254E+01-5.37928E+00-1.46296E+01
 -1      1286-1.14315E+01-1.63664E+01 1.43043E+01 6.00001E+00-6.75821E+00-9.92485E+00
 -1      1287 1.04809E+01-3.19224E+01 8.33321E+00 8.05528E+00-2.22199E+01-1.36415E+01
 -1      1288-1.75217E+01 7.60316E+01 7.93240E+00 5.88976E+00 3.01678E+01 3.09393E+01
 -1      1289-3.44776E+00 7.55680E+01-3.23083E+01 3.05529E+01-1.45092E+01-5.15425E+00
 -1      1290 1.36496E+01 4.79208E+01-1.76913E+01 4.53809E+01-1.16441E+00 6.61978E+00
 -1      1291 2.03891E+01 3.12962E+01-2.03790E+01 2.92298E+01-1.01509E+01-8.20353E+00
 -1      1292 2.10674E+01 1.83444E+01-1.32337E+01 1.93786E+01-8.64266E+00-1.26693E+01
 -1      1293 1.00553E+01 6.66009E+00-6.23017E+00 1.14864E+01-9.30315E+00-1.07466E+01
 -1      1294-1.30929E+00-3.69326E+00 1.59607E+00 3.49694E+00-8.48640E+00-1.27196E+01
 -1      1295-5.88683E+00-1.48451E+01 8.20949E+00-1.72564E+00-9.58596E+00-8.13385E+00
 -1      1296-5.28292E+00-2.76632E+01 1.46554E+01-1.68525E+00-1.24211E+01-4.58129E+00
 -1      1297 3.69733E+00-3.88571E+01 1.20151E+01-2.10597E+00-1.01692E+01-2.21826E-01
 -1      1298 1.08814E+01-4.14073E+01 1.97720E+01-4.31605E+00-7.57583E+00 1.96524E+01
 -1      1299-1.43278E+01 5.22753E+01-6.97224E+00 7.45728E+00 1.42767E+01 1.45073E+01
 -1      1300 9.39607E+00 3.88127E+01-1.43208E+01 2.24462E+01-3.26698E+00 4.67203E+00
 -1      1301 1.20575E+01 1.17287E+01-8.83003E+00 8.37429E+00-7.38716E+00-1.37537E+01
 -1      1302-8.49818E+00-1.12816E+01 7.31133E+00-7.38183E+00-7.37994E+00-1.39207E+01
 -1      1303-7.83954E+00-3.75155E+01 1.33140E+01-2.14421E+01-3.31071E+00 3.66264E+00
 -1      1304 1.37197E+01-5.04522E+01 6.39700E+00-7.13468E+00 1.34982E+01 1.34355E+01
 -1      1305-1.13253E+01 4.32267E+01-2.08752E+01 4.43451E+00-7.05815E+00 2.16900E+01
 -1      1306-3.15776E+00 4.05118E+01-1.29516E+01 2.08867E+00-1.06431E+01-6.52858E-03
 -1      1307 6.95505E+00 2.90152E+01-1.57788E+01 1.81502E+00-1.24433E+01-3.73696E+00
 -1      1308 8.68960E+00 1.55984E+01-9.59385E+00 2.32718E+00-9.62795E+00-7.99138E+00
 -1      1309 5.01786E+00 4.03997E+00-3.11682E+00-2.66576E+00-8.56763E+00-1.24947E+01
 -1      1310-6.45149E+00-6.35107E+00 4.71774E+00-1.04866E+01-9.36751E+00-1.07363E+01
 -1      1311-1.74297E+01-1.78817E+01 1.16964E+01-1.81990E+01-8.68200E+00-1.28988E+01
 -1      1312-1.76249E+01-3.04170E+01 1.89735E+01-2.78610E+01-1.00939E+01-8.30225E+00
 -1      1313-1.20029E+01-4.64114E+01 1.66365E+01-4.34821E+01-1.17587E+00 5.77074E+00
 -1      1314 3.89730E+00-7.34947E+01 3.11337E+01-2.91830E+01-1.48043E+01-5.34718E+00
 -1      1315 1.69530E+01-7.39393E+01-8.35812E+00-5.46185E+00 2.91772E+01 2.92858E+01
 -1      1316-1.12555E+01 3.38088E+01-8.34782E+00-8.95196E+00-2.43402E+01-1.49083E+01
 -1      1317 1.41419E+01 1.69637E+01-1.59301E+01-6.21715E+00-7.06499E+00-9.57514E+00
 -1      1318-2.50974E+00-3.54416E-01 1.24020E+00-1.15839E+01-5.33769E+00-1.43606E+01
 -1      1319-2.64803E+01-1.62444E+01 1.67998E+01-2.99910E+01-5.93070E+00-1.48221E+01
 -1      1320-3.18304E+01-4.91256E+01 3.92408E+01-6.97579E+01-1.87318E+01-1.12263E+01
 -1      1321 3.65535E+01-6.97894E+01 4.59787E+01-1.72389E+01 4.50655E+01-1.60463E+01
 -1      1322-1.19844E+01-6.79278E+00-1.71871E+01 9.49934E-01-5.98593E+01 1.87571E+01
 -1      1323 5.26474E+00 2.51803E+01-9.99431E+00-5.93017E+00-1.36739E+00 3.84779E+01
 -1      1324 2.22164E+01 9.17283E-01-1.84051E+01-2.09068E+01-6.76139E+00-2.82571E+01
 -1      1325 3.76416E+00-1.45843E+00 7.18165E-02-1.95767E+01-6.26406E+00-1.54838E+01
 -1      1326-1.02249E+01-1.44573E+00 9.02788E+00-1.67061E+01-6.63993E+00-1.39484E+01
 -1      1327-2.48544E+01-5.54245E+00 8.89681E+00-2.93454E+01 2.36581E+00-4.54544E+00
 -1      1328-3.86272E+01-1.06088E+01 1.18814E+01-4.53899E+01 7.33552E+00-6.21053E+00
 -1      1329-4.76213E+01-2.73444E+01 3.56177E+01-7.19784E+01-7.81837E+00-2.40676E+01
 -1      1330-5.92190E+01-5.21010E+01 9.03990E+01-1.10506E+02-5.06878E+01-5.99696E+01
 -1      1331-6.26997E+00-9.51091E+01-3.46093E+00-8.29229E+01 4.94678E+01 6.39932E+01
 -1      1332 4.42772E+01-1.41710E+02 4.32248E+01-3.76304E+01 1.02821E+02 4.80246E+01
 -1      1333 4.02871E+01-1.07826E+02 6.20140E+01-2.53311E+01-4.72224E+01 3.38136E+01
 -1      1334 1.36379E+01-3.18344E+00 1.20327E+01-2.68209E+01 1.62767E+01 1.99404E+01
 -1      1335-1.06261E+01 1.73306E+00-5.89257E-02-1.19061E+01 1.62720E+00-1.78603E+01
 -1      1336-6.49513E+01 3.24390E+00 2.90246E+01-3.03395E+01-5.52558E+00-2.15436E+01
 -1      1337-9.34052E+01-3.15856E+00-9.37289E+00-8.88356E+01 4.73754E+01 5.63099E+01
 -1      1338-2.98352E+01-1.64462E+02 6.23288E+01-1.70930E+02 1.72513E+02 6.93393E+01
 -1      1339 2.41332E+02-1.78407E+02 4.26160E+01-5.69743E+01 7.46125E+01 4.18826E+02
 -1      1340 1.91376E+02-3.28961E+01-9.62761E+01-4.35170E+01 8.21597E+00 1.95360E+01
 -1      1341 6.92756E+01-5.80844E+00 4.95193E-01-1.63833E+01 2.44085E-01-2.41025E+01
 -1      1342-5.59219E+00-3.76639E+00-1.07412E+01 3.66436E+00-1.00593E+01-1.02525E+01
 -1      1343-1.36488E+01 4.22511E+00 2.60837E+01-5.90863E+00 1.20934E+01 1.49981E+00
 -1      1344-3.38613E+01 9.24122E+00 4.04263E+00-9.86063E+00 8.85220E+00 1.81740E+01
 -1      1345-6.39610E+01 1.46590E+01-1.91988E+01-6.68914E+00 1.99051E+01 2.72223E+01
 -1      1346-6.25382E+01 3.55714E+01 4.82094E+01-1.29287E+01-8.62341E+00 3.42248E+01
 -1      1347-1.65894E+02 4.27994E+01 3.81605E+01-4.26636E+01 4.26613E+01 7.96561E+01
 -1      1348-2.53003E+02-8.23516E+00 1.08905E+02-1.76294E+02 5.68972E+01 1.64620E+02
 -1      1349-2.20086E+02-9.73693E+01-2.13184E+02-2.86272E+02 7.92324E+02 9.37649E+02
 -1      1350 1.79567E+02 5.03049E+01 1.84499E+01 2.51403E+02 2.60926E+02 3.31128E+02
 -1      1351 2.29530E+02-4.39991E+01-7.61026E+01 9.03483E+01 1.73094E+01 1.40588E+01
 -1      1352 8.69273E+01-2.31782E+01-2.81768E+01 1.95140E+01 2.03415E+00-4.36172E+00
 -1      1353 2.63588E+01-6.57189E+00-9.46983E+00 8.07974E+00 4.29999E+00-8.97120E+00
 -1      1354-7.55721E+01 7.56319E+00 1.90086E+01 2.26272E+01 1.63156E+00-2.81093E+01
 -1      1355-1.80407E+02 1.38936E+02-2.95793E+00 4.50675E+01 3.26513E+01 1.38232E+02
 -1      1356-4.24077E+01 1.90949E+02-6.85694E+01 8.39337E+01 3.70511E+01 2.16292E+01
 -1      1357 7.42864E+01 6.34373E+01-5.50060E+01 1.47390E+02 3.18111E+00 2.04794E+00
 -1      1358 5.95348E+01 1.47886E+01-2.58074E+01 6.09884E+01 5.45928E-01-4.77685E+00
 -1      1359 1.79620E+01 2.18977E+00-8.84256E+00 2.39558E+01-1.04010E+00-6.36301E+00
 -1      1360-1.93075E+01-4.28545E+00 9.39034E+00 2.52962E+01-4.11786E+00-3.75867E+00
 -1      1361 7.21146E+00 2.18969E+00 6.35923E+00 7.00658E+00-3.57164E+01 8.64447E+00
 -1      1362-2.52349E+01 9.69926E+01-3.15304E+01 1.94915E+01 6.55346E-01 4.99277E+00
 -1      1363 1.98355E+01 6.57719E+01-3.08693E+01 5.79003E+01-2.85301E+00 6.14893E-01
 -1      1364 2.70809E+01 2.34883E+01-2.04315E+01 2.58917E+01-4.62337E+00-7.26285E+00
 -1      1365-1.81578E+00-4.55976E+00 2.61352E+00 4.65218E+00-5.55151E+00-7.95040E+00
 -1      1366-8.20754E+00-3.66091E+01 1.74408E+01-3.84444E+00-4.60600E+00-1.12319E+00
 -1      1367 1.40700E+01-5.51221E+01 1.84990E+01-1.67508E+00-6.81845E+00 5.24028E+00
 -1      1368-1.47099E+01 5.76499E+01-1.91919E+01 1.58582E+00-6.98807E+00 5.80031E+00
 -1      1369 1.05049E+01 3.83238E+01-1.90909E+01 4.08230E+00-4.61431E+00-6.50347E-01
 -1      1370 6.67116E+00 5.01162E+00-4.65677E+00-3.56608E+00-5.62265E+00-7.81972E+00
 -1      1371-2.23074E+01-2.28905E+01 1.83499E+01-2.43226E+01-4.64801E+00-7.39796E+00
 -1      1372-1.75986E+01-6.38238E+01 2.92194E+01-5.54659E+01-2.87471E+00 1.58721E-01
 -1      1373 2.44381E+01-9.40103E+01 3.07377E+01-1.84828E+01 1.53158E-02 4.54413E+00
 -1      1374-7.94468E+00-4.11707E+00-6.44705E+00-7.50075E+00-3.93283E+01 9.66407E+00
 -1      1375 2.38988E+01 3.83499E+00-1.10791E+01-2.68833E+01-4.34492E+00-3.21635E+00
 -1      1376-1.24377E+01-2.70024E+00 7.07156E+00-2.31297E+01-1.10979E+00-6.17374E+00
 -1      1377-5.39734E+01-1.51870E+01 2.39625E+01-5.86185E+01 4.52925E-01-4.99655E+00
 -1      1378-6.98992E+01-6.28985E+01 5.29576E+01-1.42245E+02 2.93749E+00 1.51232E+00
 -1      1379 4.12977E+01-1.89166E+02 6.74683E+01-8.15738E+01 3.36414E+01 2.05872E+01
 -1      1380 2.00470E+02-1.55903E+02 3.54554E+00-4.87641E+01 3.81497E+01 1.53139E+02
 -1      1381 8.70071E+01-9.24328E+00-2.20125E+01-2.51214E+01 1.95535E+00-3.01483E+01
 -1      1382-1.97462E+01 4.65214E+00 7.29432E+00-7.49872E+00 4.41768E+00-9.43458E+00
 -1      1383-8.04186E+01 2.13359E+01 2.60148E+01-1.87806E+01 2.04893E+00-4.95943E+00
 -1      1384-2.18366E+02 4.21715E+01 7.29273E+01-8.65365E+01 1.72183E+01 1.43307E+01
 -1      1385-1.64377E+02-6.02176E+01-1.75121E+01-2.44995E+02 2.60243E+02 3.16595E+02
 -1      1386 1.44879E+02 3.39221E+01 4.56279E+00 2.36312E+02 1.17132E+02 1.64095E+02
 -1      1387 2.67480E+02 5.64556E-01-1.12391E+02 2.25560E+02-2.15735E+01 4.66192E+01
 -1      1388 2.95281E+02-4.63635E+01-8.91080E+01 1.40921E+02 4.45318E+01 2.06377E+01
 -1      1389 1.46482E+02-4.45213E+01-3.78528E+01 5.14265E+01 1.61020E+01 3.49430E+01
 -1      1390 1.04734E+02-2.93052E+01-3.60843E+01 3.26025E+01-6.92971E+00-1.62435E+01
 -1      1391 7.43419E+01-1.86548E+01-1.97264E+01 1.97699E+01 2.41292E-01 4.17304E+00
 -1      1392 3.60421E+01-6.92562E+00-1.28343E+01 1.07111E+01 5.43805E+00-1.00057E+01
 -1      1393 2.80721E+00 4.96359E+00-2.37633E+00 6.13896E+00-1.53828E+00 1.39587E+01
 -1      1394-9.44072E+01 9.85967E+00 2.11114E+01 2.95275E+01-2.67578E-01-7.55077E+00
 -1      1395-1.53494E+02 2.62181E+01 6.20789E+01 4.53055E+01-4.43025E+00 6.79758E+00
 -1      1396-1.52983E+02 1.21446E+02-8.27237E-01 4.15618E+01 3.21724E+01 8.26122E+01
 -1      1397 2.42996E+01 1.70318E+02-7.42707E+01 2.20253E+02 4.78868E+01-2.83584E+01
 -1      1398 1.85716E+02 1.16004E+01-6.32203E+01 1.79657E+02 1.59262E+01-1.05864E+00
 -1      1399 1.03751E+02-9.14938E+00-4.32383E+01 6.04297E+01-5.37727E+00-1.55139E+01
 -1      1400 3.07385E+01-1.15626E+00-9.12150E+00 2.37757E+01 9.08186E-01-1.09134E+01
 -1      1401-3.72859E+01 2.04409E-01 1.05857E+01 3.50849E+01 4.65164E+00 4.97590E+00
 -1      1402-3.09245E+01 7.65439E+01-2.91556E+01 3.26178E+01-9.60396E+00-1.35241E+01
 -1      1403-4.26924E+01 2.48628E+02-8.10944E+01 1.36451E+02 2.79501E+01 5.16631E+01
 -1      1404 1.73106E+01 1.72868E+02-6.15856E+01 1.76499E+02-6.51530E+00 2.25966E+01
 -1      1405 8.41640E+01 7.30088E+01-7.00620E+01 1.80673E+02 1.05533E+01 6.42000E+00
 -1      1406 8.70241E+01 4.13836E+01-5.56942E+01 1.12765E+02 6.25848E+00 3.24918E-01
 -1      1407 7.64475E+01 2.01564E+01-3.30183E+01 7.52251E+01-2.06681E-01 4.09659E+00
 -1      1408 4.82050E+01 1.06149E+01-2.25979E+01 5.12057E+01 6.21232E-01 2.34509E+00
 -1      1409 2.09612E+01 3.43838E+00-1.08676E+01 3.07129E+01 2.34602E+00 1.06633E+00
 -1      1410-4.44669E+00-6.04683E-02 2.60387E+00 2.61608E+01-3.17306E+00-2.10829E+00
 -1      1411-2.01036E+01-6.67172E+00 1.19771E+01 3.09631E+01-7.44972E+00-4.79178E+00
 -1      1412-5.39469E+00-2.50212E+01 1.10553E+01 2.62106E+01 6.27637E+00 1.15136E+01
 -1      1413 5.12598E+00-6.49886E-01 8.87124E+00 1.81969E+01-1.53451E+01 1.68915E+01
 -1      1414-4.19159E+01 1.49799E+02-3.93378E+01 5.57227E+01 3.03967E+01 1.66585E+01
 -1      1415 5.10388E+01 8.21908E+01-5.74880E+01 1.11748E+02 2.84473E+00 4.63275E+00
 -1      1416 5.17714E+01 3.00757E+01-2.90346E+01 5.10656E+01-1.88709E+00-5.09989E-01
 -1      1417 9.20395E+00 4.08356E-01-4.58994E+00 1.87013E+01 1.22134E+00-1.43248E+00
 -1      1418-1.56935E+01-2.27817E+01 1.61277E+01 1.20076E+01-2.67352E+00-1.47808E+00
 -1      1419 9.28481E+00-5.20433E+01 1.51006E+01 1.18493E+01 2.12281E+00 4.19955E+00
 -1      1420-3.16096E+01 1.19079E+02-4.10623E+01 3.31945E+01-1.08946E+01-4.85705E+00
 -1      1421-6.83933E+00 1.15408E+02-4.74451E+01 5.79778E+01-1.09535E+01-5.58016E+00
 -1      1422 2.70895E+01 8.33330E+01-3.90691E+01 7.09266E+01 3.14684E+00 1.25669E+00
 -1      1423 3.68206E+01 5.27378E+01-3.22523E+01 4.83330E+01-3.50620E-01-1.29859E+00
 -1      1424 3.34540E+01 2.89629E+01-2.59669E+01 3.21824E+01-3.47993E-01-1.58467E+00
 -1      1425 1.61396E+01 1.08371E+01-1.06954E+01 1.88552E+01-1.59500E+00 5.93887E-01
 -1      1426-2.46863E+00-5.39649E+00 3.35508E+00 5.76679E+00-2.27552E+00-2.68153E+00
 -1      1427-1.06734E+01-2.38854E+01 1.33398E+01-1.52152E+00-1.04350E+00 6.82148E-01
 -1      1428-1.16445E+01-4.48620E+01 2.18806E+01-5.97878E+00 1.48563E-01 2.25724E+00
 -1      1429 3.40534E+00-6.48983E+01 2.35928E+01-3.88978E+00-5.97992E+00-9.67737E-01
 -1      1430 1.64480E+01-7.10603E+01 2.45986E+01 1.36063E-01-4.51306E+00 3.13876E+00
 -1      1431-2.54998E+01 1.01672E+02-2.80290E+01 1.51031E+01 3.30463E+00 4.87326E-01
 -1      1432 1.89073E+01 6.44740E+01-3.19068E+01 3.74368E+01 1.55877E+00 1.32964E+00
 -1      1433 1.95265E+01 1.85483E+01-1.51706E+01 1.37967E+01 3.83352E-01-2.59079E+00
 -1      1434-1.37442E+01-1.78170E+01 1.26080E+01-1.21707E+01 3.92136E-01-2.62461E+00
 -1      1435-1.61806E+01-6.22269E+01 3.00051E+01-3.57981E+01 1.48627E+00 1.01984E+00
 -1      1436 2.44545E+01-9.80426E+01 2.67660E+01-1.44562E+01 3.13952E+00 3.30221E-01
 -1      1437-1.72491E+01 7.44679E+01-2.55764E+01-3.53748E-01-4.89093E+00 3.36705E+00
 -1      1438-2.56569E+00 6.79074E+01-2.49717E+01 3.90816E+00-6.35665E+00-1.12864E+00
 -1      1439 1.45852E+01 4.68984E+01-2.38842E+01 6.31369E+00 3.18038E-01 2.60649E+00
 -1      1440 1.53573E+01 2.50266E+01-1.55837E+01 2.40572E+00-9.91073E-01 6.53526E-01
 -1      1441 8.48316E+00 5.96115E+00-5.90523E+00-4.42557E+00-2.39248E+00-2.63494E+00
 -1      1442-1.01141E+01-1.03316E+01 8.16841E+00-1.72088E+01-1.70320E+00 5.99164E-01
 -1      1443-2.75266E+01-2.82247E+01 2.33632E+01-3.02321E+01-3.95337E-01-1.63454E+00
 -1      1444-3.21854E+01-5.13690E+01 2.99627E+01-4.60273E+01-3.24387E-01-1.20130E+00
 -1      1445-2.42442E+01-8.09727E+01 3.70481E+01-6.79366E+01 3.14432E+00 9.85314E-01
 -1      1446 7.48290E+00-1.11825E+02 4.58045E+01-5.55200E+01-1.09570E+01-5.37172E+00
 -1      1447 3.06083E+01-1.15086E+02 3.99384E+01-3.16376E+01-1.12437E+01-4.94493E+00
 -1      1448-9.84351E+00 5.49464E+01-1.58928E+01-1.29930E+01 2.26999E+00 4.63434E+00
 -1      1449 1.97326E+01 2.34952E+01-1.80445E+01-1.27006E+01-3.02683E+00-1.40341E+00
 -1      1450-2.85069E+00-3.33858E-01 2.16242E+00-1.75597E+01 1.31534E+00-1.22279E+00
 -1      1451-4.54649E+01-2.98113E+01 2.65682E+01-4.87621E+01-1.80123E+00-7.29810E-01
 -1      1452-4.71915E+01-8.06654E+01 5.52679E+01-1.07462E+02 2.50124E+00 4.45031E+00
 -1      1453 4.08890E+01-1.45780E+02 3.82606E+01-5.31783E+01 2.98367E+01 1.60844E+01
 -1      1454-5.67583E+00-1.26495E+00-9.06877E+00-1.97268E+01-1.66934E+01 1.87437E+01
 -1      1455 7.23646E+00 2.63618E+01-1.22142E+01-2.81284E+01 7.16347E+00 1.27086E+01
 -1      1456 2.53581E+01 6.37323E+00-1.40820E+01-3.29183E+01-8.21832E+00-4.92398E+00
 -1      1457 1.10977E+01-6.74554E-01-5.04501E+00-2.63208E+01-3.58870E+00-2.61716E+00
 -1      1458-1.39238E+01-4.11362E+00 8.58009E+00-2.96728E+01 2.37619E+00 1.39006E+00
 -1      1459-4.11493E+01-1.12749E+01 2.00858E+01-4.92338E+01 6.62371E-01 2.30286E+00
 -1      1460-6.94171E+01-2.06535E+01 3.06747E+01-7.23042E+01-2.05116E-01 3.66013E+00
 -1      1461-8.05662E+01-4.14888E+01 5.30430E+01-1.08626E+02 5.86628E+00 5.48793E-01
 -1      1462-7.90788E+01-7.22324E+01 6.74897E+01-1.74355E+02 9.81755E+00 6.24759E+00
 -1      1463-1.57058E+01-1.69576E+02 5.99675E+01-1.70847E+02-5.74195E+00 2.14465E+01
 -1      1464 4.16456E+01-2.46155E+02 7.98493E+01-1.32363E+02 2.64740E+01 4.96213E+01
 -1      1465 3.44455E+01-8.67351E+01 3.30117E+01-3.55908E+01-1.05764E+01-1.46127E+01
 -1      1466 4.49684E+01-1.35024E+00-1.27652E+01-3.79144E+01 5.37857E+00 5.93029E+00
 -1      1467-2.26846E+01-5.12579E-01 6.35692E+00-2.29111E+01 9.52487E-01-1.12631E+01
 -1      1468-9.57560E+01 7.60333E+00 4.04474E+01-5.81500E+01-5.24282E+00-1.50362E+01
 -1      1469-1.77726E+02-1.23139E+01 6.08490E+01-1.73314E+02 1.60618E+01-1.57466E+00
 -1      1470-2.17911E+01-1.74011E+02 7.55022E+01-2.14194E+02 4.62369E+01-2.71397E+01
 -1      1471 1.70385E+02-1.35789E+02 9.09136E-01-4.56810E+01 3.68235E+01 9.15585E+01
 -1      1472 1.72404E+02-2.96752E+01-6.95075E+01-4.99284E+01-5.12413E+00 7.39323E+00
 -1      1473 1.08653E+02-1.20741E+01-2.45490E+01-3.24933E+01 6.70467E-02-7.67549E+00
 -1      1474 4.96769E+00-7.63848E+00 2.91767E-01-5.85583E+00-1.88206E+00 1.46177E+01
 -1      1475-2.80388E+01 4.62082E+00 1.01888E+01-1.00018E+01 5.52005E+00-1.08377E+01
 -1      1476-6.58783E+01 1.63906E+01 1.77979E+01-1.88404E+01 2.20055E-01 3.92069E+00
 -1      1477-9.67806E+01 2.70596E+01 3.33940E+01-3.13856E+01-6.77579E+00-1.59214E+01
 -1      1478-1.38485E+02 4.18911E+01 3.56892E+01-4.96709E+01 1.56326E+01 3.38844E+01
 -1      1479-2.81489E+02 4.40817E+01 8.55585E+01-1.35742E+02 4.39945E+01 2.00491E+01
 -1      1480-2.51289E+02-2.80265E+00 1.05939E+02-2.18326E+02-2.15390E+01 4.52028E+01
 -1      1481-1.31605E+02-4.21634E+01-4.43545E+00-2.29533E+02 1.18245E+02 1.55991E+02
 -3
    1PSTEP                        12           1           1          
    1PGM                1.000000E+00                                  
    1PGK                9.703723E+10                                  
    1PHID                         -1                                  
    1PSUBC                         0                                  
    1PMODE                         3                                  
  100CL  103 49578.03666        1481                     2    3MODAL      1
 -4  ERROR       1    1
 -5  STR(%)      1    1    0    0
 -1         1 1.27985E+01
 -1         2 1.31498E+01
 -1         3 1.35012E+01
 -1         4 1.35012E+01
 -1         5 1.35012E+01
 -1         6 1.79564E+01
 -1         7 2.24116E+01
 -1         8 2.24116E+01
 -1         9 2.24116E+01
 -1        10 2.20967E+01
 -1        11 2.17818E+01
 -1        12 1.27985E+01
 -1        13 1.35757E+01
 -1        14 1.53799E+01
 -1        15 2.24116E+01
 -1        16 2.24116E+01
 -1        17 2.17818E+01
 -1        18 1.27985E+01
 -1        19 1.32243E+01
 -1        20 1.36502E+01
 -1        21 1.54544E+01
 -1        22 1.72586E+01
 -1        23 1.98351E+01
 -1        24 2.24116E+01
 -1        25 2.24116E+01
 -1        26 2.24116E+01
 -1        27 2.20967E+01
 -1        28 2.17818E+01
 -1        29 1.27705E+01
 -1        30 1.51536E+01
 -1        31 1.90465E+01
 -1        32 2.16229E+01
 -1        33 1.98649E+01
 -1        34 1.68348E+01
 -1        35 1.27426E+01
 -1        36 1.46998E+01
 -1        37 1.66570E+01
 -1        38 1.87456E+01
 -1        39 2.08343E+01
 -1        40 2.08343E+01
 -1        41 2.08343E+01
 -1        42 1.90762E+01
 -1        43 1.73181E+01
 -1        44 1.46029E+01
 -1        45 1.18877E+01
 -1        46 1.22662E+01
 -1        47 1.66570E+01
 -1        48 2.08343E+01
 -1        49 2.08343E+01
 -1        50 1.72525E+01
 -1        51 1.23535E+01
 -1        52 1.17898E+01
 -1        53 1.42234E+01
 -1        54 1.66570E+01
 -1        55 1.87456E+01
 -1        56 2.08343E+01
 -1        57 2.08343E+01
 -1        58 2.08343E+01
 -1        59 1.90106E+01
 -1        60 1.71869E+01
 -1        61 1.50030E+01
 -1        62 1.28192E+01
 -1        63 1.68617E+01
 -1        64 1.92953E+01
 -1        65 2.12076E+01
 -1        66 1.96024E+01
 -1        67 1.55447E+01
 -1        68 1.28372E+01
 -1        69 2.19336E+01
 -1        70 2.19336E+01
 -1        71 2.19336E+01
 -1        72 2.17572E+01
 -1        73 2.15808E+01
 -1        74 1.99756E+01
 -1        75 1.83705E+01
 -1        76 1.61365E+01
 -1        77 1.39025E+01
 -1        78 1.33789E+01
 -1        79 1.28553E+01
 -1        80 2.19336E+01
 -1        81 2.19336E+01
 -1        82 2.15808E+01
 -1        83 1.59901E+01
 -1        84 1.37561E+01
 -1        85 1.28553E+01
 -1        86 2.19336E+01
 -1        87 2.19336E+01
 -1        88 2.19336E+01
 -1        89 2.17572E+01
 -1        90 2.15808E+01
 -1        91 1.75952E+01
 -1        92 1.36097E+01
 -1        93 1.36097E+01
 -1        94 1.36097E+01
 -1        95 1.32325E+01
 -1        96 1.28553E+01
 -1        97 1.76007E+01
 -1        98 1.79521E+01
 -1        99 1.78379E+01
 -1       100 2.28373E+01
 -1       101 2.28373E+01
 -1       102 2.21648E+01
 -1       103 1.76007E+01
 -1       104 1.86166E+01
 -1       105 2.04208E+01
 -1       106 2.28373E+01
 -1       107 2.28373E+01
 -1       108 2.21648E+01
 -1       109 1.71692E+01
 -1       110 2.01199E+01
 -1       111 2.22086E+01
 -1       112 2.08343E+01
 -1       113 1.82716E+01
 -1       114 1.54418E+01
 -1       115 1.55467E+01
 -1       116 1.82217E+01
 -1       117 2.08343E+01
 -1       118 2.22062E+01
 -1       119 2.03825E+01
 -1       120 1.72826E+01
 -1       121 2.22370E+01
 -1       122 2.22847E+01
 -1       123 2.21083E+01
 -1       124 2.09743E+01
 -1       125 1.87403E+01
 -1       126 1.76224E+01
 -1       127 2.22370E+01
 -1       128 2.22847E+01
 -1       129 2.21083E+01
 -1       130 1.79816E+01
 -1       131 1.79996E+01
 -1       132 1.76224E+01
 -1       133 2.24030E+01
 -1       134 2.24030E+01
 -1       135 2.24030E+01
 -1       136 2.22888E+01
 -1       137 2.21746E+01
 -1       138 2.27188E+01
 -1       139 2.32629E+01
 -1       140 2.32629E+01
 -1       141 2.32629E+01
 -1       142 2.29054E+01
 -1       143 2.25478E+01
 -1       144 2.24030E+01
 -1       145 2.29930E+01
 -1       146 2.28788E+01
 -1       147 2.32629E+01
 -1       148 2.32629E+01
 -1       149 2.25478E+01
 -1       150 2.24030E+01
 -1       151 2.29930E+01
 -1       152 2.35829E+01
 -1       153 2.35829E+01
 -1       154 2.35829E+01
 -1       155 2.34229E+01
 -1       156 2.32629E+01
 -1       157 2.32629E+01
 -1       158 2.32629E+01
 -1       159 2.29054E+01
 -1       160 2.25478E+01
 -1       161 2.19994E+01
 -1       162 2.35829E+01
 -1       163 2.35829E+01
 -1       164 2.20486E+01
 -1       165 2.12440E+01
 -1       166 2.07718E+01
 -1       167 2.15958E+01
 -1       168 2.25894E+01
 -1       169 2.35829E+01
 -1       170 2.35829E+01
 -1       171 2.35829E+01
 -1       172 2.22086E+01
 -1       173 2.08343E+01
 -1       174 2.00297E+01
 -1       175 1.92250E+01
 -1       176 1.91104E+01
 -1       177 1.89958E+01
 -1       178 2.04498E+01
 -1       179 2.16847E+01
 -1       180 2.22086E+01
 -1       181 2.22062E+01
 -1       182 2.14016E+01
 -1       183 2.03709E+01
 -1       184 1.93037E+01
 -1       185 1.95451E+01
 -1       186 1.97865E+01
 -1       187 2.03104E+01
 -1       188 2.08343E+01
 -1       189 2.22062E+01
 -1       190 2.35782E+01
 -1       191 2.35782E+01
 -1       192 2.35782E+01
 -1       193 2.26621E+01
 -1       194 2.17460E+01
 -1       195 2.09221E+01
 -1       196 2.12111E+01
 -1       197 2.17350E+01
 -1       198 2.35782E+01
 -1       199 2.35782E+01
 -1       200 2.20678E+01
 -1       201 2.25404E+01
 -1       202 2.25881E+01
 -1       203 2.26358E+01
 -1       204 2.26358E+01
 -1       205 2.26358E+01
 -1       206 2.31070E+01
 -1       207 2.35782E+01
 -1       208 2.35782E+01
 -1       209 2.35782E+01
 -1       210 2.29838E+01
 -1       211 2.23895E+01
 -1       212 2.25404E+01
 -1       213 2.26358E+01
 -1       214 2.26358E+01
 -1       215 2.29659E+01
 -1       216 2.29838E+01
 -1       217 2.23895E+01
 -1       218 2.25404E+01
 -1       219 2.25881E+01
 -1       220 2.26358E+01
 -1       221 2.26358E+01
 -1       222 2.26358E+01
 -1       223 2.24947E+01
 -1       224 2.23536E+01
 -1       225 2.23716E+01
 -1       226 2.23895E+01
 -1       227 2.23895E+01
 -1       228 2.23895E+01
 -1       229 2.35532E+01
 -1       230 2.41503E+01
 -1       231 2.40361E+01
 -1       232 2.45723E+01
 -1       233 2.45723E+01
 -1       234 2.25478E+01
 -1       235 2.30099E+01
 -1       236 2.47403E+01
 -1       237 2.47403E+01
 -1       238 2.45723E+01
 -1       239 2.45723E+01
 -1       240 2.40626E+01
 -1       241 2.26064E+01
 -1       242 2.52736E+01
 -1       243 2.52736E+01
 -1       244 2.38494E+01
 -1       245 2.30448E+01
 -1       246 2.22866E+01
 -1       247 2.24796E+01
 -1       248 2.33754E+01
 -1       249 2.38993E+01
 -1       250 2.52213E+01
 -1       251 2.52213E+01
 -1       252 2.29296E+01
 -1       253 2.40980E+01
 -1       254 2.42288E+01
 -1       255 2.42288E+01
 -1       256 2.47608E+01
 -1       257 2.47608E+01
 -1       258 2.32514E+01
 -1       259 2.25404E+01
 -1       260 2.42288E+01
 -1       261 2.42288E+01
 -1       262 2.41485E+01
 -1       263 2.41665E+01
 -1       264 2.35544E+01
 -1       265 3.13854E+01
 -1       266 3.13854E+01
 -1       267 3.13854E+01
 -1       268 3.12879E+01
 -1       269 3.11903E+01
 -1       270 3.10964E+01
 -1       271 3.10025E+01
 -1       272 2.93442E+01
 -1       273 2.76859E+01
 -1       274 2.93310E+01
 -1       275 3.09762E+01
 -1       276 3.11652E+01
 -1       277 3.13542E+01
 -1       278 3.13542E+01
 -1       279 3.13542E+01
 -1       280 3.13854E+01
 -1       281 3.13854E+01
 -1       282 3.11903E+01
 -1       283 3.10025E+01
 -1       284 2.76859E+01
 -1       285 3.09762E+01
 -1       286 3.13542E+01
 -1       287 3.13542E+01
 -1       288 3.13854E+01
 -1       289 3.13854E+01
 -1       290 3.13854E+01
 -1       291 3.12879E+01
 -1       292 3.11903E+01
 -1       293 3.10964E+01
 -1       294 3.10025E+01
 -1       295 2.93442E+01
 -1       296 2.76859E+01
 -1       297 2.93310E+01
 -1       298 3.09762E+01
 -1       299 3.11652E+01
 -1       300 3.13542E+01
 -1       301 3.13542E+01
 -1       302 3.13542E+01
 -1       303 2.76306E+01
 -1       304 2.63061E+01
 -1       305 2.64087E+01
 -1       306 2.63148E+01
 -1       307 2.43347E+01
 -1       308 2.62098E+01
 -1       309 2.64806E+01
 -1       310 2.64806E+01
 -1       311 2.38757E+01
 -1       312 2.38757E+01
 -1       313 2.38757E+01
 -1       314 2.25513E+01
 -1       315 2.12268E+01
 -1       316 2.14270E+01
 -1       317 2.16271E+01
 -1       318 2.16271E+01
 -1       319 2.16271E+01
 -1       320 2.09836E+01
 -1       321 2.12135E+01
 -1       322 2.14434E+01
 -1       323 2.15252E+01
 -1       324 2.16070E+01
 -1       325 2.16070E+01
 -1       326 2.16070E+01
 -1       327 2.13456E+01
 -1       328 2.10842E+01
 -1       329 2.38757E+01
 -1       330 2.42896E+01
 -1       331 2.29651E+01
 -1       332 2.13849E+01
 -1       333 2.15065E+01
 -1       334 2.16502E+01
 -1       335 2.13888E+01
 -1       336 3.13857E+01
 -1       337 3.13857E+01
 -1       338 3.13857E+01
 -1       339 2.76307E+01
 -1       340 2.38757E+01
 -1       341 2.42896E+01
 -1       342 2.47034E+01
 -1       343 2.47034E+01
 -1       344 2.47034E+01
 -1       345 2.13265E+01
 -1       346 2.13662E+01
 -1       347 2.14060E+01
 -1       348 2.15497E+01
 -1       349 2.16934E+01
 -1       350 2.16934E+01
 -1       351 2.16934E+01
 -1       352 2.65074E+01
 -1       353 3.13214E+01
 -1       354 3.13214E+01
 -1       355 3.13214E+01
 -1       356 3.13960E+01
 -1       357 3.13960E+01
 -1       358 2.27447E+01
 -1       359 2.47034E+01
 -1       360 2.47034E+01
 -1       361 2.19769E+01
 -1       362 2.16934E+01
 -1       363 2.16934E+01
 -1       364 3.13214E+01
 -1       365 3.13214E+01
 -1       366 3.14064E+01
 -1       367 3.14064E+01
 -1       368 3.14064E+01
 -1       369 2.65100E+01
 -1       370 2.16137E+01
 -1       371 2.31585E+01
 -1       372 2.47034E+01
 -1       373 2.47034E+01
 -1       374 2.47034E+01
 -1       375 2.53005E+01
 -1       376 2.58977E+01
 -1       377 2.58977E+01
 -1       378 2.58977E+01
 -1       379 2.58896E+01
 -1       380 2.58816E+01
 -1       381 2.58816E+01
 -1       382 2.58816E+01
 -1       383 2.42147E+01
 -1       384 2.25478E+01
 -1       385 2.21206E+01
 -1       386 2.16934E+01
 -1       387 2.16934E+01
 -1       388 2.16934E+01
 -1       389 2.65074E+01
 -1       390 3.13214E+01
 -1       391 3.13214E+01
 -1       392 3.13214E+01
 -1       393 3.14064E+01
 -1       394 3.14064E+01
 -1       395 2.16137E+01
 -1       396 2.29440E+01
 -1       397 2.41601E+01
 -1       398 2.58977E+01
 -1       399 2.58977E+01
 -1       400 2.58816E+01
 -1       401 2.58816E+01
 -1       402 2.40626E+01
 -1       403 2.16332E+01
 -1       404 3.11434E+01
 -1       405 3.11434E+01
 -1       406 3.14064E+01
 -1       407 3.14064E+01
 -1       408 3.14064E+01
 -1       409 2.65100E+01
 -1       410 2.16137E+01
 -1       411 2.13991E+01
 -1       412 2.11845E+01
 -1       413 2.36169E+01
 -1       414 2.47573E+01
 -1       415 2.58977E+01
 -1       416 2.58977E+01
 -1       417 2.58977E+01
 -1       418 2.58896E+01
 -1       419 2.58816E+01
 -1       420 2.58816E+01
 -1       421 2.58816E+01
 -1       422 2.57295E+01
 -1       423 2.55775E+01
 -1       424 2.15730E+01
 -1       425 2.62692E+01
 -1       426 3.09654E+01
 -1       427 3.09654E+01
 -1       428 3.09654E+01
 -1       429 3.12179E+01
 -1       430 3.12179E+01
 -1       431 2.15798E+01
 -1       432 2.36169E+01
 -1       433 2.64310E+01
 -1       434 2.64310E+01
 -1       435 2.63731E+01
 -1       436 2.63731E+01
 -1       437 2.55775E+01
 -1       438 3.02416E+01
 -1       439 3.02416E+01
 -1       440 3.10294E+01
 -1       441 3.10294E+01
 -1       442 3.10294E+01
 -1       443 2.62876E+01
 -1       444 2.15458E+01
 -1       445 2.36169E+01
 -1       446 2.52906E+01
 -1       447 2.69643E+01
 -1       448 2.69643E+01
 -1       449 2.69643E+01
 -1       450 2.69144E+01
 -1       451 2.68645E+01
 -1       452 2.68645E+01
 -1       453 2.68645E+01
 -1       454 2.62210E+01
 -1       455 2.55775E+01
 -1       456 2.95178E+01
 -1       457 2.95178E+01
 -1       458 2.95178E+01
 -1       459 3.06326E+01
 -1       460 3.06326E+01
 -1       461 2.46362E+01
 -1       462 2.69643E+01
 -1       463 2.69643E+01
 -1       464 2.68645E+01
 -1       465 2.68645E+01
 -1       466 2.48453E+01
 -1       467 3.02594E+01
 -1       468 3.02594E+01
 -1       469 3.02359E+01
 -1       470 3.02359E+01
 -1       471 3.02359E+01
 -1       472 2.58913E+01
 -1       473 2.15467E+01
 -1       474 2.56555E+01
 -1       475 2.63099E+01
 -1       476 2.69643E+01
 -1       477 2.69643E+01
 -1       478 2.69643E+01
 -1       479 2.69144E+01
 -1       480 2.68645E+01
 -1       481 2.68645E+01
 -1       482 2.68645E+01
 -1       483 2.54889E+01
 -1       484 2.41132E+01
 -1       485 2.15356E+01
 -1       486 2.62683E+01
 -1       487 3.10010E+01
 -1       488 3.10010E+01
 -1       489 3.10010E+01
 -1       490 3.08876E+01
 -1       491 3.08876E+01
 -1       492 2.15467E+01
 -1       493 2.56555E+01
 -1       494 2.63931E+01
 -1       495 2.63931E+01
 -1       496 2.64040E+01
 -1       497 2.64040E+01
 -1       498 2.41132E+01
 -1       499 2.15356E+01
 -1       500 3.12015E+01
 -1       501 3.12015E+01
 -1       502 3.15394E+01
 -1       503 3.15394E+01
 -1       504 3.15394E+01
 -1       505 2.65431E+01
 -1       506 2.15467E+01
 -1       507 2.13821E+01
 -1       508 2.12176E+01
 -1       509 2.56555E+01
 -1       510 2.57387E+01
 -1       511 2.58218E+01
 -1       512 2.58218E+01
 -1       513 2.58218E+01
 -1       514 2.58826E+01
 -1       515 2.59434E+01
 -1       516 2.59434E+01
 -1       517 2.59434E+01
 -1       518 2.50283E+01
 -1       519 2.41132E+01
 -1       520 2.11159E+01
 -1       521 2.13258E+01
 -1       522 2.15356E+01
 -1       523 2.64688E+01
 -1       524 3.14020E+01
 -1       525 3.14020E+01
 -1       526 3.14020E+01
 -1       527 3.15394E+01
 -1       528 3.15394E+01
 -1       529 2.19069E+01
 -1       530 2.18292E+01
 -1       531 2.40980E+01
 -1       532 2.58218E+01
 -1       533 2.58218E+01
 -1       534 2.59434E+01
 -1       535 2.59434E+01
 -1       536 2.44162E+01
 -1       537 2.29176E+01
 -1       538 2.15283E+01
 -1       539 3.14020E+01
 -1       540 3.14020E+01
 -1       541 3.15394E+01
 -1       542 3.15394E+01
 -1       543 3.15394E+01
 -1       544 2.69033E+01
 -1       545 2.22672E+01
 -1       546 2.23540E+01
 -1       547 2.24408E+01
 -1       548 2.24906E+01
 -1       549 2.25404E+01
 -1       550 2.41811E+01
 -1       551 2.58218E+01
 -1       552 2.58218E+01
 -1       553 2.58218E+01
 -1       554 2.58826E+01
 -1       555 2.59434E+01
 -1       556 2.59434E+01
 -1       557 2.59434E+01
 -1       558 2.53313E+01
 -1       559 2.47193E+01
 -1       560 2.47193E+01
 -1       561 2.47193E+01
 -1       562 2.31201E+01
 -1       563 2.15210E+01
 -1       564 2.64615E+01
 -1       565 3.14020E+01
 -1       566 3.14020E+01
 -1       567 3.14020E+01
 -1       568 3.14889E+01
 -1       569 3.14889E+01
 -1       570 2.24120E+01
 -1       571 2.24988E+01
 -1       572 2.24906E+01
 -1       573 2.47193E+01
 -1       574 2.47193E+01
 -1       575 2.25647E+01
 -1       576 3.13983E+01
 -1       577 3.13983E+01
 -1       578 3.14383E+01
 -1       579 3.14383E+01
 -1       580 3.14383E+01
 -1       581 2.69976E+01
 -1       582 2.25568E+01
 -1       583 2.25568E+01
 -1       584 2.25568E+01
 -1       585 2.24988E+01
 -1       586 2.24408E+01
 -1       587 2.18143E+01
 -1       588 2.11878E+01
 -1       589 2.13996E+01
 -1       590 2.30594E+01
 -1       591 2.47193E+01
 -1       592 2.47193E+01
 -1       593 2.47193E+01
 -1       594 2.41638E+01
 -1       595 2.36083E+01
 -1       596 2.75014E+01
 -1       597 3.13945E+01
 -1       598 3.13945E+01
 -1       599 3.13945E+01
 -1       600 2.25568E+01
 -1       601 2.25568E+01
 -1       602 2.30093E+01
 -1       603 2.23828E+01
 -1       604 2.18378E+01
 -1       605 2.34976E+01
 -1       606 2.41638E+01
 -1       607 2.36083E+01
 -1       608 2.25568E+01
 -1       609 2.25568E+01
 -1       610 2.25568E+01
 -1       611 2.30673E+01
 -1       612 2.35778E+01
 -1       613 2.35778E+01
 -1       614 2.35778E+01
 -1       615 2.22759E+01
 -1       616 2.22759E+01
 -1       617 2.22759E+01
 -1       618 2.29421E+01
 -1       619 2.36083E+01
 -1       620 2.36083E+01
 -1       621 2.36083E+01
 -1       622 2.69901E+01
 -1       623 2.75005E+01
 -1       624 2.72940E+01
 -1       625 2.66801E+01
 -1       626 2.68651E+01
 -1       627 2.75313E+01
 -1       628 3.14233E+01
 -1       629 3.14233E+01
 -1       630 3.14233E+01
 -1       631 3.12168E+01
 -1       632 3.10102E+01
 -1       633 2.96934E+01
 -1       634 2.83765E+01
 -1       635 2.90425E+01
 -1       636 2.97086E+01
 -1       637 3.03964E+01
 -1       638 3.10843E+01
 -1       639 3.12693E+01
 -1       640 3.14543E+01
 -1       641 3.14543E+01
 -1       642 3.14543E+01
 -1       643 3.14233E+01
 -1       644 3.14233E+01
 -1       645 3.10102E+01
 -1       646 2.83765E+01
 -1       647 2.97086E+01
 -1       648 3.10843E+01
 -1       649 3.14543E+01
 -1       650 3.14543E+01
 -1       651 3.14233E+01
 -1       652 3.14233E+01
 -1       653 3.14233E+01
 -1       654 3.12168E+01
 -1       655 3.10102E+01
 -1       656 2.96934E+01
 -1       657 2.83765E+01
 -1       658 2.90425E+01
 -1       659 2.97086E+01
 -1       660 3.03964E+01
 -1       661 3.10843E+01
 -1       662 3.12693E+01
 -1       663 3.14543E+01
 -1       664 3.14543E+01
 -1       665 3.14543E+01
 -1       666 3.13854E+01
 -1       667 3.13854E+01
 -1       668 3.11903E+01
 -1       669 3.10025E+01
 -1       670 2.76859E+01
 -1       671 3.09762E+01
 -1       672 3.13542E+01
 -1       673 3.13542E+01
 -1       674 3.13854E+01
 -1       675 3.13854E+01
 -1       676 3.11903E+01
 -1       677 3.10025E+01
 -1       678 2.76859E+01
 -1       679 3.09762E+01
 -1       680 3.13542E+01
 -1       681 3.13542E+01
 -1       682 2.38757E+01
 -1       683 2.38757E+01
 -1       684 2.12268E+01
 -1       685 2.16271E+01
 -1       686 2.16271E+01
 -1       687 2.09836E+01
 -1       688 2.14434E+01
 -1       689 2.16070E+01
 -1       690 2.16070E+01
 -1       691 2.10842E+01
 -1       692 3.13857E+01
 -1       693 3.13857E+01
 -1       694 2.38757E+01
 -1       695 2.47034E+01
 -1       696 2.47034E+01
 -1       697 2.13265E+01
 -1       698 2.14060E+01
 -1       699 2.16934E+01
 -1       700 2.16934E+01
 -1       701 3.13214E+01
 -1       702 3.13214E+01
 -1       703 3.14064E+01
 -1       704 3.14064E+01
 -1       705 2.16137E+01
 -1       706 2.47034E+01
 -1       707 2.47034E+01
 -1       708 2.58977E+01
 -1       709 2.58977E+01
 -1       710 2.58816E+01
 -1       711 2.58816E+01
 -1       712 2.25478E+01
 -1       713 2.16934E+01
 -1       714 2.16934E+01
 -1       715 3.13214E+01
 -1       716 3.13214E+01
 -1       717 3.14064E+01
 -1       718 3.14064E+01
 -1       719 2.16137E+01
 -1       720 2.11845E+01
 -1       721 2.36169E+01
 -1       722 2.58977E+01
 -1       723 2.58977E+01
 -1       724 2.58816E+01
 -1       725 2.58816E+01
 -1       726 2.55775E+01
 -1       727 2.15730E+01
 -1       728 3.09654E+01
 -1       729 3.09654E+01
 -1       730 3.10294E+01
 -1       731 3.10294E+01
 -1       732 2.15458E+01
 -1       733 2.36169E+01
 -1       734 2.69643E+01
 -1       735 2.69643E+01
 -1       736 2.68645E+01
 -1       737 2.68645E+01
 -1       738 2.55775E+01
 -1       739 2.95178E+01
 -1       740 2.95178E+01
 -1       741 3.02359E+01
 -1       742 3.02359E+01
 -1       743 2.15467E+01
 -1       744 2.56555E+01
 -1       745 2.69643E+01
 -1       746 2.69643E+01
 -1       747 2.68645E+01
 -1       748 2.68645E+01
 -1       749 2.41132E+01
 -1       750 2.15356E+01
 -1       751 3.10010E+01
 -1       752 3.10010E+01
 -1       753 3.15394E+01
 -1       754 3.15394E+01
 -1       755 2.15467E+01
 -1       756 2.12176E+01
 -1       757 2.56555E+01
 -1       758 2.58218E+01
 -1       759 2.58218E+01
 -1       760 2.59434E+01
 -1       761 2.59434E+01
 -1       762 2.41132E+01
 -1       763 2.11159E+01
 -1       764 2.15356E+01
 -1       765 3.14020E+01
 -1       766 3.14020E+01
 -1       767 3.15394E+01
 -1       768 3.15394E+01
 -1       769 2.22672E+01
 -1       770 2.24408E+01
 -1       771 2.25404E+01
 -1       772 2.58218E+01
 -1       773 2.58218E+01
 -1       774 2.59434E+01
 -1       775 2.59434E+01
 -1       776 2.47193E+01
 -1       777 2.47193E+01
 -1       778 2.15210E+01
 -1       779 3.14020E+01
 -1       780 3.14020E+01
 -1       781 3.14383E+01
 -1       782 3.14383E+01
 -1       783 2.25568E+01
 -1       784 2.25568E+01
 -1       785 2.24408E+01
 -1       786 2.11878E+01
 -1       787 2.13996E+01
 -1       788 2.47193E+01
 -1       789 2.47193E+01
 -1       790 2.36083E+01
 -1       791 3.13945E+01
 -1       792 3.13945E+01
 -1       793 2.25568E+01
 -1       794 2.25568E+01
 -1       795 2.35778E+01
 -1       796 2.35778E+01
 -1       797 2.22759E+01
 -1       798 2.22759E+01
 -1       799 2.36083E+01
 -1       800 2.36083E+01
 -1       801 3.14233E+01
 -1       802 3.14233E+01
 -1       803 3.10102E+01
 -1       804 2.83765E+01
 -1       805 2.97086E+01
 -1       806 3.10843E+01
 -1       807 3.14543E+01
 -1       808 3.14543E+01
 -1       809 3.14233E+01
 -1       810 3.14233E+01
 -1       811 3.10102E+01
 -1       812 2.83765E+01
 -1       813 2.97086E+01
 -1       814 3.10843E+01
 -1       815 3.14543E+01
 -1       816 3.14543E+01
 -1       817 3.13854E+01
 -1       818 3.13854E+01
 -1       819 3.13854E+01
 -1       820 3.12879E+01
 -1       821 3.11903E+01
 -1       822 3.10964E+01
 -1       823 3.10025E+01
 -1       824 2.93442E+01
 -1       825 2.76859E+01
 -1       826 2.93310E+01
 -1       827 3.09762E+01
 -1       828 3.11652E+01
 -1       829 3.13542E+01
 -1       830 3.13542E+01
 -1       831 3.13542E+01
 -1       832 3.13854E+01
 -1       833 3.13854E+01
 -1       834 3.11903E+01
 -1       835 3.10025E+01
 -1       836 2.76859E+01
 -1       837 3.09762E+01
 -1       838 3.13542E+01
 -1       839 3.13542E+01
 -1       840 3.13854E+01
 -1       841 3.13854E+01
 -1       842 3.13854E+01
 -1       843 3.12879E+01
 -1       844 3.11903E+01
 -1       845 3.10964E+01
 -1       846 3.10025E+01
 -1       847 2.93442E+01
 -1       848 2.76859E+01
 -1       849 2.93310E+01
 -1       850 3.09762E+01
 -1       851 3.11652E+01
 -1       852 3.13542E+01
 -1       853 3.13542E+01
 -1       854 3.13542E+01
 -1       855 2.76306E+01
 -1       856 2.63061E+01
 -1       857 2.64087E+01
 -1       858 2.63148E+01
 -1       859 2.43347E+01
 -1       860 2.62098E+01
 -1       861 2.64806E+01
 -1       862 2.64806E+01
 -1       863 2.38757E+01
 -1       864 2.38757E+01
 -1       865 2.38757E+01
 -1       866 2.25513E+01
 -1       867 2.12268E+01
 -1       868 2.14270E+01
 -1       869 2.16271E+01
 -1       870 2.16271E+01
 -1       871 2.16271E+01
 -1       872 2.09836E+01
 -1       873 2.12135E+01
 -1       874 2.14434E+01
 -1       875 2.15252E+01
 -1       876 2.16070E+01
 -1       877 2.16070E+01
 -1       878 2.16070E+01
 -1       879 2.13456E+01
 -1       880 2.10842E+01
 -1       881 2.38757E+01
 -1       882 2.42896E+01
 -1       883 2.29651E+01
 -1       884 2.13849E+01
 -1       885 2.15065E+01
 -1       886 2.16502E+01
 -1       887 2.13888E+01
 -1       888 3.13857E+01
 -1       889 3.13857E+01
 -1       890 3.13857E+01
 -1       891 2.76307E+01
 -1       892 2.38757E+01
 -1       893 2.42896E+01
 -1       894 2.47034E+01
 -1       895 2.47034E+01
 -1       896 2.47034E+01
 -1       897 2.13265E+01
 -1       898 2.13662E+01
 -1       899 2.14060E+01
 -1       900 2.15497E+01
 -1       901 2.16934E+01
 -1       902 2.16934E+01
 -1       903 2.16934E+01
 -1       904 2.65074E+01
 -1       905 3.13214E+01
 -1       906 3.13214E+01
 -1       907 3.13214E+01
 -1       908 3.13960E+01
 -1       909 3.13960E+01
 -1       910 2.27447E+01
 -1       911 2.47034E+01
 -1       912 2.47034E+01
 -1       913 2.19769E+01
 -1       914 2.16934E+01
 -1       915 2.16934E+01
 -1       916 3.13214E+01
 -1       917 3.13214E+01
 -1       918 3.14064E+01
 -1       919 3.14064E+01
 -1       920 3.14064E+01
 -1       921 2.65100E+01
 -1       922 2.16137E+01
 -1       923 2.31585E+01
 -1       924 2.47034E+01
 -1       925 2.47034E+01
 -1       926 2.47034E+01
 -1       927 2.53005E+01
 -1       928 2.58977E+01
 -1       929 2.58977E+01
 -1       930 2.58977E+01
 -1       931 2.58896E+01
 -1       932 2.58816E+01
 -1       933 2.58816E+01
 -1       934 2.58816E+01
 -1       935 2.42147E+01
 -1       936 2.25478E+01
 -1       937 2.21206E+01
 -1       938 2.16934E+01
 -1       939 2.16934E+01
 -1       940 2.16934E+01
 -1       941 2.65074E+01
 -1       942 3.13214E+01
 -1       943 3.13214E+01
 -1       944 3.13214E+01
 -1       945 3.14064E+01
 -1       946 3.14064E+01
 -1       947 2.16137E+01
 -1       948 2.29440E+01
 -1       949 2.41601E+01
 -1       950 2.58977E+01
 -1       951 2.58977E+01
 -1       952 2.58816E+01
 -1       953 2.58816E+01
 -1       954 2.40626E+01
 -1       955 2.16332E+01
 -1       956 3.11434E+01
 -1       957 3.11434E+01
 -1       958 3.14064E+01
 -1       959 3.14064E+01
 -1       960 3.14064E+01
 -1       961 2.65100E+01
 -1       962 2.16137E+01
 -1       963 2.13991E+01
 -1       964 2.11845E+01
 -1       965 2.36169E+01
 -1       966 2.47573E+01
 -1       967 2.58977E+01
 -1       968 2.58977E+01
 -1       969 2.58977E+01
 -1       970 2.58896E+01
 -1       971 2.58816E+01
 -1       972 2.58816E+01
 -1       973 2.58816E+01
 -1       974 2.57295E+01
 -1       975 2.55775E+01
 -1       976 2.15730E+01
 -1       977 2.62692E+01
 -1       978 3.09654E+01
 -1       979 3.09654E+01
 -1       980 3.09654E+01
 -1       981 3.12179E+01
 -1       982 3.12179E+01
 -1       983 2.15798E+01
 -1       984 2.36169E+01
 -1       985 2.64310E+01
 -1       986 2.64310E+01
 -1       987 2.63731E+01
 -1       988 2.63731E+01
 -1       989 2.55775E+01
 -1       990 3.02416E+01
 -1       991 3.02416E+01
 -1       992 3.10294E+01
 -1       993 3.10294E+01
 -1       994 3.10294E+01
 -1       995 2.62876E+01
 -1       996 2.15458E+01
 -1       997 2.36169E+01
 -1       998 2.52906E+01
 -1       999 2.69643E+01
 -1      1000 2.69643E+01
 -1      1001 2.69643E+01
 -1      1002 2.69144E+01
 -1      1003 2.68645E+01
 -1      1004 2.68645E+01
 -1      1005 2.68645E+01
 -1      1006 2.62210E+01
 -1      1007 2.55775E+01
 -1      1008 2.95178E+01
 -1      1009 2.95178E+01
 -1      1010 2.95178E+01
 -1      1011 3.06326E+01
 -1      1012 3.06326E+01
 -1      1013 2.46362E+01
 -1      1014 2.69643E+01
 -1      1015 2.69643E+01
 -1      1016 2.68645E+01
 -1      1017 2.68645E+01
 -1      1018 2.48453E+01
 -1      1019 3.02594E+01
 -1      1020 3.02594E+01
 -1      1021 3.02359E+01
 -1      1022 3.02359E+01
 -1      1023 3.02359E+01
 -1      1024 2.58913E+01
 -1      1025 2.15467E+01
 -1      1026 2.56555E+01
 -1      1027 2.63099E+01
 -1      1028 2.69643E+01
 -1      1029 2.69643E+01
 -1      1030 2.69643E+01
 -1      1031 2.69144E+01
 -1      1032 2.68645E+01
 -1      1033 2.68645E+01
 -1      1034 2.68645E+01
 -1      1035 2.54889E+01
 -1      1036 2.41132E+01
 -1      1037 2.15356E+01
 -1      1038 2.62683E+01
 -1      1039 3.10010E+01
 -1      1040 3.10010E+01
 -1      1041 3.10010E+01
 -1      1042 3.08876E+01
 -1      1043 3.08876E+01
 -1      1044 2.15467E+01
 -1      1045 2.56555E+01
 -1      1046 2.63931E+01
 -1      1047 2.63931E+01
 -1      1048 2.64040E+01
 -1      1049 2.64040E+01
 -1      1050 2.41132E+01
 -1      1051 2.15356E+01
 -1      1052 3.12015E+01
 -1      1053 3.12015E+01
 -1      1054 3.15394E+01
 -1      1055 3.15394E+01
 -1      1056 3.15394E+01
 -1      1057 2.65431E+01
 -1      1058 2.15467E+01
 -1      1059 2.13821E+01
 -1      1060 2.12176E+01
 -1      1061 2.56555E+01
 -1      1062 2.57387E+01
 -1      1063 2.58218E+01
 -1      1064 2.58218E+01
 -1      1065 2.58218E+01
 -1      1066 2.58826E+01
 -1      1067 2.59434E+01
 -1      1068 2.59434E+01
 -1      1069 2.59434E+01
 -1      1070 2.50283E+01
 -1      1071 2.41132E+01
 -1      1072 2.11159E+01
 -1      1073 2.13258E+01
 -1      1074 2.15356E+01
 -1      1075 2.64688E+01
 -1      1076 3.14020E+01
 -1      1077 3.14020E+01
 -1      1078 3.14020E+01
 -1      1079 3.15394E+01
 -1      1080 3.15394E+01
 -1      1081 2.19069E+01
 -1      1082 2.18292E+01
 -1      1083 2.40980E+01
 -1      1084 2.58218E+01
 -1      1085 2.58218E+01
 -1      1086 2.59434E+01
 -1      1087 2.59434E+01
 -1      1088 2.44162E+01
 -1      1089 2.29176E+01
 -1      1090 2.15283E+01
 -1      1091 3.14020E+01
 -1      1092 3.14020E+01
 -1      1093 3.15394E+01
 -1      1094 3.15394E+01
 -1      1095 3.15394E+01
 -1      1096 2.69033E+01
 -1      1097 2.22672E+01
 -1      1098 2.23540E+01
 -1      1099 2.24408E+01
 -1      1100 2.24906E+01
 -1      1101 2.25404E+01
 -1      1102 2.41811E+01
 -1      1103 2.58218E+01
 -1      1104 2.58218E+01
 -1      1105 2.58218E+01
 -1      1106 2.58826E+01
 -1      1107 2.59434E+01
 -1      1108 2.59434E+01
 -1      1109 2.59434E+01
 -1      1110 2.53313E+01
 -1      1111 2.47193E+01
 -1      1112 2.47193E+01
 -1      1113 2.47193E+01
 -1      1114 2.31201E+01
 -1      1115 2.15210E+01
 -1      1116 2.64615E+01
 -1      1117 3.14020E+01
 -1      1118 3.14020E+01
 -1      1119 3.14020E+01
 -1      1120 3.14889E+01
 -1      1121 3.14889E+01
 -1      1122 2.24120E+01
 -1      1123 2.24988E+01
 -1      1124 2.24906E+01
 -1      1125 2.47193E+01
 -1      1126 2.47193E+01
 -1      1127 2.25647E+01
 -1      1128 3.13983E+01
 -1      1129 3.13983E+01
 -1      1130 3.14383E+01
 -1      1131 3.14383E+01
 -1      1132 3.14383E+01
 -1      1133 2.69976E+01
 -1      1134 2.25568E+01
 -1      1135 2.25568E+01
 -1      1136 2.25568E+01
 -1      1137 2.24988E+01
 -1      1138 2.24408E+01
 -1      1139 2.18143E+01
 -1      1140 2.11878E+01
 -1      1141 2.13996E+01
 -1      1142 2.30594E+01
 -1      1143 2.47193E+01
 -1      1144 2.47193E+01
 -1      1145 2.47193E+01
 -1      1146 2.41638E+01
 -1      1147 2.36083E+01
 -1      1148 2.75014E+01
 -1      1149 3.13945E+01
 -1      1150 3.13945E+01
 -1      1151 3.13945E+01
 -1      1152 2.25568E+01
 -1      1153 2.25568E+01
 -1      1154 2.30093E+01
 -1      1155 2.23828E+01
 -1      1156 2.18378E+01
 -1      1157 2.34976E+01
 -1      1158 2.41638E+01
 -1      1159 2.36083E+01
 -1      1160 2.25568E+01
 -1      1161 2.25568E+01
 -1      1162 2.25568E+01
 -1      1163 2.30673E+01
 -1      1164 2.35778E+01
 -1      1165 2.35778E+01
 -1      1166 2.35778E+01
 -1      1167 2.22759E+01
 -1      1168 2.22759E+01
 -1      1169 2.22759E+01
 -1      1170 2.29421E+01
 -1      1171 2.36083E+01
 -1      1172 2.36083E+01
 -1      1173 2.36083E+01
 -1      1174 2.69901E+01
 -1      1175 2.75005E+01
 -1      1176 2.72940E+01
 -1      1177 2.66801E+01
 -1      1178 2.68651E+01
 -1      1179 2.75313E+01
 -1      1180 3.14233E+01
 -1      1181 3.14233E+01
 -1      1182 3.14233E+01
 -1      1183 3.12168E+01
 -1      1184 3.10102E+01
 -1      1185 2.96934E+01
 -1      1186 2.83765E+01
 -1      1187 2.90425E+01
 -1      1188 2.97086E+01
 -1      1189 3.03964E+01
 -1      1190 3.10843E+01
 -1      1191 3.12693E+01
 -1      1192 3.14543E+01
 -1      1193 3.14543E+01
 -1      1194 3.14543E+01
 -1      1195 3.14233E+01
 -1      1196 3.14233E+01
 -1      1197 3.10102E+01
 -1      1198 2.83765E+01
 -1      1199 2.97086E+01
 -1      1200 3.10843E+01
 -1      1201 3.14543E+01
 -1      1202 3.14543E+01
 -1      1203 3.14233E+01
 -1      1204 3.14233E+01
 -1      1205 3.14233E+01
 -1      1206 3.12168E+01
 -1      1207 3.10102E+01
 -1      1208 2.96934E+01
 -1      1209 2.83765E+01
 -1      1210 2.90425E+01
 -1      1211 2.97086E+01
 -1      1212 3.03964E+01
 -1      1213 3.10843E+01
 -1      1214 3.12693E+01
 -1      1215 3.14543E+01
 -1      1216 3.14543E+01
 -1      1217 3.14543E+01
 -1      1218 2.35532E+01
 -1      1219 2.41503E+01
 -1      1220 2.40361E+01
 -1      1221 2.45723E+01
 -1      1222 2.45723E+01
 -1      1223 2.25478E+01
 -1      1224 2.30099E+01
 -1      1225 2.47403E+01
 -1      1226 2.47403E+01
 -1      1227 2.45723E+01
 -1      1228 2.45723E+01
 -1      1229 2.40626E+01
 -1      1230 2.26064E+01
 -1      1231 2.52736E+01
 -1      1232 2.52736E+01
 -1      1233 2.38494E+01
 -1      1234 2.30448E+01
 -1      1235 2.22866E+01
 -1      1236 2.24796E+01
 -1      1237 2.33754E+01
 -1      1238 2.38993E+01
 -1      1239 2.52213E+01
 -1      1240 2.52213E+01
 -1      1241 2.29296E+01
 -1      1242 2.40980E+01
 -1      1243 2.42288E+01
 -1      1244 2.42288E+01
 -1      1245 2.47608E+01
 -1      1246 2.47608E+01
 -1      1247 2.32514E+01
 -1      1248 2.25404E+01
 -1      1249 2.42288E+01
 -1      1250 2.42288E+01
 -1      1251 2.41485E+01
 -1      1252 2.41665E+01
 -1      1253 2.35544E+01
 -1      1254 2.24030E+01
 -1      1255 2.24030E+01
 -1      1256 2.24030E+01
 -1      1257 2.22888E+01
 -1      1258 2.21746E+01
 -1      1259 2.27188E+01
 -1      1260 2.32629E+01
 -1      1261 2.32629E+01
 -1      1262 2.32629E+01
 -1      1263 2.29054E+01
 -1      1264 2.25478E+01
 -1      1265 2.24030E+01
 -1      1266 2.29930E+01
 -1      1267 2.28788E+01
 -1      1268 2.32629E+01
 -1      1269 2.32629E+01
 -1      1270 2.25478E+01
 -1      1271 2.24030E+01
 -1      1272 2.29930E+01
 -1      1273 2.35829E+01
 -1      1274 2.35829E+01
 -1      1275 2.35829E+01
 -1      1276 2.34229E+01
 -1      1277 2.32629E+01
 -1      1278 2.32629E+01
 -1      1279 2.32629E+01
 -1      1280 2.29054E+01
 -1      1281 2.25478E+01
 -1      1282 2.19994E+01
 -1      1283 2.35829E+01
 -1      1284 2.35829E+01
 -1      1285 2.20486E+01
 -1      1286 2.12440E+01
 -1      1287 2.07718E+01
 -1      1288 2.15958E+01
 -1      1289 2.25894E+01
 -1      1290 2.35829E+01
 -1      1291 2.35829E+01
 -1      1292 2.35829E+01
 -1      1293 2.22086E+01
 -1      1294 2.08343E+01
 -1      1295 2.00297E+01
 -1      1296 1.92250E+01
 -1      1297 1.91104E+01
 -1      1298 1.89958E+01
 -1      1299 2.04498E+01
 -1      1300 2.16847E+01
 -1      1301 2.22086E+01
 -1      1302 2.22062E+01
 -1      1303 2.14016E+01
 -1      1304 2.03709E+01
 -1      1305 1.93037E+01
 -1      1306 1.95451E+01
 -1      1307 1.97865E+01
 -1      1308 2.03104E+01
 -1      1309 2.08343E+01
 -1      1310 2.22062E+01
 -1      1311 2.35782E+01
 -1      1312 2.35782E+01
 -1      1313 2.35782E+01
 -1      1314 2.26621E+01
 -1      1315 2.17460E+01
 -1      1316 2.09221E+01
 -1      1317 2.12111E+01
 -1      1318 2.17350E+01
 -1      1319 2.35782E+01
 -1      1320 2.35782E+01
 -1      1321 2.20678E+01
 -1      1322 2.25404E+01
 -1      1323 2.25881E+01
 -1      1324 2.26358E+01
 -1      1325 2.26358E+01
 -1      1326 2.26358E+01
 -1      1327 2.31070E+01
 -1      1328 2.35782E+01
 -1      1329 2.35782E+01
 -1      1330 2.35782E+01
 -1      1331 2.29838E+01
 -1      1332 2.23895E+01
 -1      1333 2.25404E+01
 -1      1334 2.26358E+01
 -1      1335 2.26358E+01
 -1      1336 2.29659E+01
 -1      1337 2.29838E+01
 -1      1338 2.23895E+01
 -1      1339 2.25404E+01
 -1      1340 2.25881E+01
 -1      1341 2.26358E+01
 -1      1342 2.26358E+01
 -1      1343 2.26358E+01
 -1      1344 2.24947E+01
 -1      1345 2.23536E+01
 -1      1346 2.23716E+01
 -1      1347 2.23895E+01
 -1      1348 2.23895E+01
 -1      1349 2.23895E+01
 -1      1350 1.76007E+01
 -1      1351 1.79521E+01
 -1      1352 1.78379E+01
 -1      1353 2.28373E+01
 -1      1354 2.28373E+01
 -1      1355 2.21648E+01
 -1      1356 1.76007E+01
 -1      1357 1.86166E+01
 -1      1358 2.04208E+01
 -1      1359 2.28373E+01
 -1      1360 2.28373E+01
 -1      1361 2.21648E+01
 -1      1362 1.71692E+01
 -1      1363 2.01199E+01
 -1      1364 2.22086E+01
 -1      1365 2.08343E+01
 -1      1366 1.82716E+01
 -1      1367 1.54418E+01
 -1      1368 1.55467E+01
 -1      1369 1.82217E+01
 -1      1370 2.08343E+01
 -1      1371 2.22062E+01
 -1      1372 2.03825E+01
 -1      1373 1.72826E+01
 -1      1374 2.22370E+01
 -1      1375 2.22847E+01
 -1      1376 2.21083E+01
 -1      1377 2.09743E+01
 -1      1378 1.87403E+01
 -1      1379 1.76224E+01
 -1      1380 2.22370E+01
 -1      1381 2.22847E+01
 -1      1382 2.21083E+01
 -1      1383 1.79816E+01
 -1      1384 1.79996E+01
 -1      1385 1.76224E+01
 -1      1386 1.27985E+01
 -1      1387 1.31498E+01
 -1      1388 1.35012E+01
 -1      1389 1.35012E+01
 -1      1390 1.35012E+01
 -1      1391 1.79564E+01
 -1      1392 2.24116E+01
 -1      1393 2.24116E+01
 -1      1394 2.24116E+01
 -1      1395 2.20967E+01
 -1      1396 2.17818E+01
 -1      1397 1.27985E+01
 -1      1398 1.35757E+01
 -1      1399 1.53799E+01
 -1      1400 2.24116E+01
 -1      1401 2.24116E+01
 -1      1402 2.17818E+01
 -1      1403 1.27985E+01
 -1      1404 1.32243E+01
 -1      1405 1.36502E+01
 -1      1406 1.54544E+01
 -1      1407 1.72586E+01
 -1      1408 1.98351E+01
 -1      1409 2.24116E+01
 -1      1410 2.24116E+01
 -1      1411 2.24116E+01
 -1      1412 2.20967E+01
 -1      1413 2.17818E+01
 -1      1414 1.27705E+01
 -1      1415 1.51536E+01
 -1      1416 1.90465E+01
 -1      1417 2.16229E+01
 -1      1418 1.98649E+01
 -1      1419 1.68348E+01
 -1      1420 1.27426E+01
 -1      1421 1.46998E+01
 -1      1422 1.66570E+01
 -1      1423 1.87456E+01
 -1      1424 2.08343E+01
 -1      1425 2.08343E+01
 -1      1426 2.08343E+01
 -1      1427 1.90762E+01
 -1      1428 1.73181E+01
 -1      1429 1.46029E+01
 -1      1430 1.18877E+01
 -1      1431 1.22662E+01
 -1      1432 1.66570E+01
 -1      1433 2.08343E+01
 -1      1434 2.08343E+01
 -1      1435 1.72525E+01
 -1      1436 1.23535E+01
 -1      1437 1.17898E+01
 -1      1438 1.42234E+01
 -1      1439 1.66570E+01
 -1      1440 1.87456E+01
 -1      1441 2.08343E+01
 -1      1442 2.08343E+01
 -1      1443 2.08343E+01
 -1      1444 1.90106E+01
 -1      1445 1.71869E+01
 -1      1446 1.50030E+01
 -1      1447 1.28192E+01
 -1      1448 1.68617E+01
 -1      1449 1.92953E+01
 -1      1450 2.12076E+01
 -1      1451 1.96024E+01
 -1      1452 1.55447E+01
 -1      1453 1.28372E+01
 -1      1454 2.19336E+01
 -1      1455 2.19336E+01
 -1      1456 2.19336E+01
 -1      1457 2.17572E+01
 -1      1458 2.15808E+01
 -1      1459 1.99756E+01
 -1      1460 1.83705E+01
 -1      1461 1.61365E+01
 -1      1462 1.39025E+01
 -1      1463 1.33789E+01
 -1      1464 1.28553E+01
 -1      1465 2.19336E+01
 -1      1466 2.19336E+01
 -1      1467 2.15808E+01
 -1      1468 1.59901E+01
 -1      1469 1.37561E+01
 -1      1470 1.28553E+01
 -1      1471 2.19336E+01
 -1      1472 2.19336E+01
 -1      1473 2.19336E+01
 -1      1474 2.17572E+01
 -1      1475 2.15808E+01
 -1      1476 1.75952E+01
 -1      1477 1.36097E+01
 -1      1478 1.36097E+01
 -1      1479 1.36097E+01
 -1      1480 1.32325E+01
 -1      1481 1.28553E+01
 -3
    1PSTEP                        13           1           1          
    1PGM                1.000000E+00                                  
    1PGK                1.235845E+12                                  
    1PHID                         -1                                  
    1PSUBC                         0                                  
    1PMODE                         4                                  
  100CL  104 176930.2766        1481                     2    4MODAL      1
 -4  DISP        4    1
 -5  D1          1    2    1    0
 -5  D2          1    2    2    0
 -5  D3          1    2    3    0
 -5  ALL         1    2    0    0    1ALL
 -1         1-1.41152E+03-1.31251E+03 8.58765E+03
 -1         2-1.30490E+03-1.12864E+03 6.68792E+03
 -1         3-1.15341E+03-7.87706E+02 4.87829E+03
 -1         4-1.11261E+03-5.17938E+02 3.20729E+03
 -1         5-1.09892E+03-2.55784E+02 1.56357E+03
 -1         6-1.08787E+03 7.30880E+00-6.13473E+01
 -1         7-1.08613E+03 2.70561E+02-1.67899E+03
 -1         8-1.08868E+03 5.34168E+02-3.29913E+03
 -1         9-1.11660E+03 8.00706E+02-4.93351E+03
 -1        10-1.21539E+03 1.14506E+03-6.68150E+03
 -1        11-1.26714E+03 1.39741E+03-8.49454E+03
 -1        12-1.15484E+03-1.25693E+03 6.71503E+03
 -1        13-1.07131E+03-7.96716E+02 3.87945E+03
 -1        14-1.02126E+03-2.58565E+02 1.24575E+03
 -1        15-1.00930E+03 2.69419E+02-1.34366E+03
 -1        16-1.03196E+03 8.05431E+02-3.91912E+03
 -1        17-1.09024E+03 1.29266E+03-6.61880E+03
 -1        18-8.02777E+02-1.15184E+03 4.91251E+03
 -1        19-8.08102E+02-1.06593E+03 3.89481E+03
 -1        20-7.97710E+02-7.92018E+02 2.89025E+03
 -1        21-7.80782E+02-5.28280E+02 1.89497E+03
 -1        22-7.67982E+02-2.61392E+02 9.17254E+02
 -1        23-7.61153E+02 3.35581E+00-4.67002E+01
 -1        24-7.57027E+02 2.67652E+02-1.00346E+03
 -1        25-7.58211E+02 5.33564E+02-1.95978E+03
 -1        26-7.62497E+02 7.95684E+02-2.91771E+03
 -1        27-7.66107E+02 1.06478E+03-3.86874E+03
 -1        28-7.57405E+02 1.14539E+03-4.82896E+03
 -1        29-5.31867E+02-1.11934E+03 3.23243E+03
 -1        30-5.32095E+02-7.84866E+02 1.89664E+03
 -1        31-5.13253E+02-2.61402E+02 5.92986E+02
 -1        32-5.02867E+02 2.62760E+02-6.73578E+02
 -1        33-5.02459E+02 7.80717E+02-1.92391E+03
 -1        34-4.92194E+02 1.10796E+03-3.17038E+03
 -1        35-2.65223E+02-1.11176E+03 1.57347E+03
 -1        36-2.65104E+02-1.03437E+03 1.24377E+03
 -1        37-2.63570E+02-7.79953E+02 9.08715E+02
 -1        38-2.57819E+02-5.24063E+02 5.84496E+02
 -1        39-2.52116E+02-2.62575E+02 2.67362E+02
 -1        40-2.47201E+02-1.71367E+00-4.38917E+01
 -1        41-2.42740E+02 2.58608E+02-3.49093E+02
 -1        42-2.39822E+02 5.18061E+02-6.48522E+02
 -1        43-2.38818E+02 7.70366E+02-9.44862E+02
 -1        44-2.35976E+02 1.02061E+03-1.24467E+03
 -1        45-2.33758E+02 1.09735E+03-1.53436E+03
 -1        46 3.06904E-01-1.10728E+03-7.56439E+01
 -1        47 2.11875E+00-7.79223E+02-7.44009E+01
 -1        48 8.93366E+00-2.64329E+02-6.12320E+01
 -1        49 1.69987E+01 2.55760E+02-2.81172E+01
 -1        50 2.32227E+01 7.66343E+02 2.39205E+01
 -1        51 2.59416E+01 1.08948E+03 8.69540E+01
 -1        52 2.64637E+02-1.11023E+03-1.72227E+03
 -1        53 2.65345E+02-1.03316E+03-1.39391E+03
 -1        54 2.66908E+02-7.80544E+02-1.05811E+03
 -1        55 2.67448E+02-5.26357E+02-7.26124E+02
 -1        56 2.69473E+02-2.65974E+02-3.92134E+02
 -1        57 2.72853E+02-5.94427E+00-5.35071E+01
 -1        58 2.76530E+02 2.53607E+02 2.89629E+02
 -1        59 2.80686E+02 5.12728E+02 6.36924E+02
 -1        60 2.85176E+02 7.65018E+02 9.89231E+02
 -1        61 2.85947E+02 1.01508E+03 1.35043E+03
 -1        62 2.86057E+02 1.09137E+03 1.70534E+03
 -1        63 5.26833E+02-1.11608E+03-3.37469E+03
 -1        64 5.32624E+02-7.86464E+02-2.04724E+03
 -1        65 5.29333E+02-2.68127E+02-7.24424E+02
 -1        66 5.35650E+02 2.52970E+02 6.04708E+02
 -1        67 5.48932E+02 7.69304E+02 1.95763E+03
 -1        68 5.45998E+02 1.09708E+03 3.33146E+03
 -1        69 7.92448E+02-1.14621E+03-5.04273E+03
 -1        70 7.99212E+02-1.06361E+03-4.03914E+03
 -1        71 7.93692E+02-7.95630E+02-3.04418E+03
 -1        72 7.85825E+02-5.35195E+02-2.04905E+03
 -1        73 7.82134E+02-2.70977E+02-1.05956E+03
 -1        74 7.83954E+02-8.61362E+00-7.20052E+01
 -1        75 7.88000E+02 2.53620E+02 9.19305E+02
 -1        76 7.96903E+02 5.17394E+02 1.91985E+03
 -1        77 8.09060E+02 7.77274E+02 2.93207E+03
 -1        78 8.16653E+02 1.04490E+03 3.94845E+03
 -1        79 8.10477E+02 1.12757E+03 4.97488E+03
 -1        80 1.12706E+03-1.26135E+03-6.82423E+03
 -1        81 1.06145E+03-8.01766E+02-4.04173E+03
 -1        82 1.03266E+03-2.71071E+02-1.40185E+03
 -1        83 1.03836E+03 2.51950E+02 1.23874E+03
 -1        84 1.07670E+03 7.82592E+02 3.90590E+03
 -1        85 1.14646E+03 1.24188E+03 6.73416E+03
 -1        86 1.34144E+03-1.33390E+03-8.67804E+03
 -1        87 1.26328E+03-1.12799E+03-6.82604E+03
 -1        88 1.14350E+03-7.95215E+02-5.04865E+03
 -1        89 1.11387E+03-5.30860E+02-3.38569E+03
 -1        90 1.10914E+03-2.71102E+02-1.73783E+03
 -1        91 1.10767E+03-1.03415E+01-9.58639E+01
 -1        92 1.11480E+03 2.50418E+02 1.54972E+03
 -1        93 1.12453E+03 5.10216E+02 3.20836E+03
 -1        94 1.15857E+03 7.75067E+02 4.88815E+03
 -1        95 1.28360E+03 1.10905E+03 6.68859E+03
 -1        96 1.36563E+03 1.31272E+03 8.56720E+03
 -1        97-1.14709E+03-1.04536E+03 8.58948E+03
 -1        98-8.96927E+02-6.35157E+02 4.87327E+03
 -1        99-8.56735E+02-2.05636E+02 1.56292E+03
 -1       100-8.46802E+02 2.17430E+02-1.67896E+03
 -1       101-8.68708E+02 6.46153E+02-4.92953E+03
 -1       102-1.00850E+03 1.13614E+03-8.49633E+03
 -1       103-6.47855E+02-8.96385E+02 4.90828E+03
 -1       104-6.42834E+02-6.38999E+02 2.88785E+03
 -1       105-6.18738E+02-2.09413E+02 9.17157E+02
 -1       106-6.09728E+02 2.14401E+02-1.00362E+03
 -1       107-6.15303E+02 6.41187E+02-2.91553E+03
 -1       108-6.10750E+02 8.91105E+02-4.82413E+03
 -1       109-2.13062E+02-8.67000E+02 1.57314E+03
 -1       110-2.11129E+02-6.28099E+02 9.08632E+02
 -1       111-2.02408E+02-2.10882E+02 2.67011E+02
 -1       112-1.94983E+02 2.07617E+02-3.48979E+02
 -1       113-1.91319E+02 6.20615E+02-9.44935E+02
 -1       114-1.87967E+02 8.55841E+02-1.53386E+03
 -1       115 2.12715E+02-8.66083E+02-1.72201E+03
 -1       116 2.13917E+02-6.28629E+02-1.05827E+03
 -1       117 2.16360E+02-2.13563E+02-3.92065E+02
 -1       118 2.22007E+02 2.03637E+02 2.89365E+02
 -1       119 2.28462E+02 6.16173E+02 9.89294E+02
 -1       120 2.29928E+02 8.51261E+02 1.70518E+03
 -1       121 6.39254E+02-8.92642E+02-5.03861E+03
 -1       122 6.39876E+02-6.41484E+02-3.04215E+03
 -1       123 6.29929E+02-2.17130E+02-1.05975E+03
 -1       124 6.34618E+02 2.03191E+02 9.19288E+02
 -1       125 6.52129E+02 6.26784E+02 2.92990E+03
 -1       126 6.53723E+02 8.77672E+02 4.97074E+03
 -1       127 1.07924E+03-1.07065E+03-8.67983E+03
 -1       128 8.90480E+02-6.41372E+02-5.04448E+03
 -1       129 8.65449E+02-2.17915E+02-1.73765E+03
 -1       130 8.69937E+02 2.01293E+02 1.54931E+03
 -1       131 9.02362E+02 6.25162E+02 4.88378E+03
 -1       132 1.09975E+03 1.05250E+03 8.56902E+03
 -1       133-9.10065E+02-8.02914E+02 8.59387E+03
 -1       134-7.86683E+02-6.85911E+02 6.67311E+03
 -1       135-6.49166E+02-4.77534E+02 4.86825E+03
 -1       136-6.41147E+02-3.12577E+02 3.20577E+03
 -1       137-6.28199E+02-1.57114E+02 1.56247E+03
 -1       138-6.24929E+02 4.29122E+00-6.15804E+01
 -1       139-6.20623E+02 1.66064E+02-1.67903E+03
 -1       140-6.26657E+02 3.22718E+02-3.29841E+03
 -1       141-6.31206E+02 4.86105E+02-4.92545E+03
 -1       142-7.18292E+02 6.96124E+02-6.67307E+03
 -1       143-7.73713E+02 9.01550E+02-8.50057E+03
 -1       144-7.02018E+02-7.43568E+02 6.70607E+03
 -1       145-6.45947E+02-4.85974E+02 3.87613E+03
 -1       146-6.14591E+02-1.57399E+02 1.24373E+03
 -1       147-6.07749E+02 1.63744E+02-1.34266E+03
 -1       148-6.20970E+02 4.92401E+02-3.91657E+03
 -1       149-6.62605E+02 7.79727E+02-6.60429E+03
 -1       150-4.87303E+02-6.51440E+02 4.90397E+03
 -1       151-4.94069E+02-6.41382E+02 3.89192E+03
 -1       152-4.85781E+02-4.83201E+02 2.88602E+03
 -1       153-4.72433E+02-3.22278E+02 1.89240E+03
 -1       154-4.67238E+02-1.58241E+02 9.17039E+02
 -1       155-4.61543E+02 2.04443E+00-4.70188E+01
 -1       156-4.60373E+02 1.61925E+02-1.00367E+03
 -1       157-4.59557E+02 3.24937E+02-1.95784E+03
 -1       158-4.65315E+02 4.84545E+02-2.91387E+03
 -1       159-4.67302E+02 6.42182E+02-3.86571E+03
 -1       160-4.59187E+02 6.45356E+02-4.81929E+03
 -1       161-3.21164E+02-6.44718E+02 3.23139E+03
 -1       162-3.24061E+02-4.75650E+02 1.89426E+03
 -1       163-3.12338E+02-1.59388E+02 5.92672E+02
 -1       164-3.05955E+02 1.60192E+02-6.73708E+02
 -1       165-3.06644E+02 4.72413E+02-1.92170E+03
 -1       166-2.97054E+02 6.38860E+02-3.16907E+03
 -1       167-1.62725E+02-6.35674E+02 1.57298E+03
 -1       168-1.61087E+02-6.22895E+02 1.24228E+03
 -1       169-1.59450E+02-4.74162E+02 9.08495E+02
 -1       170-1.57251E+02-3.18737E+02 5.84197E+02
 -1       171-1.53296E+02-1.59735E+02 2.66772E+02
 -1       172-1.50737E+02-1.11322E+00-4.40784E+01
 -1       173-1.47733E+02 1.57231E+02-3.48924E+02
 -1       174-1.46276E+02 3.15235E+02-6.48558E+02
 -1       175-1.44609E+02 4.68668E+02-9.44954E+02
 -1       176-1.43716E+02 6.14273E+02-1.24294E+03
 -1       177-1.43715E+02 6.27771E+02-1.53353E+03
 -1       178 2.19444E-01-6.36240E+02-7.57304E+01
 -1       179 1.37538E+00-4.72448E+02-7.46014E+01
 -1       180 5.43779E+00-1.61122E+02-6.14723E+01
 -1       181 1.02213E+01 1.55866E+02-2.82651E+01
 -1       182 1.40604E+01 4.64691E+02 2.39750E+01
 -1       183 1.56154E+01 6.26513E+02 8.70167E+01
 -1       184 1.62445E+02-6.35363E+02-1.72189E+03
 -1       185 1.61412E+02-6.22001E+02-1.39269E+03
 -1       186 1.61662E+02-4.74589E+02-1.05833E+03
 -1       187 1.63037E+02-3.20191E+02-7.26289E+02
 -1       188 1.63845E+02-1.61732E+02-3.92043E+02
 -1       189 1.66223E+02-3.59814E+00-5.36883E+01
 -1       190 1.68086E+02 1.54230E+02 2.89194E+02
 -1       191 1.70998E+02 3.11938E+02 6.36819E+02
 -1       192 1.72577E+02 4.65260E+02 9.89285E+02
 -1       193 1.73905E+02 6.11120E+02 1.34915E+03
 -1       194 1.75421E+02 6.24276E+02 1.70514E+03
 -1       195 3.18364E+02-6.43237E+02-3.37372E+03
 -1       196 3.24595E+02-4.76425E+02-2.04538E+03
 -1       197 3.22001E+02-1.63422E+02-7.24590E+02
 -1       198 3.25802E+02 1.54208E+02 6.04529E+02
 -1       199 3.34334E+02 4.66041E+02 1.95557E+03
 -1       200 3.29971E+02 6.31973E+02 3.33051E+03
 -1       201 4.80990E+02-6.48801E+02-5.03437E+03
 -1       202 4.87882E+02-6.40848E+02-4.03664E+03
 -1       203 4.83657E+02-4.84880E+02-3.04060E+03
 -1       204 4.75951E+02-3.26141E+02-2.04720E+03
 -1       205 4.75623E+02-1.64071E+02-1.05984E+03
 -1       206 4.75341E+02-5.22893E+00-7.21904E+01
 -1       207 4.79145E+02 1.53548E+02 9.19223E+02
 -1       208 4.82602E+02 3.15379E+02 1.91767E+03
 -1       209 4.92852E+02 4.73787E+02 2.92824E+03
 -1       210 4.98496E+02 6.29442E+02 3.94583E+03
 -1       211 4.91866E+02 6.37569E+02 4.96650E+03
 -1       212 6.84764E+02-7.51702E+02-6.81366E+03
 -1       213 6.39752E+02-4.89267E+02-4.03922E+03
 -1       214 6.21750E+02-1.64923E+02-1.40065E+03
 -1       215 6.25138E+02 1.53314E+02 1.23714E+03
 -1       216 6.48940E+02 4.77578E+02 3.90313E+03
 -1       217 6.96470E+02 7.39227E+02 6.72376E+03
 -1       218 8.41490E+02-8.31537E+02-8.68418E+03
 -1       219 7.54545E+02-6.85280E+02-6.81484E+03
 -1       220 6.46943E+02-4.82543E+02-5.04019E+03
 -1       221 6.42180E+02-3.20774E+02-3.38480E+03
 -1       222 6.35026E+02-1.66311E+02-1.73758E+03
 -1       223 6.37329E+02-6.27015E+00-9.60480E+01
 -1       224 6.38385E+02 1.53748E+02 1.54907E+03
 -1       225 6.48577E+02 3.08198E+02 3.20714E+03
 -1       226 6.55602E+02 4.70270E+02 4.87934E+03
 -1       227 7.67528E+02 6.73706E+02 6.67690E+03
 -1       228 8.58698E+02 8.16501E+02 8.57342E+03
 -1       229-8.35060E+02-6.93439E+02 8.63014E+03
 -1       230-4.30076E+02-3.29066E+02 4.86939E+03
 -1       231-4.23832E+02-1.12050E+02 1.56762E+03
 -1       232-4.16457E+02 1.20019E+02-1.68343E+03
 -1       233-4.20052E+02 3.36212E+02-4.92500E+03
 -1       234-6.66995E+02 8.25193E+02-8.53583E+03
 -1       235-3.37149E+02-4.33465E+02 4.90358E+03
 -1       236-3.14578E+02-3.16640E+02 2.87586E+03
 -1       237-3.18710E+02-1.08955E+02 9.18443E+02
 -1       238-3.13187E+02 1.11635E+02-1.00537E+03
 -1       239-3.05039E+02 3.14054E+02-2.90407E+03
 -1       240-3.16482E+02 4.27691E+02-4.82047E+03
 -1       241-1.17950E+02-4.26950E+02 1.57726E+03
 -1       242-1.10015E+02-3.22738E+02 9.10007E+02
 -1       243-1.03875E+02-1.08299E+02 2.66735E+02
 -1       244-1.00204E+02 1.06548E+02-3.49005E+02
 -1       245-9.95678E+01 3.19599E+02-9.46408E+02
 -1       246-1.02629E+02 4.23456E+02-1.53869E+03
 -1       247 1.16271E+02-4.27253E+02-1.72629E+03
 -1       248 1.11372E+02-3.23086E+02-1.05989E+03
 -1       249 1.11012E+02-1.09618E+02-3.92140E+02
 -1       250 1.13922E+02 1.04552E+02 2.89170E+02
 -1       251 1.18569E+02 3.16625E+02 9.90816E+02
 -1       252 1.24978E+02 4.19460E+02 1.70968E+03
 -1       253 3.31665E+02-4.31244E+02-5.03453E+03
 -1       254 3.16174E+02-3.17461E+02-3.03138E+03
 -1       255 3.23836E+02-1.12780E+02-1.06137E+03
 -1       256 3.26262E+02 1.05644E+02 9.20629E+02
 -1       257 3.22131E+02 3.10076E+02 2.91885E+03
 -1       258 3.39268E+02 4.23800E+02 4.96650E+03
 -1       259 7.38524E+02-7.23917E+02-8.71903E+03
 -1       260 4.29866E+02-3.32656E+02-5.04052E+03
 -1       261 4.27153E+02-1.18440E+02-1.74219E+03
 -1       262 4.29566E+02 1.09873E+02 1.55362E+03
 -1       263 4.35550E+02 3.24303E+02 4.87970E+03
 -1       264 7.55021E+02 7.11584E+02 8.60865E+03
 -1       265 0.00000E+00 0.00000E+00 0.00000E+00
 -1       266 0.00000E+00 0.00000E+00 0.00000E+00
 -1       267 0.00000E+00 0.00000E+00 0.00000E+00
 -1       268 0.00000E+00 0.00000E+00 0.00000E+00
 -1       269 0.00000E+00 0.00000E+00 0.00000E+00
 -1       270 0.00000E+00 0.00000E+00 0.00000E+00
 -1       271 0.00000E+00 0.00000E+00 0.00000E+00
 -1       272 0.00000E+00 0.00000E+00 0.00000E+00
 -1       273 0.00000E+00 0.00000E+00 0.00000E+00
 -1       274 0.00000E+00 0.00000E+00 0.00000E+00
 -1       275 0.00000E+00 0.00000E+00 0.00000E+00
 -1       276 0.00000E+00 0.00000E+00 0.00000E+00
 -1       277 0.00000E+00 0.00000E+00 0.00000E+00
 -1       278 0.00000E+00 0.00000E+00 0.00000E+00
 -1       279 0.00000E+00 0.00000E+00 0.00000E+00
 -1       280-1.90199E+02 1.79382E+03 5.79509E+03
 -1       281-1.75389E+02 1.14162E+03 3.64399E+03
 -1       282-1.03315E+02 6.91160E+02 2.12045E+03
 -1       283-1.50263E+02 2.76439E+02 7.46745E+02
 -1       284-1.49373E+02-3.05481E+02-8.45699E+02
 -1       285-1.19016E+02-7.39635E+02-2.29449E+03
 -1       286-1.60165E+02-1.17974E+03-3.76983E+03
 -1       287-1.65570E+02-1.77940E+03-5.76800E+03
 -1       288-7.42219E+02 3.15389E+03 2.06426E+04
 -1       289-6.55926E+02 2.55818E+03 1.65956E+04
 -1       290-5.40420E+02 2.04294E+03 1.30952E+04
 -1       291-4.39095E+02 1.63040E+03 1.02512E+04
 -1       292-3.48720E+02 1.28215E+03 7.98036E+03
 -1       293-4.05929E+02 9.66486E+02 5.78925E+03
 -1       294-5.01176E+02 6.15400E+02 3.24283E+03
 -1       295-5.31128E+02-2.57047E+01-1.71737E+02
 -1       296-5.01282E+02-6.63192E+02-3.58732E+03
 -1       297-4.25456E+02-1.01641E+03-6.18537E+03
 -1       298-3.83104E+02-1.34094E+03-8.48907E+03
 -1       299-4.23001E+02-1.69715E+03-1.08492E+04
 -1       300-5.05437E+02-2.08844E+03-1.35232E+04
 -1       301-6.19151E+02-2.58966E+03-1.68053E+04
 -1       302-6.72127E+02-3.12475E+03-2.05571E+04
 -1       303-1.34545E+03 2.26635E+03 3.71746E+04
 -1       304-8.55225E+02 1.67630E+03 2.40907E+04
 -1       305-5.96808E+02 1.39551E+03 1.57682E+04
 -1       306-6.76092E+02 1.10431E+03 8.46192E+03
 -1       307-6.89256E+02-1.06351E+03-8.77435E+03
 -1       308-5.82473E+02-1.27263E+03-1.61930E+04
 -1       309-8.61729E+02-1.63697E+03-2.45689E+04
 -1       310-1.22833E+03-2.23671E+03-3.68099E+04
 -1       311-1.29500E+03-1.27814E+03 6.47555E+04
 -1       312-1.40499E+03-1.85206E+02 5.64264E+04
 -1       313-1.60195E+03 8.22008E+02 4.71938E+04
 -1       314-1.26542E+03 1.05012E+03 3.88434E+04
 -1       315-8.61479E+02 1.15324E+03 3.26258E+04
 -1       316-7.25187E+02 1.38711E+03 2.80519E+04
 -1       317-6.56226E+02 1.49569E+03 2.42252E+04
 -1       318-7.11119E+02 1.45115E+03 2.01685E+04
 -1       319-7.71470E+02 1.43180E+03 1.58964E+04
 -1       320-6.76707E+02-1.37306E+03-1.59286E+04
 -1       321-6.28137E+02-1.22639E+03-1.96478E+04
 -1       322-5.81543E+02-1.06363E+03-2.30682E+04
 -1       323-8.19646E+02-9.86042E+02-2.71175E+04
 -1       324-1.00016E+03-1.03223E+03-3.24146E+04
 -1       325-1.21488E+03-9.64074E+02-3.88045E+04
 -1       326-1.49584E+03-8.03626E+02-4.65836E+04
 -1       327-1.36042E+03 1.87333E+02-5.54552E+04
 -1       328-1.25917E+03 1.28629E+03-6.35960E+04
 -1       329-1.73318E+02-1.38388E+03 5.64783E+04
 -1       330-1.25434E+03-2.59156E+02 4.83657E+04
 -1       331-1.21034E+03-4.44347E+02 3.42382E+04
 -1       332-4.18048E+02-2.91327E+02-2.69075E+04
 -1       333-9.90280E+02 2.28504E+02-3.49063E+04
 -1       334-1.17799E+03 3.19571E+02-4.76304E+04
 -1       335-1.90267E+02 1.40523E+03-5.53052E+04
 -1       336 0.00000E+00 0.00000E+00 0.00000E+00
 -1       337 1.81025E+03-1.68964E+02 5.86864E+03
 -1       338 3.17895E+03-6.85556E+02 2.09155E+04
 -1       339 2.27966E+03-1.25223E+03 3.74607E+04
 -1       340 8.27536E+02-1.52700E+03 4.74433E+04
 -1       341-3.07367E+02-1.21205E+03 4.85898E+04
 -1       342-1.24257E+03-1.22306E+03 4.38495E+04
 -1       343-1.39542E+03-1.42621E+03 3.63354E+04
 -1       344-1.68591E+03-1.88286E+03 2.69949E+04
 -1       345 1.22233E+02 2.18133E+02-2.72391E+04
 -1       346-2.65246E+02 8.56787E+02-2.73297E+04
 -1       347-9.12944E+02 1.61768E+03-2.97453E+04
 -1       348-1.11807E+03 1.38014E+03-3.62917E+04
 -1       349-1.17523E+03 1.24511E+03-4.28553E+04
 -1       350-2.47580E+02 1.26749E+03-4.71893E+04
 -1       351 7.91998E+02 1.61600E+03-4.60537E+04
 -1       352 2.20751E+03 1.36278E+03-3.63321E+04
 -1       353 3.08075E+03 7.51543E+02-2.01897E+04
 -1       354 1.75366E+03 1.95544E+02-5.66530E+03
 -1       355 0.00000E+00 0.00000E+00 0.00000E+00
 -1       356 0.00000E+00 0.00000E+00 0.00000E+00
 -1       357 2.63346E+03-6.31691E+02 1.70882E+04
 -1       358 9.85971E+02-1.24424E+03 3.94892E+04
 -1       359-1.39497E+03-1.16281E+03 3.70214E+04
 -1       360-1.73793E+03-1.54629E+03 1.68828E+04
 -1       361-1.26538E+03 1.78847E+03-1.87001E+04
 -1       362-1.35679E+03 1.39824E+03-3.53172E+04
 -1       363 1.02569E+03 1.30796E+03-3.75429E+04
 -1       364 2.46939E+03 6.87791E+02-1.60276E+04
 -1       365 0.00000E+00 0.00000E+00 0.00000E+00
 -1       366 0.00000E+00 0.00000E+00 0.00000E+00
 -1       367 1.19845E+03-1.63704E+02 3.82936E+03
 -1       368 2.12173E+03-5.16294E+02 1.37379E+04
 -1       369 1.66351E+03-8.81615E+02 2.49606E+04
 -1       370 1.04958E+03-1.02678E+03 3.29353E+04
 -1       371-2.32998E+02-1.02396E+03 3.54677E+04
 -1       372-1.64643E+03-9.52727E+02 3.02087E+04
 -1       373-1.81947E+03-1.31569E+03 1.89759E+04
 -1       374-7.89209E+02-6.11215E+02 8.65493E+03
 -1       375-3.21304E+02-2.59628E+02 6.64256E+03
 -1       376-2.07381E+02-1.72477E+02 4.87388E+03
 -1       377-2.05245E+02-9.62326E+01 3.19717E+03
 -1       378-2.27145E+02-6.97485E+01 1.57172E+03
 -1       379-2.21378E+02 2.13492E+00-6.14784E+01
 -1       380-2.19647E+02 7.67575E+01-1.68670E+03
 -1       381-2.05211E+02 9.49951E+01-3.29236E+03
 -1       382-2.07078E+02 1.77846E+02-4.92777E+03
 -1       383-2.80032E+02 2.66321E+02-6.65543E+03
 -1       384-5.86649E+02 7.77217E+02-8.55993E+03
 -1       385-1.46908E+03 1.71463E+03-1.64097E+04
 -1       386-1.77808E+03 1.68431E+03-2.59793E+04
 -1       387-3.91321E+02 1.25406E+03-3.27327E+04
 -1       388 1.14352E+03 9.37634E+02-3.09610E+04
 -1       389 1.59957E+03 9.42043E+02-2.26948E+04
 -1       390 1.92190E+03 6.05545E+02-1.22633E+04
 -1       391 1.07398E+03 1.92278E+02-3.38931E+03
 -1       392 0.00000E+00 0.00000E+00 0.00000E+00
 -1       393 0.00000E+00 0.00000E+00 0.00000E+00
 -1       394 1.72229E+03-4.31120E+02 1.10088E+04
 -1       395 9.97290E+02-8.39652E+02 2.75015E+04
 -1       396-8.79113E+02-2.84895E+02 2.76410E+04
 -1       397-2.68870E+02-2.90219E+02 6.68751E+03
 -1       398-2.57467E+02-1.99080E+02 3.89220E+03
 -1       399-2.13318E+02-5.21772E+01 1.23967E+03
 -1       400-2.12730E+02 5.41885E+01-1.33873E+03
 -1       401-2.38131E+02 2.11193E+02-3.93029E+03
 -1       402-2.50820E+02 3.18159E+02-6.57421E+03
 -1       403 1.45086E+03 8.22901E+02-2.59740E+04
 -1       404 1.42573E+03 5.60501E+02-8.87499E+03
 -1       405 0.00000E+00 0.00000E+00 0.00000E+00
 -1       406 0.00000E+00 0.00000E+00 0.00000E+00
 -1       407 7.49891E+02-1.20253E+02 2.32820E+03
 -1       408 1.36009E+03-3.89014E+02 8.60863E+03
 -1       409 1.28816E+03-5.91126E+02 1.64150E+04
 -1       410 1.07203E+03-5.92395E+02 2.33622E+04
 -1       411 2.85845E+02-4.31212E+02 2.72050E+04
 -1       412-2.32655E+02 1.14858E+02 2.74779E+04
 -1       413-1.78326E+02-2.13482E+02 4.90652E+03
 -1       414-2.12521E+02-2.46286E+02 3.90594E+03
 -1       415-1.45031E+02-1.51256E+02 2.86561E+03
 -1       416-1.60208E+02-1.12455E+02 1.88933E+03
 -1       417-1.68896E+02-5.91122E+01 9.20136E+02
 -1       418-1.66958E+02 1.18082E+00-4.71579E+01
 -1       419-1.64827E+02 6.07710E+01-1.00726E+03
 -1       420-1.58033E+02 1.11812E+02-1.95439E+03
 -1       421-1.45848E+02 1.45178E+02-2.89414E+03
 -1       422-1.91310E+02 2.55597E+02-3.88149E+03
 -1       423-1.65915E+02 2.06518E+02-4.82488E+03
 -1       424 1.64400E+03 7.70357E+02-2.14828E+04
 -1       425 1.35946E+03 8.16474E+02-1.25712E+04
 -1       426 9.75356E+02 5.28879E+02-5.69868E+03
 -1       427 4.92328E+02 1.63490E+02-1.46903E+03
 -1       428 0.00000E+00 0.00000E+00 0.00000E+00
 -1       429 0.00000E+00 0.00000E+00 0.00000E+00
 -1       430 1.03167E+03-4.26544E+02 6.28505E+03
 -1       431 1.23721E+03-6.31622E+02 1.99036E+04
 -1       432-9.40396E+01-2.11242E+02 3.22481E+03
 -1       433-1.11459E+02-1.63613E+02 1.89050E+03
 -1       434-1.10690E+02-5.64219E+01 5.92227E+02
 -1       435-1.08135E+02 5.67816E+01-6.73522E+02
 -1       436-1.06978E+02 1.60330E+02-1.91888E+03
 -1       437-9.11750E+01 2.04735E+02-3.16079E+03
 -1       438 4.54119E+02 4.46318E+02-2.71051E+03
 -1       439 0.00000E+00 0.00000E+00 0.00000E+00
 -1       440 0.00000E+00 0.00000E+00 0.00000E+00
 -1       441 3.14947E+02-1.48753E+02 8.78511E+02
 -1       442 6.78092E+02-4.96454E+02 3.68998E+03
 -1       443 1.07621E+03-6.89155E+02 8.95122E+03
 -1       444 1.38499E+03-6.75572E+02 1.61776E+04
 -1       445-7.59649E+01-2.25831E+02 1.58047E+03
 -1       446-5.30707E+01-2.17656E+02 1.23826E+03
 -1       447-6.00060E+01-1.70091E+02 9.11767E+02
 -1       448-5.57811E+01-1.12673E+02 5.83751E+02
 -1       449-5.48472E+01-5.72559E+01 2.66691E+02
 -1       450-5.35878E+01-5.06837E-01-4.41815E+01
 -1       451-5.30344E+01 5.62769E+01-3.49031E+02
 -1       452-5.17251E+01 1.11708E+02-6.48324E+02
 -1       453-5.39994E+01 1.69266E+02-9.48106E+02
 -1       454-4.77201E+01 2.13393E+02-1.23908E+03
 -1       455-6.41901E+01 2.26713E+02-1.54280E+03
 -1       456 2.16475E+01 3.67156E+02-1.54632E+02
 -1       457 1.36346E+01 1.02497E+02-6.04818E+01
 -1       458 0.00000E+00 0.00000E+00 0.00000E+00
 -1       459 0.00000E+00 0.00000E+00 0.00000E+00
 -1       460 6.12727E+01-5.09198E+02 3.73746E+02
 -1       461-5.42810E-01-2.24586E+02-7.57691E+01
 -1       462 1.30833E-01-1.70397E+02-7.45799E+01
 -1       463 1.98554E+00-5.72844E+01-6.15973E+01
 -1       464 3.53185E+00 5.53837E+01-2.83242E+01
 -1       465 5.19590E+00 1.68116E+02 2.39421E+01
 -1       466 5.74608E+00 2.22291E+02 8.69092E+01
 -1       467-3.45500E+02 3.54445E+02 2.05484E+03
 -1       468 0.00000E+00 0.00000E+00 0.00000E+00
 -1       469 0.00000E+00 0.00000E+00 0.00000E+00
 -1       470-2.42517E+02-1.36974E+02-6.50631E+02
 -1       471-5.40755E+02-4.59778E+02-2.85329E+03
 -1       472-9.01809E+02-6.18301E+02-7.21140E+03
 -1       473-1.17863E+03-6.10280E+02-1.33180E+04
 -1       474 7.26790E+01-2.26486E+02-1.72971E+03
 -1       475 5.34663E+01-2.17020E+02-1.38907E+03
 -1       476 6.05584E+01-1.70439E+02-1.06162E+03
 -1       477 5.78383E+01-1.13395E+02-7.26099E+02
 -1       478 5.85645E+01-5.78681E+01-3.92178E+02
 -1       479 5.90435E+01-1.24497E+00-5.37850E+01
 -1       480 6.01537E+01 5.52355E+01 2.89132E+02
 -1       481 6.05328E+01 1.10371E+02 6.36548E+02
 -1       482 6.40818E+01 1.66858E+02 9.92554E+02
 -1       483 5.83650E+01 2.13591E+02 1.34530E+03
 -1       484 7.71262E+01 2.21860E+02 1.71322E+03
 -1       485-1.27582E+03 4.65458E+02 1.62893E+04
 -1       486-1.03776E+03 4.89473E+02 9.50432E+03
 -1       487-7.34577E+02 3.33006E+02 4.25268E+03
 -1       488-3.68882E+02 1.06612E+02 1.06984E+03
 -1       489 0.00000E+00 0.00000E+00 0.00000E+00
 -1       490 0.00000E+00 0.00000E+00 0.00000E+00
 -1       491-8.55056E+02-3.77524E+02-5.18944E+03
 -1       492-1.05510E+03-5.61068E+02-1.66613E+04
 -1       493 9.74825E+01-2.09896E+02-3.36689E+03
 -1       494 1.12730E+02-1.63559E+02-2.04244E+03
 -1       495 1.13989E+02-5.78524E+01-7.24444E+02
 -1       496 1.15375E+02 5.45908E+01 6.04196E+02
 -1       497 1.15946E+02 1.59837E+02 1.95247E+03
 -1       498 1.00907E+02 2.05851E+02 3.32387E+03
 -1       499-1.14425E+03 4.30879E+02 1.88392E+04
 -1       500-9.88041E+02 3.02894E+02 6.07331E+03
 -1       501 0.00000E+00 0.00000E+00 0.00000E+00
 -1       502 0.00000E+00 0.00000E+00 0.00000E+00
 -1       503-6.27564E+02-1.02623E+02-1.94240E+03
 -1       504-1.13680E+03-3.28055E+02-7.19915E+03
 -1       505-1.09006E+03-5.03143E+02-1.37616E+04
 -1       506-9.26822E+02-5.07891E+02-1.96866E+04
 -1       507-2.89736E+02-3.61252E+02-2.31616E+04
 -1       508 1.34248E+02 9.04419E+01-2.37239E+04
 -1       509 1.74743E+02-2.11842E+02-5.03754E+03
 -1       510 2.02281E+02-2.47836E+02-4.05048E+03
 -1       511 1.49883E+02-1.51172E+02-3.02207E+03
 -1       512 1.63082E+02-1.13333E+02-2.04434E+03
 -1       513 1.70890E+02-6.10177E+01-1.06307E+03
 -1       514 1.71624E+02-1.87725E+00-7.22704E+01
 -1       515 1.72218E+02 5.72638E+01 9.22261E+02
 -1       516 1.65305E+02 1.09604E+02 1.91465E+03
 -1       517 1.52659E+02 1.47483E+02 2.90941E+03
 -1       518 2.06710E+02 2.43416E+02 3.95966E+03
 -1       519 1.78996E+02 2.08193E+02 4.96939E+03
 -1       520 1.53228E+02-2.13333E+02 2.53655E+04
 -1       521-3.00507E+02 2.47026E+02 2.48278E+04
 -1       522-9.81250E+02 4.04130E+02 2.11808E+04
 -1       523-1.17254E+03 4.25662E+02 1.48415E+04
 -1       524-1.22966E+03 2.91776E+02 7.76566E+03
 -1       525-6.74390E+02 8.86020E+01 2.10577E+03
 -1       526 0.00000E+00 0.00000E+00 0.00000E+00
 -1       527 0.00000E+00 0.00000E+00 0.00000E+00
 -1       528-1.44021E+03-3.55855E+02-9.20294E+03
 -1       529-8.63701E+02-6.90967E+02-2.31574E+04
 -1       530 6.60318E+02-2.35173E+02-2.38695E+04
 -1       531 2.58785E+02-2.97250E+02-6.79247E+03
 -1       532 2.48485E+02-2.01468E+02-4.05331E+03
 -1       533 2.16958E+02-5.52365E+01-1.39704E+03
 -1       534 2.18027E+02 5.11212E+01 1.23334E+03
 -1       535 2.52426E+02 1.97044E+02 3.91733E+03
 -1       536 2.63286E+02 2.92347E+02 6.70297E+03
 -1       537 6.87145E+02 1.32093E+02 2.48448E+04
 -1       538-8.97999E+02 6.12283E+02 2.41142E+04
 -1       539-1.50001E+03 3.27165E+02 9.57114E+03
 -1       540 0.00000E+00 0.00000E+00 0.00000E+00
 -1       541 0.00000E+00 0.00000E+00 0.00000E+00
 -1       542-9.97593E+02-1.33581E+02-3.18764E+03
 -1       543-1.76663E+03-4.21649E+02-1.14399E+04
 -1       544-1.39922E+03-7.14520E+02-2.08195E+04
 -1       545-9.06319E+02-8.22824E+02-2.75816E+04
 -1       546 1.40789E+02-8.34108E+02-2.99403E+04
 -1       547 1.28635E+03-7.82052E+02-2.59931E+04
 -1       548 1.42451E+03-1.11886E+03-1.70965E+04
 -1       549 6.61052E+02-6.41564E+02-8.74417E+03
 -1       550 3.00036E+02-2.58591E+02-6.79229E+03
 -1       551 2.10717E+02-1.75259E+02-5.04369E+03
 -1       552 2.08913E+02-9.86586E+01-3.37786E+03
 -1       553 2.26606E+02-7.30868E+01-1.74582E+03
 -1       554 2.25673E+02-2.23255E+00-9.61225E+01
 -1       555 2.28113E+02 6.85228E+01 1.55725E+03
 -1       556 2.10818E+02 9.43054E+01 3.19990E+03
 -1       557 2.13318E+02 1.70798E+02 4.88295E+03
 -1       558 3.05755E+02 2.54480E+02 6.65350E+03
 -1       559 6.77163E+02 6.32050E+02 8.63407E+03
 -1       560 1.46889E+03 1.08394E+03 1.72241E+04
 -1       561 1.33118E+03 7.11973E+02 2.64317E+04
 -1       562 1.51051E+02 7.64429E+02 3.05262E+04
 -1       563-9.26138E+02 7.64218E+02 2.81400E+04
 -1       564-1.42833E+03 6.73779E+02 2.12336E+04
 -1       565-1.80238E+03 4.00174E+02 1.16626E+04
 -1       566-1.01793E+03 1.27920E+02 3.24697E+03
 -1       567 0.00000E+00 0.00000E+00 0.00000E+00
 -1       568 0.00000E+00 0.00000E+00 0.00000E+00
 -1       569-2.18554E+03-5.14368E+02-1.41710E+04
 -1       570-8.37871E+02-1.01001E+03-3.28690E+04
 -1       571 1.07306E+03-8.78384E+02-3.13794E+04
 -1       572 1.17195E+03-1.35917E+03-1.67647E+04
 -1       573 1.19334E+03 1.33909E+03 1.65549E+04
 -1       574 1.10305E+03 8.33322E+02 3.14932E+04
 -1       575-8.43472E+02 9.64425E+02 3.31250E+04
 -1       576-2.20322E+03 4.95323E+02 1.42803E+04
 -1       577 0.00000E+00 0.00000E+00 0.00000E+00
 -1       578 0.00000E+00 0.00000E+00 0.00000E+00
 -1       579-1.49678E+03-1.37979E+02-4.84677E+03
 -1       580-2.63194E+03-5.60866E+02-1.72932E+04
 -1       581-1.89354E+03-1.02003E+03-3.10090E+04
 -1       582-6.96143E+02-1.23206E+03-3.93179E+04
 -1       583 2.30341E+02-9.65035E+02-4.03611E+04
 -1       584 9.97133E+02-9.43201E+02-3.66258E+04
 -1       585 9.42203E+02-1.01692E+03-3.10380E+04
 -1       586 8.71596E+02-1.22245E+03-2.52076E+04
 -1       587 3.43393E+02-6.23406E+02-2.24826E+04
 -1       588 3.32677E+01-1.32186E+02-2.16578E+04
 -1       589 5.58298E+01 1.41041E+02 2.10449E+04
 -1       590 3.66795E+02 6.23614E+02 2.20062E+04
 -1       591 8.95363E+02 1.20796E+03 2.48768E+04
 -1       592 9.60330E+02 9.96747E+02 3.08330E+04
 -1       593 1.01619E+03 9.15284E+02 3.65318E+04
 -1       594 2.41952E+02 9.30694E+02 4.03542E+04
 -1       595-6.94554E+02 1.19956E+03 3.93514E+04
 -1       596-1.89699E+03 9.93726E+02 3.10369E+04
 -1       597-2.63681E+03 5.42910E+02 1.72949E+04
 -1       598-1.49763E+03 1.32255E+02 4.84395E+03
 -1       599 0.00000E+00 0.00000E+00 0.00000E+00
 -1       600 1.23647E+02-1.09439E+03-4.65604E+04
 -1       601 1.01663E+03-1.96154E+02-4.01033E+04
 -1       602 9.16007E+02-1.17647E+02-2.89266E+04
 -1       603 4.39782E+02 2.58356E+02-2.11858E+04
 -1       604 4.54608E+02-2.43180E+02 2.06459E+04
 -1       605 9.31678E+02 1.17321E+02 2.85596E+04
 -1       606 1.02692E+03 1.80548E+02 3.98797E+04
 -1       607 1.28022E+02 1.06944E+03 4.64241E+04
 -1       608 1.04136E+03-1.01248E+03-5.30737E+04
 -1       609 1.12623E+03-1.00671E+02-4.63877E+04
 -1       610 1.27601E+03 7.01473E+02-3.89354E+04
 -1       611 1.06672E+03 8.38538E+02-3.21921E+04
 -1       612 8.85771E+02 8.98672E+02-2.65478E+04
 -1       613 7.45566E+02 8.17157E+02-2.17751E+04
 -1       614 5.41936E+02 8.42150E+02-1.80665E+04
 -1       615 5.51048E+02-8.17499E+02 1.76412E+04
 -1       616 7.53218E+02-7.99165E+02 2.13992E+04
 -1       617 8.92677E+02-8.86674E+02 2.62150E+04
 -1       618 1.07208E+03-8.33640E+02 3.18972E+04
 -1       619 1.27691E+03-7.03148E+02 3.86603E+04
 -1       620 1.12703E+03 8.67440E+01 4.61099E+04
 -1       621 1.04420E+03 9.90904E+02 5.28042E+04
 -1       622 1.05159E+03 1.88132E+03-3.06523E+04
 -1       623 7.65703E+02 1.33699E+03-1.99777E+04
 -1       624 5.47633E+02 1.06851E+03-1.23245E+04
 -1       625 5.49442E+02-1.04284E+03 1.20530E+04
 -1       626 7.68078E+02-1.32021E+03 1.97301E+04
 -1       627 1.05049E+03-1.86880E+03 3.04151E+04
 -1       628 5.71625E+02 2.59469E+03-1.70681E+04
 -1       629 5.32687E+02 2.13509E+03-1.38656E+04
 -1       630 4.52878E+02 1.69667E+03-1.10028E+04
 -1       631 4.22194E+02 1.34046E+03-8.46164E+03
 -1       632 4.33782E+02 1.00620E+03-5.98970E+03
 -1       633 3.59862E+02 5.65236E+02-3.48377E+03
 -1       634 2.57875E+02 2.19558E+02-1.44644E+03
 -1       635 2.38749E+02 3.46519E+00-2.23901E+01
 -1       636 2.53412E+02-2.11201E+02 1.39192E+03
 -1       637 3.54577E+02-5.51027E+02 3.39491E+03
 -1       638 4.29952E+02-9.84897E+02 5.86508E+03
 -1       639 4.21256E+02-1.31897E+03 8.32593E+03
 -1       640 4.53623E+02-1.67576E+03 1.08671E+04
 -1       641 5.32703E+02-2.11441E+03 1.37315E+04
 -1       642 5.71754E+02-2.57346E+03 1.69345E+04
 -1       643 1.42243E+02 1.47585E+03-4.79053E+03
 -1       644 1.43663E+02 9.63256E+02-3.05743E+03
 -1       645 1.38641E+02 5.18862E+02-1.57773E+03
 -1       646 7.66318E+01 1.29683E+02-4.19608E+02
 -1       647 7.54627E+01-1.24864E+02 4.03574E+02
 -1       648 1.37212E+02-5.07960E+02 1.54592E+03
 -1       649 1.43805E+02-9.51227E+02 3.01999E+03
 -1       650 1.42671E+02-1.46412E+03 4.75404E+03
 -1       651 0.00000E+00 0.00000E+00 0.00000E+00
 -1       652 0.00000E+00 0.00000E+00 0.00000E+00
 -1       653 0.00000E+00 0.00000E+00 0.00000E+00
 -1       654 0.00000E+00 0.00000E+00 0.00000E+00
 -1       655 0.00000E+00 0.00000E+00 0.00000E+00
 -1       656 0.00000E+00 0.00000E+00 0.00000E+00
 -1       657 0.00000E+00 0.00000E+00 0.00000E+00
 -1       658 0.00000E+00 0.00000E+00 0.00000E+00
 -1       659 0.00000E+00 0.00000E+00 0.00000E+00
 -1       660 0.00000E+00 0.00000E+00 0.00000E+00
 -1       661 0.00000E+00 0.00000E+00 0.00000E+00
 -1       662 0.00000E+00 0.00000E+00 0.00000E+00
 -1       663 0.00000E+00 0.00000E+00 0.00000E+00
 -1       664 0.00000E+00 0.00000E+00 0.00000E+00
 -1       665 0.00000E+00 0.00000E+00 0.00000E+00
 -1       666 0.00000E+00 0.00000E+00 0.00000E+00
 -1       667 0.00000E+00 0.00000E+00 0.00000E+00
 -1       668 0.00000E+00 0.00000E+00 0.00000E+00
 -1       669 0.00000E+00 0.00000E+00 0.00000E+00
 -1       670 0.00000E+00 0.00000E+00 0.00000E+00
 -1       671 0.00000E+00 0.00000E+00 0.00000E+00
 -1       672 0.00000E+00 0.00000E+00 0.00000E+00
 -1       673 0.00000E+00 0.00000E+00 0.00000E+00
 -1       674-2.44533E-11 6.24305E-11 2.06129E+04
 -1       675 1.38139E-11 9.31166E-11 1.30654E+04
 -1       676 1.65168E-11 4.09310E-11 7.96064E+03
 -1       677-3.65185E-12-5.04804E-12 3.22907E+03
 -1       678-2.61309E-11-2.65376E-11-3.57315E+03
 -1       679-4.65192E-11 1.63823E-11-8.47135E+03
 -1       680-7.86593E-11 4.15583E-11-1.34964E+04
 -1       681-1.05288E-10 8.37816E-11-2.05291E+04
 -1       682-2.23784E-10 5.29234E-10 6.47550E+04
 -1       683-4.66236E-11 1.35560E-10 4.72466E+04
 -1       684 4.34935E-11 8.46058E-11 3.26598E+04
 -1       685 7.65224E-11 7.24798E-11 2.42266E+04
 -1       686 2.28791E-11 1.75279E-11 1.58917E+04
 -1       687-2.11176E-10-9.02950E-11-1.59247E+04
 -1       688-1.45826E-10 8.37103E-11-2.30843E+04
 -1       689-1.81774E-10 1.56823E-10-3.24514E+04
 -1       690-2.41089E-10 1.83244E-10-4.66365E+04
 -1       691-2.62385E-10 1.80275E-10-6.35957E+04
 -1       692 0.00000E+00 0.00000E+00 0.00000E+00
 -1       693 1.46201E-10 9.51326E-11 2.08869E+04
 -1       694 2.27344E-10 2.26877E-10 4.74970E+04
 -1       695 1.67789E-10 1.47288E-10 4.38807E+04
 -1       696 1.83751E-10 1.00746E-10 2.70262E+04
 -1       697-1.44360E-10 1.12452E-10-2.72465E+04
 -1       698-1.63609E-10 2.92638E-10-2.97672E+04
 -1       699-1.60990E-10 1.80384E-10-4.28858E+04
 -1       700-1.98068E-10 9.96570E-11-4.61056E+04
 -1       701-3.77858E-11 2.22464E-11-2.01606E+04
 -1       702 0.00000E+00 0.00000E+00 0.00000E+00
 -1       703 0.00000E+00 0.00000E+00 0.00000E+00
 -1       704 9.98861E-11 6.79533E-11 1.37106E+04
 -1       705 1.84011E-10 1.11849E-10 3.29727E+04
 -1       706 1.89157E-10 2.20209E-10 3.02307E+04
 -1       707 3.43964E-10 6.33528E-11 8.59977E+03
 -1       708 3.46779E-10 1.15073E-10 4.88592E+03
 -1       709 3.84489E-10 1.84370E-10 1.56742E+03
 -1       710 3.87276E-10 2.78754E-10-1.68247E+03
 -1       711 3.90221E-10 3.51447E-10-4.94012E+03
 -1       712 3.01822E-10 4.11759E-10-8.50656E+03
 -1       713 1.54568E-11 1.61360E-10-2.60100E+04
 -1       714-4.60083E-11 3.17444E-11-3.09937E+04
 -1       715-4.61138E-13-1.33642E-11-1.22373E+04
 -1       716 0.00000E+00 0.00000E+00 0.00000E+00
 -1       717 0.00000E+00 0.00000E+00 0.00000E+00
 -1       718 3.99667E-11 1.45807E-11 8.59062E+03
 -1       719 4.01218E-11 6.74976E-11 2.33783E+04
 -1       720 1.51915E-11 2.77504E-10 2.74853E+04
 -1       721 3.08815E-10 5.93324E-11 4.91920E+03
 -1       722 3.09857E-10 1.06073E-10 2.86231E+03
 -1       723 3.04488E-10 1.85559E-10 9.21089E+02
 -1       724 3.11675E-10 2.73399E-10-1.00822E+03
 -1       725 3.15257E-10 3.53768E-10-2.89096E+03
 -1       726 3.18481E-10 4.26639E-10-4.83647E+03
 -1       727 6.01525E-12-3.73087E-11-2.14737E+04
 -1       728-1.22873E-12-1.01257E-12-5.67649E+03
 -1       729 0.00000E+00 0.00000E+00 0.00000E+00
 -1       730 0.00000E+00 0.00000E+00 0.00000E+00
 -1       731-6.28539E-12 1.49286E-12 3.67544E+03
 -1       732-5.10097E-11 1.31343E-10 1.61738E+04
 -1       733 2.54160E-10 3.95499E-11 1.57632E+03
 -1       734 2.51289E-10 1.10189E-10 9.12664E+02
 -1       735 2.53182E-10 1.87799E-10 2.66375E+02
 -1       736 2.50034E-10 2.71931E-10-3.48747E+02
 -1       737 2.53178E-10 3.46625E-10-9.49013E+02
 -1       738 2.56440E-10 4.07959E-10-1.53884E+03
 -1       739-8.30435E-12 2.03090E-11-1.52892E+02
 -1       740 0.00000E+00 0.00000E+00 0.00000E+00
 -1       741 0.00000E+00 0.00000E+00 0.00000E+00
 -1       742-3.02679E-11-4.12301E-11-2.84221E+03
 -1       743-1.11487E-10-2.06302E-10-1.33141E+04
 -1       744 1.93121E-10 3.42621E-11-1.72623E+03
 -1       745 1.93847E-10 1.03978E-10-1.06239E+03
 -1       746 1.92145E-10 1.86861E-10-3.91948E+02
 -1       747 1.95725E-10 2.70382E-10 2.88875E+02
 -1       748 1.94809E-10 3.44224E-10 9.93320E+02
 -1       749 1.96454E-10 4.09555E-10 1.70977E+03
 -1       750-7.06924E-11 3.28714E-10 1.62882E+04
 -1       751-6.99906E-11 1.04292E-10 4.23699E+03
 -1       752 0.00000E+00 0.00000E+00 0.00000E+00
 -1       753 0.00000E+00 0.00000E+00 0.00000E+00
 -1       754 1.57229E-11-6.06259E-11-7.18411E+03
 -1       755 1.79926E-11-1.74654E-10-1.97006E+04
 -1       756-1.05795E-10-3.63004E-10-2.37288E+04
 -1       757 1.12762E-10 3.41263E-11-5.04683E+03
 -1       758 1.30455E-10 9.28255E-11-3.01962E+03
 -1       759 1.34450E-10 1.87750E-10-1.06380E+03
 -1       760 1.31449E-10 2.69899E-10 9.22967E+02
 -1       761 1.32837E-10 3.49693E-10 2.90692E+03
 -1       762 1.39728E-10 4.03454E-10 4.97881E+03
 -1       763 2.44407E-11 6.15959E-10 2.53708E+04
 -1       764 2.34536E-11 4.09173E-10 2.11953E+04
 -1       765 7.30255E-12 1.77885E-10 7.74923E+03
 -1       766 0.00000E+00 0.00000E+00 0.00000E+00
 -1       767 0.00000E+00 0.00000E+00 0.00000E+00
 -1       768 2.92974E-11-7.07145E-11-1.14172E+04
 -1       769 7.38384E-11-1.43523E-10-2.76117E+04
 -1       770 9.60259E-11-2.45636E-10-2.60129E+04
 -1       771 6.10400E-11-3.72906E-11-8.70161E+03
 -1       772 5.59958E-11 9.83281E-11-5.05285E+03
 -1       773 6.02247E-11 1.85079E-10-1.74260E+03
 -1       774 6.02526E-11 2.67797E-10 1.55398E+03
 -1       775 7.71233E-11 3.46469E-10 4.89217E+03
 -1       776 1.76659E-10 3.79791E-10 8.59105E+03
 -1       777 3.17182E-10 5.47218E-10 2.64513E+04
 -1       778 2.09931E-10 4.72915E-10 2.81705E+04
 -1       779 8.89535E-11 2.08267E-10 1.16393E+04
 -1       780 0.00000E+00 0.00000E+00 0.00000E+00
 -1       781 0.00000E+00 0.00000E+00 0.00000E+00
 -1       782 9.40115E-11-9.88394E-11-1.72692E+04
 -1       783 1.52318E-10-1.30750E-10-3.93630E+04
 -1       784 1.78407E-10-2.42386E-10-3.66482E+04
 -1       785 2.25829E-10-1.55563E-10-2.52273E+04
 -1       786 2.56534E-10-6.49471E-11-2.16611E+04
 -1       787 2.45673E-10-2.56020E-10 2.10480E+04
 -1       788 2.68880E-10 1.27368E-10 2.48962E+04
 -1       789 2.83592E-10 4.61581E-10 3.65539E+04
 -1       790 3.51943E-10 7.19450E-10 3.93964E+04
 -1       791 2.81427E-10 2.78793E-10 1.72708E+04
 -1       792 0.00000E+00 0.00000E+00 0.00000E+00
 -1       793 3.07855E-10-8.36728E-11-5.30737E+04
 -1       794 2.13466E-10-1.78551E-10-3.89800E+04
 -1       795 1.50901E-10-1.20980E-10-2.65760E+04
 -1       796 1.22634E-10-5.36771E-11-1.80792E+04
 -1       797 8.84421E-12-1.48506E-10 1.76537E+04
 -1       798 2.76906E-11 1.18230E-11 2.62429E+04
 -1       799-9.45033E-11 2.76330E-10 3.87045E+04
 -1       800-4.09439E-11 9.52167E-10 5.28041E+04
 -1       801 6.17191E-11-1.48494E-10-1.70436E+04
 -1       802 5.47130E-11-6.56763E-11-1.09829E+04
 -1       803 1.65737E-11-2.68449E-11-5.97047E+03
 -1       804 5.78590E-13 8.87647E-13-1.43732E+03
 -1       805-5.73825E-12 4.66852E-13 1.38309E+03
 -1       806-3.85022E-11-7.15959E-12 5.84620E+03
 -1       807-5.93558E-11 3.04932E-11 1.08475E+04
 -1       808-1.62760E-11 9.18308E-11 1.69102E+04
 -1       809 0.00000E+00 0.00000E+00 0.00000E+00
 -1       810 0.00000E+00 0.00000E+00 0.00000E+00
 -1       811 0.00000E+00 0.00000E+00 0.00000E+00
 -1       812 0.00000E+00 0.00000E+00 0.00000E+00
 -1       813 0.00000E+00 0.00000E+00 0.00000E+00
 -1       814 0.00000E+00 0.00000E+00 0.00000E+00
 -1       815 0.00000E+00 0.00000E+00 0.00000E+00
 -1       816 0.00000E+00 0.00000E+00 0.00000E+00
 -1       817 0.00000E+00 0.00000E+00 0.00000E+00
 -1       818 0.00000E+00 0.00000E+00 0.00000E+00
 -1       819 0.00000E+00 0.00000E+00 0.00000E+00
 -1       820 0.00000E+00 0.00000E+00 0.00000E+00
 -1       821 0.00000E+00 0.00000E+00 0.00000E+00
 -1       822 0.00000E+00 0.00000E+00 0.00000E+00
 -1       823 0.00000E+00 0.00000E+00 0.00000E+00
 -1       824 0.00000E+00 0.00000E+00 0.00000E+00
 -1       825 0.00000E+00 0.00000E+00 0.00000E+00
 -1       826 0.00000E+00 0.00000E+00 0.00000E+00
 -1       827 0.00000E+00 0.00000E+00 0.00000E+00
 -1       828 0.00000E+00 0.00000E+00 0.00000E+00
 -1       829 0.00000E+00 0.00000E+00 0.00000E+00
 -1       830 0.00000E+00 0.00000E+00 0.00000E+00
 -1       831 0.00000E+00 0.00000E+00 0.00000E+00
 -1       832 1.90199E+02-1.79382E+03 5.79509E+03
 -1       833 1.75389E+02-1.14162E+03 3.64399E+03
 -1       834 1.03315E+02-6.91160E+02 2.12045E+03
 -1       835 1.50263E+02-2.76439E+02 7.46745E+02
 -1       836 1.49373E+02 3.05481E+02-8.45699E+02
 -1       837 1.19016E+02 7.39635E+02-2.29449E+03
 -1       838 1.60165E+02 1.17974E+03-3.76983E+03
 -1       839 1.65570E+02 1.77940E+03-5.76800E+03
 -1       840 7.42219E+02-3.15389E+03 2.06426E+04
 -1       841 6.55926E+02-2.55818E+03 1.65956E+04
 -1       842 5.40420E+02-2.04294E+03 1.30952E+04
 -1       843 4.39095E+02-1.63040E+03 1.02512E+04
 -1       844 3.48720E+02-1.28215E+03 7.98036E+03
 -1       845 4.05929E+02-9.66486E+02 5.78925E+03
 -1       846 5.01176E+02-6.15400E+02 3.24283E+03
 -1       847 5.31128E+02 2.57047E+01-1.71737E+02
 -1       848 5.01282E+02 6.63192E+02-3.58732E+03
 -1       849 4.25456E+02 1.01641E+03-6.18537E+03
 -1       850 3.83104E+02 1.34094E+03-8.48907E+03
 -1       851 4.23001E+02 1.69715E+03-1.08492E+04
 -1       852 5.05437E+02 2.08844E+03-1.35232E+04
 -1       853 6.19151E+02 2.58966E+03-1.68053E+04
 -1       854 6.72127E+02 3.12475E+03-2.05571E+04
 -1       855 1.34545E+03-2.26635E+03 3.71746E+04
 -1       856 8.55225E+02-1.67630E+03 2.40907E+04
 -1       857 5.96808E+02-1.39551E+03 1.57682E+04
 -1       858 6.76092E+02-1.10431E+03 8.46192E+03
 -1       859 6.89256E+02 1.06351E+03-8.77435E+03
 -1       860 5.82473E+02 1.27263E+03-1.61930E+04
 -1       861 8.61729E+02 1.63697E+03-2.45689E+04
 -1       862 1.22833E+03 2.23671E+03-3.68099E+04
 -1       863 1.29500E+03 1.27814E+03 6.47555E+04
 -1       864 1.40499E+03 1.85206E+02 5.64264E+04
 -1       865 1.60195E+03-8.22008E+02 4.71938E+04
 -1       866 1.26542E+03-1.05012E+03 3.88434E+04
 -1       867 8.61479E+02-1.15324E+03 3.26258E+04
 -1       868 7.25187E+02-1.38711E+03 2.80519E+04
 -1       869 6.56226E+02-1.49569E+03 2.42252E+04
 -1       870 7.11119E+02-1.45115E+03 2.01685E+04
 -1       871 7.71470E+02-1.43180E+03 1.58964E+04
 -1       872 6.76707E+02 1.37306E+03-1.59286E+04
 -1       873 6.28137E+02 1.22639E+03-1.96478E+04
 -1       874 5.81543E+02 1.06363E+03-2.30682E+04
 -1       875 8.19646E+02 9.86042E+02-2.71175E+04
 -1       876 1.00016E+03 1.03223E+03-3.24146E+04
 -1       877 1.21488E+03 9.64074E+02-3.88045E+04
 -1       878 1.49584E+03 8.03626E+02-4.65836E+04
 -1       879 1.36042E+03-1.87333E+02-5.54552E+04
 -1       880 1.25917E+03-1.28629E+03-6.35960E+04
 -1       881 1.73318E+02 1.38388E+03 5.64783E+04
 -1       882 1.25434E+03 2.59156E+02 4.83657E+04
 -1       883 1.21034E+03 4.44347E+02 3.42382E+04
 -1       884 4.18048E+02 2.91327E+02-2.69075E+04
 -1       885 9.90280E+02-2.28504E+02-3.49063E+04
 -1       886 1.17799E+03-3.19571E+02-4.76304E+04
 -1       887 1.90267E+02-1.40523E+03-5.53052E+04
 -1       888 0.00000E+00 0.00000E+00 0.00000E+00
 -1       889-1.81025E+03 1.68964E+02 5.86864E+03
 -1       890-3.17895E+03 6.85556E+02 2.09155E+04
 -1       891-2.27966E+03 1.25223E+03 3.74607E+04
 -1       892-8.27536E+02 1.52700E+03 4.74433E+04
 -1       893 3.07367E+02 1.21205E+03 4.85898E+04
 -1       894 1.24257E+03 1.22306E+03 4.38495E+04
 -1       895 1.39542E+03 1.42621E+03 3.63354E+04
 -1       896 1.68591E+03 1.88286E+03 2.69949E+04
 -1       897-1.22233E+02-2.18133E+02-2.72391E+04
 -1       898 2.65246E+02-8.56787E+02-2.73297E+04
 -1       899 9.12944E+02-1.61768E+03-2.97453E+04
 -1       900 1.11807E+03-1.38014E+03-3.62917E+04
 -1       901 1.17523E+03-1.24511E+03-4.28553E+04
 -1       902 2.47580E+02-1.26749E+03-4.71893E+04
 -1       903-7.91998E+02-1.61600E+03-4.60537E+04
 -1       904-2.20751E+03-1.36278E+03-3.63321E+04
 -1       905-3.08075E+03-7.51543E+02-2.01897E+04
 -1       906-1.75366E+03-1.95544E+02-5.66530E+03
 -1       907 0.00000E+00 0.00000E+00 0.00000E+00
 -1       908 0.00000E+00 0.00000E+00 0.00000E+00
 -1       909-2.63346E+03 6.31691E+02 1.70882E+04
 -1       910-9.85971E+02 1.24424E+03 3.94892E+04
 -1       911 1.39497E+03 1.16281E+03 3.70214E+04
 -1       912 1.73793E+03 1.54629E+03 1.68828E+04
 -1       913 1.26538E+03-1.78847E+03-1.87001E+04
 -1       914 1.35679E+03-1.39824E+03-3.53172E+04
 -1       915-1.02569E+03-1.30796E+03-3.75429E+04
 -1       916-2.46939E+03-6.87791E+02-1.60276E+04
 -1       917 0.00000E+00 0.00000E+00 0.00000E+00
 -1       918 0.00000E+00 0.00000E+00 0.00000E+00
 -1       919-1.19845E+03 1.63704E+02 3.82936E+03
 -1       920-2.12173E+03 5.16294E+02 1.37379E+04
 -1       921-1.66351E+03 8.81615E+02 2.49606E+04
 -1       922-1.04958E+03 1.02678E+03 3.29353E+04
 -1       923 2.32998E+02 1.02396E+03 3.54677E+04
 -1       924 1.64643E+03 9.52727E+02 3.02087E+04
 -1       925 1.81947E+03 1.31569E+03 1.89759E+04
 -1       926 7.89209E+02 6.11215E+02 8.65493E+03
 -1       927 3.21304E+02 2.59628E+02 6.64256E+03
 -1       928 2.07381E+02 1.72477E+02 4.87388E+03
 -1       929 2.05245E+02 9.62326E+01 3.19717E+03
 -1       930 2.27145E+02 6.97485E+01 1.57172E+03
 -1       931 2.21378E+02-2.13492E+00-6.14784E+01
 -1       932 2.19647E+02-7.67575E+01-1.68670E+03
 -1       933 2.05211E+02-9.49951E+01-3.29236E+03
 -1       934 2.07078E+02-1.77846E+02-4.92777E+03
 -1       935 2.80032E+02-2.66321E+02-6.65543E+03
 -1       936 5.86649E+02-7.77217E+02-8.55993E+03
 -1       937 1.46908E+03-1.71463E+03-1.64097E+04
 -1       938 1.77808E+03-1.68431E+03-2.59793E+04
 -1       939 3.91321E+02-1.25406E+03-3.27327E+04
 -1       940-1.14352E+03-9.37634E+02-3.09610E+04
 -1       941-1.59957E+03-9.42043E+02-2.26948E+04
 -1       942-1.92190E+03-6.05545E+02-1.22633E+04
 -1       943-1.07398E+03-1.92278E+02-3.38931E+03
 -1       944 0.00000E+00 0.00000E+00 0.00000E+00
 -1       945 0.00000E+00 0.00000E+00 0.00000E+00
 -1       946-1.72229E+03 4.31120E+02 1.10088E+04
 -1       947-9.97290E+02 8.39652E+02 2.75015E+04
 -1       948 8.79113E+02 2.84895E+02 2.76410E+04
 -1       949 2.68870E+02 2.90219E+02 6.68751E+03
 -1       950 2.57467E+02 1.99080E+02 3.89220E+03
 -1       951 2.13318E+02 5.21772E+01 1.23967E+03
 -1       952 2.12730E+02-5.41885E+01-1.33873E+03
 -1       953 2.38131E+02-2.11193E+02-3.93029E+03
 -1       954 2.50820E+02-3.18159E+02-6.57421E+03
 -1       955-1.45086E+03-8.22901E+02-2.59740E+04
 -1       956-1.42573E+03-5.60501E+02-8.87499E+03
 -1       957 0.00000E+00 0.00000E+00 0.00000E+00
 -1       958 0.00000E+00 0.00000E+00 0.00000E+00
 -1       959-7.49891E+02 1.20253E+02 2.32820E+03
 -1       960-1.36009E+03 3.89014E+02 8.60863E+03
 -1       961-1.28816E+03 5.91126E+02 1.64150E+04
 -1       962-1.07203E+03 5.92395E+02 2.33622E+04
 -1       963-2.85845E+02 4.31212E+02 2.72050E+04
 -1       964 2.32655E+02-1.14858E+02 2.74779E+04
 -1       965 1.78326E+02 2.13482E+02 4.90652E+03
 -1       966 2.12521E+02 2.46286E+02 3.90594E+03
 -1       967 1.45031E+02 1.51256E+02 2.86561E+03
 -1       968 1.60208E+02 1.12455E+02 1.88933E+03
 -1       969 1.68896E+02 5.91122E+01 9.20136E+02
 -1       970 1.66958E+02-1.18082E+00-4.71579E+01
 -1       971 1.64827E+02-6.07710E+01-1.00726E+03
 -1       972 1.58033E+02-1.11812E+02-1.95439E+03
 -1       973 1.45848E+02-1.45178E+02-2.89414E+03
 -1       974 1.91310E+02-2.55597E+02-3.88149E+03
 -1       975 1.65915E+02-2.06518E+02-4.82488E+03
 -1       976-1.64400E+03-7.70357E+02-2.14828E+04
 -1       977-1.35946E+03-8.16474E+02-1.25712E+04
 -1       978-9.75356E+02-5.28879E+02-5.69868E+03
 -1       979-4.92328E+02-1.63490E+02-1.46903E+03
 -1       980 0.00000E+00 0.00000E+00 0.00000E+00
 -1       981 0.00000E+00 0.00000E+00 0.00000E+00
 -1       982-1.03167E+03 4.26544E+02 6.28505E+03
 -1       983-1.23721E+03 6.31622E+02 1.99036E+04
 -1       984 9.40396E+01 2.11242E+02 3.22481E+03
 -1       985 1.11459E+02 1.63613E+02 1.89050E+03
 -1       986 1.10690E+02 5.64219E+01 5.92227E+02
 -1       987 1.08135E+02-5.67816E+01-6.73522E+02
 -1       988 1.06978E+02-1.60330E+02-1.91888E+03
 -1       989 9.11750E+01-2.04735E+02-3.16079E+03
 -1       990-4.54119E+02-4.46318E+02-2.71051E+03
 -1       991 0.00000E+00 0.00000E+00 0.00000E+00
 -1       992 0.00000E+00 0.00000E+00 0.00000E+00
 -1       993-3.14947E+02 1.48753E+02 8.78511E+02
 -1       994-6.78092E+02 4.96454E+02 3.68998E+03
 -1       995-1.07621E+03 6.89155E+02 8.95122E+03
 -1       996-1.38499E+03 6.75572E+02 1.61776E+04
 -1       997 7.59649E+01 2.25831E+02 1.58047E+03
 -1       998 5.30707E+01 2.17656E+02 1.23826E+03
 -1       999 6.00060E+01 1.70091E+02 9.11767E+02
 -1      1000 5.57811E+01 1.12673E+02 5.83751E+02
 -1      1001 5.48472E+01 5.72559E+01 2.66691E+02
 -1      1002 5.35878E+01 5.06837E-01-4.41815E+01
 -1      1003 5.30344E+01-5.62769E+01-3.49031E+02
 -1      1004 5.17251E+01-1.11708E+02-6.48324E+02
 -1      1005 5.39994E+01-1.69266E+02-9.48106E+02
 -1      1006 4.77201E+01-2.13393E+02-1.23908E+03
 -1      1007 6.41901E+01-2.26713E+02-1.54280E+03
 -1      1008-2.16475E+01-3.67156E+02-1.54632E+02
 -1      1009-1.36346E+01-1.02497E+02-6.04818E+01
 -1      1010 0.00000E+00 0.00000E+00 0.00000E+00
 -1      1011 0.00000E+00 0.00000E+00 0.00000E+00
 -1      1012-6.12727E+01 5.09198E+02 3.73746E+02
 -1      1013 5.42810E-01 2.24586E+02-7.57691E+01
 -1      1014-1.30833E-01 1.70397E+02-7.45799E+01
 -1      1015-1.98554E+00 5.72844E+01-6.15973E+01
 -1      1016-3.53185E+00-5.53837E+01-2.83242E+01
 -1      1017-5.19590E+00-1.68116E+02 2.39421E+01
 -1      1018-5.74608E+00-2.22291E+02 8.69092E+01
 -1      1019 3.45500E+02-3.54445E+02 2.05484E+03
 -1      1020 0.00000E+00 0.00000E+00 0.00000E+00
 -1      1021 0.00000E+00 0.00000E+00 0.00000E+00
 -1      1022 2.42517E+02 1.36974E+02-6.50631E+02
 -1      1023 5.40755E+02 4.59778E+02-2.85329E+03
 -1      1024 9.01809E+02 6.18301E+02-7.21140E+03
 -1      1025 1.17863E+03 6.10280E+02-1.33180E+04
 -1      1026-7.26790E+01 2.26486E+02-1.72971E+03
 -1      1027-5.34663E+01 2.17020E+02-1.38907E+03
 -1      1028-6.05584E+01 1.70439E+02-1.06162E+03
 -1      1029-5.78383E+01 1.13395E+02-7.26099E+02
 -1      1030-5.85645E+01 5.78681E+01-3.92178E+02
 -1      1031-5.90435E+01 1.24497E+00-5.37850E+01
 -1      1032-6.01537E+01-5.52355E+01 2.89132E+02
 -1      1033-6.05328E+01-1.10371E+02 6.36548E+02
 -1      1034-6.40818E+01-1.66858E+02 9.92554E+02
 -1      1035-5.83650E+01-2.13591E+02 1.34530E+03
 -1      1036-7.71262E+01-2.21860E+02 1.71322E+03
 -1      1037 1.27582E+03-4.65458E+02 1.62893E+04
 -1      1038 1.03776E+03-4.89473E+02 9.50432E+03
 -1      1039 7.34577E+02-3.33006E+02 4.25268E+03
 -1      1040 3.68882E+02-1.06612E+02 1.06984E+03
 -1      1041 0.00000E+00 0.00000E+00 0.00000E+00
 -1      1042 0.00000E+00 0.00000E+00 0.00000E+00
 -1      1043 8.55056E+02 3.77524E+02-5.18944E+03
 -1      1044 1.05510E+03 5.61068E+02-1.66613E+04
 -1      1045-9.74825E+01 2.09896E+02-3.36689E+03
 -1      1046-1.12730E+02 1.63559E+02-2.04244E+03
 -1      1047-1.13989E+02 5.78524E+01-7.24444E+02
 -1      1048-1.15375E+02-5.45908E+01 6.04196E+02
 -1      1049-1.15946E+02-1.59837E+02 1.95247E+03
 -1      1050-1.00907E+02-2.05851E+02 3.32387E+03
 -1      1051 1.14425E+03-4.30879E+02 1.88392E+04
 -1      1052 9.88041E+02-3.02894E+02 6.07331E+03
 -1      1053 0.00000E+00 0.00000E+00 0.00000E+00
 -1      1054 0.00000E+00 0.00000E+00 0.00000E+00
 -1      1055 6.27564E+02 1.02623E+02-1.94240E+03
 -1      1056 1.13680E+03 3.28055E+02-7.19915E+03
 -1      1057 1.09006E+03 5.03143E+02-1.37616E+04
 -1      1058 9.26822E+02 5.07891E+02-1.96866E+04
 -1      1059 2.89736E+02 3.61252E+02-2.31616E+04
 -1      1060-1.34248E+02-9.04419E+01-2.37239E+04
 -1      1061-1.74743E+02 2.11842E+02-5.03754E+03
 -1      1062-2.02281E+02 2.47836E+02-4.05048E+03
 -1      1063-1.49883E+02 1.51172E+02-3.02207E+03
 -1      1064-1.63082E+02 1.13333E+02-2.04434E+03
 -1      1065-1.70890E+02 6.10177E+01-1.06307E+03
 -1      1066-1.71624E+02 1.87725E+00-7.22704E+01
 -1      1067-1.72218E+02-5.72638E+01 9.22261E+02
 -1      1068-1.65305E+02-1.09604E+02 1.91465E+03
 -1      1069-1.52659E+02-1.47483E+02 2.90941E+03
 -1      1070-2.06710E+02-2.43416E+02 3.95966E+03
 -1      1071-1.78996E+02-2.08193E+02 4.96939E+03
 -1      1072-1.53228E+02 2.13333E+02 2.53655E+04
 -1      1073 3.00507E+02-2.47026E+02 2.48278E+04
 -1      1074 9.81250E+02-4.04130E+02 2.11808E+04
 -1      1075 1.17254E+03-4.25662E+02 1.48415E+04
 -1      1076 1.22966E+03-2.91776E+02 7.76566E+03
 -1      1077 6.74390E+02-8.86020E+01 2.10577E+03
 -1      1078 0.00000E+00 0.00000E+00 0.00000E+00
 -1      1079 0.00000E+00 0.00000E+00 0.00000E+00
 -1      1080 1.44021E+03 3.55855E+02-9.20294E+03
 -1      1081 8.63701E+02 6.90967E+02-2.31574E+04
 -1      1082-6.60318E+02 2.35173E+02-2.38695E+04
 -1      1083-2.58785E+02 2.97250E+02-6.79247E+03
 -1      1084-2.48485E+02 2.01468E+02-4.05331E+03
 -1      1085-2.16958E+02 5.52365E+01-1.39704E+03
 -1      1086-2.18027E+02-5.11212E+01 1.23334E+03
 -1      1087-2.52426E+02-1.97044E+02 3.91733E+03
 -1      1088-2.63286E+02-2.92347E+02 6.70297E+03
 -1      1089-6.87145E+02-1.32093E+02 2.48448E+04
 -1      1090 8.97999E+02-6.12283E+02 2.41142E+04
 -1      1091 1.50001E+03-3.27165E+02 9.57114E+03
 -1      1092 0.00000E+00 0.00000E+00 0.00000E+00
 -1      1093 0.00000E+00 0.00000E+00 0.00000E+00
 -1      1094 9.97593E+02 1.33581E+02-3.18764E+03
 -1      1095 1.76663E+03 4.21649E+02-1.14399E+04
 -1      1096 1.39922E+03 7.14520E+02-2.08195E+04
 -1      1097 9.06319E+02 8.22824E+02-2.75816E+04
 -1      1098-1.40789E+02 8.34108E+02-2.99403E+04
 -1      1099-1.28635E+03 7.82052E+02-2.59931E+04
 -1      1100-1.42451E+03 1.11886E+03-1.70965E+04
 -1      1101-6.61052E+02 6.41564E+02-8.74417E+03
 -1      1102-3.00036E+02 2.58591E+02-6.79229E+03
 -1      1103-2.10717E+02 1.75259E+02-5.04369E+03
 -1      1104-2.08913E+02 9.86586E+01-3.37786E+03
 -1      1105-2.26606E+02 7.30868E+01-1.74582E+03
 -1      1106-2.25673E+02 2.23255E+00-9.61225E+01
 -1      1107-2.28113E+02-6.85228E+01 1.55725E+03
 -1      1108-2.10818E+02-9.43054E+01 3.19990E+03
 -1      1109-2.13318E+02-1.70798E+02 4.88295E+03
 -1      1110-3.05755E+02-2.54480E+02 6.65350E+03
 -1      1111-6.77163E+02-6.32050E+02 8.63407E+03
 -1      1112-1.46889E+03-1.08394E+03 1.72241E+04
 -1      1113-1.33118E+03-7.11973E+02 2.64317E+04
 -1      1114-1.51051E+02-7.64429E+02 3.05262E+04
 -1      1115 9.26138E+02-7.64218E+02 2.81400E+04
 -1      1116 1.42833E+03-6.73779E+02 2.12336E+04
 -1      1117 1.80238E+03-4.00174E+02 1.16626E+04
 -1      1118 1.01793E+03-1.27920E+02 3.24697E+03
 -1      1119 0.00000E+00 0.00000E+00 0.00000E+00
 -1      1120 0.00000E+00 0.00000E+00 0.00000E+00
 -1      1121 2.18554E+03 5.14368E+02-1.41710E+04
 -1      1122 8.37871E+02 1.01001E+03-3.28690E+04
 -1      1123-1.07306E+03 8.78384E+02-3.13794E+04
 -1      1124-1.17195E+03 1.35917E+03-1.67647E+04
 -1      1125-1.19334E+03-1.33909E+03 1.65549E+04
 -1      1126-1.10305E+03-8.33322E+02 3.14932E+04
 -1      1127 8.43472E+02-9.64425E+02 3.31250E+04
 -1      1128 2.20322E+03-4.95323E+02 1.42803E+04
 -1      1129 0.00000E+00 0.00000E+00 0.00000E+00
 -1      1130 0.00000E+00 0.00000E+00 0.00000E+00
 -1      1131 1.49678E+03 1.37979E+02-4.84677E+03
 -1      1132 2.63194E+03 5.60866E+02-1.72932E+04
 -1      1133 1.89354E+03 1.02003E+03-3.10090E+04
 -1      1134 6.96143E+02 1.23206E+03-3.93179E+04
 -1      1135-2.30341E+02 9.65035E+02-4.03611E+04
 -1      1136-9.97133E+02 9.43201E+02-3.66258E+04
 -1      1137-9.42203E+02 1.01692E+03-3.10380E+04
 -1      1138-8.71596E+02 1.22245E+03-2.52076E+04
 -1      1139-3.43393E+02 6.23406E+02-2.24826E+04
 -1      1140-3.32677E+01 1.32186E+02-2.16578E+04
 -1      1141-5.58298E+01-1.41041E+02 2.10449E+04
 -1      1142-3.66795E+02-6.23614E+02 2.20062E+04
 -1      1143-8.95363E+02-1.20796E+03 2.48768E+04
 -1      1144-9.60330E+02-9.96747E+02 3.08330E+04
 -1      1145-1.01619E+03-9.15284E+02 3.65318E+04
 -1      1146-2.41952E+02-9.30694E+02 4.03542E+04
 -1      1147 6.94554E+02-1.19956E+03 3.93514E+04
 -1      1148 1.89699E+03-9.93726E+02 3.10369E+04
 -1      1149 2.63681E+03-5.42910E+02 1.72949E+04
 -1      1150 1.49763E+03-1.32255E+02 4.84395E+03
 -1      1151 0.00000E+00 0.00000E+00 0.00000E+00
 -1      1152-1.23647E+02 1.09439E+03-4.65604E+04
 -1      1153-1.01663E+03 1.96154E+02-4.01033E+04
 -1      1154-9.16007E+02 1.17647E+02-2.89266E+04
 -1      1155-4.39782E+02-2.58356E+02-2.11858E+04
 -1      1156-4.54608E+02 2.43180E+02 2.06459E+04
 -1      1157-9.31678E+02-1.17321E+02 2.85596E+04
 -1      1158-1.02692E+03-1.80548E+02 3.98797E+04
 -1      1159-1.28022E+02-1.06944E+03 4.64241E+04
 -1      1160-1.04136E+03 1.01248E+03-5.30737E+04
 -1      1161-1.12623E+03 1.00671E+02-4.63877E+04
 -1      1162-1.27601E+03-7.01473E+02-3.89354E+04
 -1      1163-1.06672E+03-8.38538E+02-3.21921E+04
 -1      1164-8.85771E+02-8.98672E+02-2.65478E+04
 -1      1165-7.45566E+02-8.17157E+02-2.17751E+04
 -1      1166-5.41936E+02-8.42150E+02-1.80665E+04
 -1      1167-5.51048E+02 8.17499E+02 1.76412E+04
 -1      1168-7.53218E+02 7.99165E+02 2.13992E+04
 -1      1169-8.92677E+02 8.86674E+02 2.62150E+04
 -1      1170-1.07208E+03 8.33640E+02 3.18972E+04
 -1      1171-1.27691E+03 7.03148E+02 3.86603E+04
 -1      1172-1.12703E+03-8.67440E+01 4.61099E+04
 -1      1173-1.04420E+03-9.90904E+02 5.28042E+04
 -1      1174-1.05159E+03-1.88132E+03-3.06523E+04
 -1      1175-7.65703E+02-1.33699E+03-1.99777E+04
 -1      1176-5.47633E+02-1.06851E+03-1.23245E+04
 -1      1177-5.49442E+02 1.04284E+03 1.20530E+04
 -1      1178-7.68078E+02 1.32021E+03 1.97301E+04
 -1      1179-1.05049E+03 1.86880E+03 3.04151E+04
 -1      1180-5.71625E+02-2.59469E+03-1.70681E+04
 -1      1181-5.32687E+02-2.13509E+03-1.38656E+04
 -1      1182-4.52878E+02-1.69667E+03-1.10028E+04
 -1      1183-4.22194E+02-1.34046E+03-8.46164E+03
 -1      1184-4.33782E+02-1.00620E+03-5.98970E+03
 -1      1185-3.59862E+02-5.65236E+02-3.48377E+03
 -1      1186-2.57875E+02-2.19558E+02-1.44644E+03
 -1      1187-2.38749E+02-3.46519E+00-2.23901E+01
 -1      1188-2.53412E+02 2.11201E+02 1.39192E+03
 -1      1189-3.54577E+02 5.51027E+02 3.39491E+03
 -1      1190-4.29952E+02 9.84897E+02 5.86508E+03
 -1      1191-4.21256E+02 1.31897E+03 8.32593E+03
 -1      1192-4.53623E+02 1.67576E+03 1.08671E+04
 -1      1193-5.32703E+02 2.11441E+03 1.37315E+04
 -1      1194-5.71754E+02 2.57346E+03 1.69345E+04
 -1      1195-1.42243E+02-1.47585E+03-4.79053E+03
 -1      1196-1.43663E+02-9.63256E+02-3.05743E+03
 -1      1197-1.38641E+02-5.18862E+02-1.57773E+03
 -1      1198-7.66318E+01-1.29683E+02-4.19608E+02
 -1      1199-7.54627E+01 1.24864E+02 4.03574E+02
 -1      1200-1.37212E+02 5.07960E+02 1.54592E+03
 -1      1201-1.43805E+02 9.51227E+02 3.01999E+03
 -1      1202-1.42671E+02 1.46412E+03 4.75404E+03
 -1      1203 0.00000E+00 0.00000E+00 0.00000E+00
 -1      1204 0.00000E+00 0.00000E+00 0.00000E+00
 -1      1205 0.00000E+00 0.00000E+00 0.00000E+00
 -1      1206 0.00000E+00 0.00000E+00 0.00000E+00
 -1      1207 0.00000E+00 0.00000E+00 0.00000E+00
 -1      1208 0.00000E+00 0.00000E+00 0.00000E+00
 -1      1209 0.00000E+00 0.00000E+00 0.00000E+00
 -1      1210 0.00000E+00 0.00000E+00 0.00000E+00
 -1      1211 0.00000E+00 0.00000E+00 0.00000E+00
 -1      1212 0.00000E+00 0.00000E+00 0.00000E+00
 -1      1213 0.00000E+00 0.00000E+00 0.00000E+00
 -1      1214 0.00000E+00 0.00000E+00 0.00000E+00
 -1      1215 0.00000E+00 0.00000E+00 0.00000E+00
 -1      1216 0.00000E+00 0.00000E+00 0.00000E+00
 -1      1217 0.00000E+00 0.00000E+00 0.00000E+00
 -1      1218 8.35060E+02 6.93439E+02 8.63014E+03
 -1      1219 4.30076E+02 3.29066E+02 4.86939E+03
 -1      1220 4.23832E+02 1.12050E+02 1.56762E+03
 -1      1221 4.16457E+02-1.20019E+02-1.68343E+03
 -1      1222 4.20052E+02-3.36212E+02-4.92500E+03
 -1      1223 6.66995E+02-8.25193E+02-8.53583E+03
 -1      1224 3.37149E+02 4.33465E+02 4.90358E+03
 -1      1225 3.14578E+02 3.16640E+02 2.87586E+03
 -1      1226 3.18710E+02 1.08955E+02 9.18443E+02
 -1      1227 3.13187E+02-1.11635E+02-1.00537E+03
 -1      1228 3.05039E+02-3.14054E+02-2.90407E+03
 -1      1229 3.16482E+02-4.27691E+02-4.82047E+03
 -1      1230 1.17950E+02 4.26950E+02 1.57726E+03
 -1      1231 1.10015E+02 3.22738E+02 9.10007E+02
 -1      1232 1.03875E+02 1.08299E+02 2.66735E+02
 -1      1233 1.00204E+02-1.06548E+02-3.49005E+02
 -1      1234 9.95678E+01-3.19599E+02-9.46408E+02
 -1      1235 1.02629E+02-4.23456E+02-1.53869E+03
 -1      1236-1.16271E+02 4.27253E+02-1.72629E+03
 -1      1237-1.11372E+02 3.23086E+02-1.05989E+03
 -1      1238-1.11012E+02 1.09618E+02-3.92140E+02
 -1      1239-1.13922E+02-1.04552E+02 2.89170E+02
 -1      1240-1.18569E+02-3.16625E+02 9.90816E+02
 -1      1241-1.24978E+02-4.19460E+02 1.70968E+03
 -1      1242-3.31665E+02 4.31244E+02-5.03453E+03
 -1      1243-3.16174E+02 3.17461E+02-3.03138E+03
 -1      1244-3.23836E+02 1.12780E+02-1.06137E+03
 -1      1245-3.26262E+02-1.05644E+02 9.20629E+02
 -1      1246-3.22131E+02-3.10076E+02 2.91885E+03
 -1      1247-3.39268E+02-4.23800E+02 4.96650E+03
 -1      1248-7.38524E+02 7.23917E+02-8.71903E+03
 -1      1249-4.29866E+02 3.32656E+02-5.04052E+03
 -1      1250-4.27153E+02 1.18440E+02-1.74219E+03
 -1      1251-4.29566E+02-1.09873E+02 1.55362E+03
 -1      1252-4.35550E+02-3.24303E+02 4.87970E+03
 -1      1253-7.55021E+02-7.11584E+02 8.60865E+03
 -1      1254 9.10065E+02 8.02914E+02 8.59387E+03
 -1      1255 7.86683E+02 6.85911E+02 6.67311E+03
 -1      1256 6.49166E+02 4.77534E+02 4.86825E+03
 -1      1257 6.41147E+02 3.12577E+02 3.20577E+03
 -1      1258 6.28199E+02 1.57114E+02 1.56247E+03
 -1      1259 6.24929E+02-4.29122E+00-6.15804E+01
 -1      1260 6.20623E+02-1.66064E+02-1.67903E+03
 -1      1261 6.26657E+02-3.22718E+02-3.29841E+03
 -1      1262 6.31206E+02-4.86105E+02-4.92545E+03
 -1      1263 7.18292E+02-6.96124E+02-6.67307E+03
 -1      1264 7.73713E+02-9.01550E+02-8.50057E+03
 -1      1265 7.02018E+02 7.43568E+02 6.70607E+03
 -1      1266 6.45947E+02 4.85974E+02 3.87613E+03
 -1      1267 6.14591E+02 1.57399E+02 1.24373E+03
 -1      1268 6.07749E+02-1.63744E+02-1.34266E+03
 -1      1269 6.20970E+02-4.92401E+02-3.91657E+03
 -1      1270 6.62605E+02-7.79727E+02-6.60429E+03
 -1      1271 4.87303E+02 6.51440E+02 4.90397E+03
 -1      1272 4.94069E+02 6.41382E+02 3.89192E+03
 -1      1273 4.85781E+02 4.83201E+02 2.88602E+03
 -1      1274 4.72433E+02 3.22278E+02 1.89240E+03
 -1      1275 4.67238E+02 1.58241E+02 9.17039E+02
 -1      1276 4.61543E+02-2.04443E+00-4.70188E+01
 -1      1277 4.60373E+02-1.61925E+02-1.00367E+03
 -1      1278 4.59557E+02-3.24937E+02-1.95784E+03
 -1      1279 4.65315E+02-4.84545E+02-2.91387E+03
 -1      1280 4.67302E+02-6.42182E+02-3.86571E+03
 -1      1281 4.59187E+02-6.45356E+02-4.81929E+03
 -1      1282 3.21164E+02 6.44718E+02 3.23139E+03
 -1      1283 3.24061E+02 4.75650E+02 1.89426E+03
 -1      1284 3.12338E+02 1.59388E+02 5.92672E+02
 -1      1285 3.05955E+02-1.60192E+02-6.73708E+02
 -1      1286 3.06644E+02-4.72413E+02-1.92170E+03
 -1      1287 2.97054E+02-6.38860E+02-3.16907E+03
 -1      1288 1.62725E+02 6.35674E+02 1.57298E+03
 -1      1289 1.61087E+02 6.22895E+02 1.24228E+03
 -1      1290 1.59450E+02 4.74162E+02 9.08495E+02
 -1      1291 1.57251E+02 3.18737E+02 5.84197E+02
 -1      1292 1.53296E+02 1.59735E+02 2.66772E+02
 -1      1293 1.50737E+02 1.11322E+00-4.40784E+01
 -1      1294 1.47733E+02-1.57231E+02-3.48924E+02
 -1      1295 1.46276E+02-3.15235E+02-6.48558E+02
 -1      1296 1.44609E+02-4.68668E+02-9.44954E+02
 -1      1297 1.43716E+02-6.14273E+02-1.24294E+03
 -1      1298 1.43715E+02-6.27771E+02-1.53353E+03
 -1      1299-2.19444E-01 6.36240E+02-7.57304E+01
 -1      1300-1.37538E+00 4.72448E+02-7.46014E+01
 -1      1301-5.43779E+00 1.61122E+02-6.14723E+01
 -1      1302-1.02213E+01-1.55866E+02-2.82651E+01
 -1      1303-1.40604E+01-4.64691E+02 2.39750E+01
 -1      1304-1.56154E+01-6.26513E+02 8.70167E+01
 -1      1305-1.62445E+02 6.35363E+02-1.72189E+03
 -1      1306-1.61412E+02 6.22001E+02-1.39269E+03
 -1      1307-1.61662E+02 4.74589E+02-1.05833E+03
 -1      1308-1.63037E+02 3.20191E+02-7.26289E+02
 -1      1309-1.63845E+02 1.61732E+02-3.92043E+02
 -1      1310-1.66223E+02 3.59814E+00-5.36883E+01
 -1      1311-1.68086E+02-1.54230E+02 2.89194E+02
 -1      1312-1.70998E+02-3.11938E+02 6.36819E+02
 -1      1313-1.72577E+02-4.65260E+02 9.89285E+02
 -1      1314-1.73905E+02-6.11120E+02 1.34915E+03
 -1      1315-1.75421E+02-6.24276E+02 1.70514E+03
 -1      1316-3.18364E+02 6.43237E+02-3.37372E+03
 -1      1317-3.24595E+02 4.76425E+02-2.04538E+03
 -1      1318-3.22001E+02 1.63422E+02-7.24590E+02
 -1      1319-3.25802E+02-1.54208E+02 6.04529E+02
 -1      1320-3.34334E+02-4.66041E+02 1.95557E+03
 -1      1321-3.29971E+02-6.31973E+02 3.33051E+03
 -1      1322-4.80990E+02 6.48801E+02-5.03437E+03
 -1      1323-4.87882E+02 6.40848E+02-4.03664E+03
 -1      1324-4.83657E+02 4.84880E+02-3.04060E+03
 -1      1325-4.75951E+02 3.26141E+02-2.04720E+03
 -1      1326-4.75623E+02 1.64071E+02-1.05984E+03
 -1      1327-4.75341E+02 5.22893E+00-7.21904E+01
 -1      1328-4.79145E+02-1.53548E+02 9.19223E+02
 -1      1329-4.82602E+02-3.15379E+02 1.91767E+03
 -1      1330-4.92852E+02-4.73787E+02 2.92824E+03
 -1      1331-4.98496E+02-6.29442E+02 3.94583E+03
 -1      1332-4.91866E+02-6.37569E+02 4.96650E+03
 -1      1333-6.84764E+02 7.51702E+02-6.81366E+03
 -1      1334-6.39752E+02 4.89267E+02-4.03922E+03
 -1      1335-6.21750E+02 1.64923E+02-1.40065E+03
 -1      1336-6.25138E+02-1.53314E+02 1.23714E+03
 -1      1337-6.48940E+02-4.77578E+02 3.90313E+03
 -1      1338-6.96470E+02-7.39227E+02 6.72376E+03
 -1      1339-8.41490E+02 8.31537E+02-8.68418E+03
 -1      1340-7.54545E+02 6.85280E+02-6.81484E+03
 -1      1341-6.46943E+02 4.82543E+02-5.04019E+03
 -1      1342-6.42180E+02 3.20774E+02-3.38480E+03
 -1      1343-6.35026E+02 1.66311E+02-1.73758E+03
 -1      1344-6.37329E+02 6.27015E+00-9.60480E+01
 -1      1345-6.38385E+02-1.53748E+02 1.54907E+03
 -1      1346-6.48577E+02-3.08198E+02 3.20714E+03
 -1      1347-6.55602E+02-4.70270E+02 4.87934E+03
 -1      1348-7.67528E+02-6.73706E+02 6.67690E+03
 -1      1349-8.58698E+02-8.16501E+02 8.57342E+03
 -1      1350 1.14709E+03 1.04536E+03 8.58948E+03
 -1      1351 8.96927E+02 6.35157E+02 4.87327E+03
 -1      1352 8.56735E+02 2.05636E+02 1.56292E+03
 -1      1353 8.46802E+02-2.17430E+02-1.67896E+03
 -1      1354 8.68708E+02-6.46153E+02-4.92953E+03
 -1      1355 1.00850E+03-1.13614E+03-8.49633E+03
 -1      1356 6.47855E+02 8.96385E+02 4.90828E+03
 -1      1357 6.42834E+02 6.38999E+02 2.88785E+03
 -1      1358 6.18738E+02 2.09413E+02 9.17157E+02
 -1      1359 6.09728E+02-2.14401E+02-1.00362E+03
 -1      1360 6.15303E+02-6.41187E+02-2.91553E+03
 -1      1361 6.10750E+02-8.91105E+02-4.82413E+03
 -1      1362 2.13062E+02 8.67000E+02 1.57314E+03
 -1      1363 2.11129E+02 6.28099E+02 9.08632E+02
 -1      1364 2.02408E+02 2.10882E+02 2.67011E+02
 -1      1365 1.94983E+02-2.07617E+02-3.48979E+02
 -1      1366 1.91319E+02-6.20615E+02-9.44935E+02
 -1      1367 1.87967E+02-8.55841E+02-1.53386E+03
 -1      1368-2.12715E+02 8.66083E+02-1.72201E+03
 -1      1369-2.13917E+02 6.28629E+02-1.05827E+03
 -1      1370-2.16360E+02 2.13563E+02-3.92065E+02
 -1      1371-2.22007E+02-2.03637E+02 2.89365E+02
 -1      1372-2.28462E+02-6.16173E+02 9.89294E+02
 -1      1373-2.29928E+02-8.51261E+02 1.70518E+03
 -1      1374-6.39254E+02 8.92642E+02-5.03861E+03
 -1      1375-6.39876E+02 6.41484E+02-3.04215E+03
 -1      1376-6.29929E+02 2.17130E+02-1.05975E+03
 -1      1377-6.34618E+02-2.03191E+02 9.19288E+02
 -1      1378-6.52129E+02-6.26784E+02 2.92990E+03
 -1      1379-6.53723E+02-8.77672E+02 4.97074E+03
 -1      1380-1.07924E+03 1.07065E+03-8.67983E+03
 -1      1381-8.90480E+02 6.41372E+02-5.04448E+03
 -1      1382-8.65449E+02 2.17915E+02-1.73765E+03
 -1      1383-8.69937E+02-2.01293E+02 1.54931E+03
 -1      1384-9.02362E+02-6.25162E+02 4.88378E+03
 -1      1385-1.09975E+03-1.05250E+03 8.56902E+03
 -1      1386 1.41152E+03 1.31251E+03 8.58765E+03
 -1      1387 1.30490E+03 1.12864E+03 6.68792E+03
 -1      1388 1.15341E+03 7.87706E+02 4.87829E+03
 -1      1389 1.11261E+03 5.17938E+02 3.20729E+03
 -1      1390 1.09892E+03 2.55784E+02 1.56357E+03
 -1      1391 1.08787E+03-7.30880E+00-6.13473E+01
 -1      1392 1.08613E+03-2.70561E+02-1.67899E+03
 -1      1393 1.08868E+03-5.34168E+02-3.29913E+03
 -1      1394 1.11660E+03-8.00706E+02-4.93351E+03
 -1      1395 1.21539E+03-1.14506E+03-6.68150E+03
 -1      1396 1.26714E+03-1.39741E+03-8.49454E+03
 -1      1397 1.15484E+03 1.25693E+03 6.71503E+03
 -1      1398 1.07131E+03 7.96716E+02 3.87945E+03
 -1      1399 1.02126E+03 2.58565E+02 1.24575E+03
 -1      1400 1.00930E+03-2.69419E+02-1.34366E+03
 -1      1401 1.03196E+03-8.05431E+02-3.91912E+03
 -1      1402 1.09024E+03-1.29266E+03-6.61880E+03
 -1      1403 8.02777E+02 1.15184E+03 4.91251E+03
 -1      1404 8.08102E+02 1.06593E+03 3.89481E+03
 -1      1405 7.97710E+02 7.92018E+02 2.89025E+03
 -1      1406 7.80782E+02 5.28280E+02 1.89497E+03
 -1      1407 7.67982E+02 2.61392E+02 9.17254E+02
 -1      1408 7.61153E+02-3.35581E+00-4.67002E+01
 -1      1409 7.57027E+02-2.67652E+02-1.00346E+03
 -1      1410 7.58211E+02-5.33564E+02-1.95978E+03
 -1      1411 7.62497E+02-7.95684E+02-2.91771E+03
 -1      1412 7.66107E+02-1.06478E+03-3.86874E+03
 -1      1413 7.57405E+02-1.14539E+03-4.82896E+03
 -1      1414 5.31867E+02 1.11934E+03 3.23243E+03
 -1      1415 5.32095E+02 7.84866E+02 1.89664E+03
 -1      1416 5.13253E+02 2.61402E+02 5.92986E+02
 -1      1417 5.02867E+02-2.62760E+02-6.73578E+02
 -1      1418 5.02459E+02-7.80717E+02-1.92391E+03
 -1      1419 4.92194E+02-1.10796E+03-3.17038E+03
 -1      1420 2.65223E+02 1.11176E+03 1.57347E+03
 -1      1421 2.65104E+02 1.03437E+03 1.24377E+03
 -1      1422 2.63570E+02 7.79953E+02 9.08715E+02
 -1      1423 2.57819E+02 5.24063E+02 5.84496E+02
 -1      1424 2.52116E+02 2.62575E+02 2.67362E+02
 -1      1425 2.47201E+02 1.71367E+00-4.38917E+01
 -1      1426 2.42740E+02-2.58608E+02-3.49093E+02
 -1      1427 2.39822E+02-5.18061E+02-6.48522E+02
 -1      1428 2.38818E+02-7.70366E+02-9.44862E+02
 -1      1429 2.35976E+02-1.02061E+03-1.24467E+03
 -1      1430 2.33758E+02-1.09735E+03-1.53436E+03
 -1      1431-3.06904E-01 1.10728E+03-7.56439E+01
 -1      1432-2.11875E+00 7.79223E+02-7.44009E+01
 -1      1433-8.93366E+00 2.64329E+02-6.12320E+01
 -1      1434-1.69987E+01-2.55760E+02-2.81172E+01
 -1      1435-2.32227E+01-7.66343E+02 2.39205E+01
 -1      1436-2.59416E+01-1.08948E+03 8.69540E+01
 -1      1437-2.64637E+02 1.11023E+03-1.72227E+03
 -1      1438-2.65345E+02 1.03316E+03-1.39391E+03
 -1      1439-2.66908E+02 7.80544E+02-1.05811E+03
 -1      1440-2.67448E+02 5.26357E+02-7.26124E+02
 -1      1441-2.69473E+02 2.65974E+02-3.92134E+02
 -1      1442-2.72853E+02 5.94427E+00-5.35071E+01
 -1      1443-2.76530E+02-2.53607E+02 2.89629E+02
 -1      1444-2.80686E+02-5.12728E+02 6.36924E+02
 -1      1445-2.85176E+02-7.65018E+02 9.89231E+02
 -1      1446-2.85947E+02-1.01508E+03 1.35043E+03
 -1      1447-2.86057E+02-1.09137E+03 1.70534E+03
 -1      1448-5.26833E+02 1.11608E+03-3.37469E+03
 -1      1449-5.32624E+02 7.86464E+02-2.04724E+03
 -1      1450-5.29333E+02 2.68127E+02-7.24424E+02
 -1      1451-5.35650E+02-2.52970E+02 6.04708E+02
 -1      1452-5.48932E+02-7.69304E+02 1.95763E+03
 -1      1453-5.45998E+02-1.09708E+03 3.33146E+03
 -1      1454-7.92448E+02 1.14621E+03-5.04273E+03
 -1      1455-7.99212E+02 1.06361E+03-4.03914E+03
 -1      1456-7.93692E+02 7.95630E+02-3.04418E+03
 -1      1457-7.85825E+02 5.35195E+02-2.04905E+03
 -1      1458-7.82134E+02 2.70977E+02-1.05956E+03
 -1      1459-7.83954E+02 8.61362E+00-7.20052E+01
 -1      1460-7.88000E+02-2.53620E+02 9.19305E+02
 -1      1461-7.96903E+02-5.17394E+02 1.91985E+03
 -1      1462-8.09060E+02-7.77274E+02 2.93207E+03
 -1      1463-8.16653E+02-1.04490E+03 3.94845E+03
 -1      1464-8.10477E+02-1.12757E+03 4.97488E+03
 -1      1465-1.12706E+03 1.26135E+03-6.82423E+03
 -1      1466-1.06145E+03 8.01766E+02-4.04173E+03
 -1      1467-1.03266E+03 2.71071E+02-1.40185E+03
 -1      1468-1.03836E+03-2.51950E+02 1.23874E+03
 -1      1469-1.07670E+03-7.82592E+02 3.90590E+03
 -1      1470-1.14646E+03-1.24188E+03 6.73416E+03
 -1      1471-1.34144E+03 1.33390E+03-8.67804E+03
 -1      1472-1.26328E+03 1.12799E+03-6.82604E+03
 -1      1473-1.14350E+03 7.95215E+02-5.04865E+03
 -1      1474-1.11387E+03 5.30860E+02-3.38569E+03
 -1      1475-1.10914E+03 2.71102E+02-1.73783E+03
 -1      1476-1.10767E+03 1.03415E+01-9.58639E+01
 -1      1477-1.11480E+03-2.50418E+02 1.54972E+03
 -1      1478-1.12453E+03-5.10216E+02 3.20836E+03
 -1      1479-1.15857E+03-7.75067E+02 4.88815E+03
 -1      1480-1.28360E+03-1.10905E+03 6.68859E+03
 -1      1481-1.36563E+03-1.31272E+03 8.56720E+03
 -3
    1PSTEP                        14           1           1          
    1PGM                1.000000E+00                                  
    1PGK                1.235845E+12                                  
    1PHID                         -1                                  
    1PSUBC                         0                                  
    1PMODE                         4                                  
  100CL  104 176930.2766        1481                     2    4MODAL      1
 -4  STRESS      6    1
 -5  SXX         1    4    1    1
 -5  SYY         1    4    2    2
 -5  SZZ         1    4    3    3
 -5  SXY         1    4    1    2
 -5  SYZ         1    4    2    3
 -5  SZX         1    4    3    1
 -1         1 1.06012E+08 7.05759E+07 5.24782E+07 1.04360E+08-4.18459E+07-5.70266E+07
 -1         2 1.16737E+08 3.08684E+07-5.73134E+06 1.21981E+08 1.23579E+07-2.91571E+07
 -1         3 1.03789E+08 1.74549E+07 6.70932E+06 1.10520E+08-1.57377E+07-2.05376E+07
 -1         4 2.22137E+07-3.84832E+06 4.78774E+05 8.24529E+07-4.01395E+06-2.76883E+07
 -1         5 5.41954E+06-1.66673E+06-2.99594E+06 8.31792E+07 4.10591E+06-1.39322E+07
 -1         6 5.81141E+06 4.73639E+05 8.64518E+05 8.33442E+07 5.47214E+04-2.00290E+07
 -1         7 3.78381E+06 8.33342E+05 1.71327E+06 8.36141E+07-3.78977E+06-1.52627E+07
 -1         8-1.25280E+07 2.39918E+06-9.02929E+05 8.30693E+07 3.87711E+06-2.64486E+07
 -1         9-7.28812E+07-1.08454E+07-2.17056E+06 1.06712E+08 1.76647E+07-2.16565E+07
 -1        10-7.21780E+07-2.99287E+07 6.57806E+05 1.17084E+08-1.41437E+07-2.88953E+07
 -1        11-6.74459E+07-1.04144E+08-5.10246E+07 1.01356E+08 5.58270E+07-4.01172E+07
 -1        12 3.10151E+07 7.67443E+07-8.06850E+05 1.20182E+08-2.95962E+07 1.43698E+07
 -1        13 5.50838E+07 1.62294E+07 9.42086E+06 1.70944E+08-9.51053E+06 7.92939E+06
 -1        14 7.47377E+06-1.48888E+06-4.27719E+06 1.43099E+08 2.33709E+06 1.13927E+07
 -1        15 2.28609E+06 3.63012E+05 3.42640E+06 1.43010E+08-2.37087E+06 1.04893E+07
 -1        16-4.29238E+07-1.65752E+07-8.64769E+06 1.66940E+08 1.14715E+07 9.93647E+06
 -1        17-2.98248E+07-1.13857E+08 5.72517E+06 1.18951E+08 2.84482E+07 1.20891E+07
 -1        18 1.13056E+07 7.81044E+07 2.29474E+06 1.09004E+08-2.22959E+07-1.81521E+07
 -1        19 1.77140E+07 4.66880E+07 8.88256E+06 1.69979E+08 9.95041E+06-1.16584E+07
 -1        20 1.72055E+07 1.14223E+07-6.49895E+06 2.09770E+08-7.92556E+06-6.87253E+06
 -1        21 1.31180E+07 5.06321E+06-3.33780E+06 1.88753E+08-2.24247E+06-5.92244E+06
 -1        22 9.56190E+06 2.52510E+06 2.91326E+06 1.86938E+08 1.72716E+06-7.99235E+06
 -1        23 4.42654E+06-7.49964E+05-7.10392E+04 1.85733E+08 1.73726E+05-6.36318E+06
 -1        24-4.15852E+05-3.89612E+06-2.35814E+06 1.86440E+08-1.43001E+06-7.28280E+06
 -1        25-3.68407E+06-7.93697E+06 3.08366E+06 1.87241E+08 1.68841E+06-6.87268E+06
 -1        26-9.16489E+06-1.53589E+07 6.30785E+06 2.06465E+08 6.65668E+06-7.70486E+06
 -1        27-1.49703E+07-5.20019E+07-9.19075E+06 1.67911E+08-7.79906E+06-9.23460E+06
 -1        28-1.72144E+07-9.99157E+07-6.66736E+06 1.08261E+08 1.99869E+07-1.51406E+07
 -1        29-2.48779E+06 1.65847E+07 8.79541E+05 8.41736E+07-2.67242E+07-4.10472E+06
 -1        30 9.51113E+06 6.88946E+06-3.21871E+06 1.89472E+08-6.87905E+06-1.83518E+06
 -1        31 6.86905E+06 1.79299E+06 1.32997E+06 1.73418E+08 1.49903E+06-1.53411E+06
 -1        32 1.28550E+06-3.81790E+06-1.19376E+06 1.72717E+08-1.36980E+06-1.19748E+06
 -1        33-3.39810E+06-1.08040E+07 3.24311E+06 1.86243E+08 5.85051E+06-2.10642E+06
 -1        34 3.72753E+06-1.95149E+07-4.90783E+05 8.11704E+07 2.72690E+07-3.83014E+06
 -1        35-1.04316E+06 4.43859E+05-2.38410E+06 8.43942E+07-1.53896E+07 3.74948E+06
 -1        36 3.40169E+05 2.29401E+06-3.58865E+06 1.44257E+08 1.05274E+07 2.45416E+06
 -1        37 5.37969E+06 4.56015E+06 2.48530E+06 1.87949E+08-7.49944E+06 1.31617E+06
 -1        38 5.79489E+06 2.06851E+06 1.24207E+06 1.73802E+08-1.30540E+06 1.39196E+06
 -1        39 4.03289E+06-7.42764E+05-1.27770E+06 1.74488E+08 1.46013E+06 1.60667E+06
 -1        40 3.66063E+06-1.20068E+06 4.16669E+04 1.73449E+08-9.13627E+04 9.14005E+05
 -1        41 3.31732E+06-1.69184E+06 1.23232E+06 1.73652E+08-1.58933E+06 1.48592E+06
 -1        42 9.41665E+04-4.34175E+06-1.27464E+06 1.72022E+08 1.47075E+06 1.46348E+06
 -1        43-1.36365E+06-6.88141E+06-2.84971E+06 1.84813E+08 7.80564E+06 1.81361E+06
 -1        44 1.98403E+06-4.79466E+06 4.19958E+06 1.41328E+08-1.12376E+07 2.23537E+06
 -1        45 1.51443E+06-3.04915E+06 2.67591E+06 8.20919E+07 1.37678E+07 4.04614E+06
 -1        46-8.65316E+04 5.73988E+05-1.86834E+05 8.38980E+07-2.02341E+07-5.07800E+04
 -1        47 2.11628E+06 3.49805E+05 2.89503E+04 1.86334E+08-6.32421E+06-1.44777E+05
 -1        48 3.34872E+06-5.15145E+05-2.91007E+04 1.73574E+08 9.26555E+05 2.08395E+04
 -1        49 2.96747E+06-1.30141E+06-2.38400E+04 1.72844E+08-9.11932E+05 2.12527E+03
 -1        50 1.31898E+06-1.89281E+06 3.83367E+04 1.83870E+08 6.37505E+06 1.67922E+05
 -1        51-3.50894E+05-2.81146E+06-6.17245E+05 8.22961E+07 1.97912E+07 8.88327E+04
 -1        52 1.08916E+06 7.78319E+05 2.26173E+06 8.34670E+07-1.52387E+07-3.85291E+06
 -1        53 1.73558E+06-8.76920E+05 3.62713E+06 1.43013E+08 1.06574E+07-2.25406E+06
 -1        54-1.00569E+06-3.80518E+06-2.50019E+06 1.86574E+08-7.63928E+06-1.62312E+06
 -1        55 1.37823E+05-2.23002E+06-1.17118E+06 1.72919E+08-1.41795E+06-1.34477E+06
 -1        56 2.79304E+06-3.26384E+05 1.19428E+06 1.73883E+08 1.48704E+06-1.59048E+06
 -1        57 2.82399E+06-6.29183E+05 3.93654E+03 1.72948E+08-1.59843E+04-9.27929E+05
 -1        58 2.75859E+06-8.60456E+05-1.14639E+06 1.73279E+08-1.52667E+06-1.45401E+06
 -1        59 4.29350E+06 1.04950E+06 1.15948E+06 1.71804E+08 1.27981E+06-1.44618E+06
 -1        60 3.91854E+06 2.82582E+06 2.42805E+06 1.84820E+08 7.38748E+06-1.52220E+06
 -1        61-4.46609E+05 6.33084E+05-3.56432E+06 1.41513E+08-1.05924E+07-2.27592E+06
 -1        62-8.37418E+05-6.66894E+05-1.65522E+06 8.24728E+07 1.48805E+07-3.71458E+06
 -1        63 3.06994E+06-1.45961E+07-5.76756E+05 8.24322E+07-2.63457E+07 3.57246E+06
 -1        64-4.14509E+06-6.73199E+06 3.00266E+06 1.86979E+08-6.46445E+06 1.81200E+06
 -1        65 3.29065E+05-2.35582E+06-1.14854E+06 1.72277E+08 1.44758E+06 1.32544E+06
 -1        66 4.73687E+06 1.66434E+06 1.18699E+06 1.71874E+08-1.40772E+06 1.43269E+06
 -1        67 6.94184E+06 6.30230E+06-3.03784E+06 1.85933E+08 6.45008E+06 1.91994E+06
 -1        68-3.08792E+06 1.46972E+07 6.30021E+05 8.19297E+07 2.63410E+07 3.77779E+06
 -1        69-1.27998E+07-8.07014E+07-4.19539E+06 1.06559E+08-2.09807E+07 1.57743E+07
 -1        70-1.42446E+07-4.41445E+07-8.61414E+06 1.66339E+08 9.01731E+06 1.02286E+07
 -1        71-1.05711E+07-1.11189E+07 6.17665E+06 2.05618E+08-7.33149E+06 7.12668E+06
 -1        72-5.51532E+06-5.19637E+06 3.04231E+06 1.86258E+08-1.92773E+06 6.31568E+06
 -1        73-1.82116E+06-2.62717E+06-2.51712E+06 1.85163E+08 1.57823E+06 7.51887E+06
 -1        74 2.44913E+06-1.63720E+05 7.40333E+03 1.84130E+08-3.18667E+04 6.36668E+06
 -1        75 6.67860E+06 2.40225E+06 2.57567E+06 1.84964E+08-1.64746E+06 7.59665E+06
 -1        76 9.49590E+06 5.02049E+06-3.07482E+06 1.85981E+08 1.94754E+06 6.23481E+06
 -1        77 1.33801E+07 1.11525E+07-6.26110E+06 2.05337E+08 7.37994E+06 7.24818E+06
 -1        78 1.55927E+07 4.47983E+07 8.73748E+06 1.66167E+08-9.14833E+06 1.03283E+07
 -1        79 1.26104E+07 8.06957E+07 3.99258E+06 1.06500E+08 2.09352E+07 1.61062E+07
 -1        80-2.85222E+07-8.69570E+07 2.85327E+06 1.15606E+08-2.83262E+07-1.28295E+07
 -1        81-4.42402E+07-1.46539E+07-8.72256E+06 1.66266E+08-9.94278E+06-8.84682E+06
 -1        82 3.03974E+05 1.06810E+06 3.69917E+06 1.41704E+08 2.23762E+06-1.06835E+07
 -1        83 4.41711E+06-1.17836E+06-3.76434E+06 1.41615E+08-2.23087E+06-1.06978E+07
 -1        84 4.75201E+07 1.48373E+07 8.81827E+06 1.66467E+08 9.88171E+06-8.64338E+06
 -1        85 2.88476E+07 8.60151E+07-2.69732E+06 1.16083E+08 2.84387E+07-1.28900E+07
 -1        86-8.53897E+07-8.13581E+07-4.95418E+07 9.85182E+07-4.47770E+07 4.64719E+07
 -1        87-9.11156E+07-2.84224E+07 3.45436E+06 1.15686E+08 1.25603E+07 2.82457E+07
 -1        88-8.27229E+07-1.35083E+07-4.66797E+06 1.06453E+08-1.55449E+07 2.06557E+07
 -1        89-1.38556E+07 3.22593E+06-5.55937E+05 8.17516E+07-3.68457E+06 2.63967E+07
 -1        90 1.69854E+06 1.05256E+06 2.05950E+06 8.25263E+07 3.73774E+06 1.47884E+07
 -1        91 2.43610E+06 4.94628E+04 5.82587E+04 8.25609E+07-8.40747E+03 1.99075E+07
 -1        92 2.94197E+06-1.01711E+06-2.13406E+06 8.25067E+07-3.79910E+06 1.47460E+07
 -1        93 1.78305E+07-3.30555E+06 5.43817E+05 8.17827E+07 3.72318E+06 2.64569E+07
 -1        94 8.71818E+07 1.39258E+07 4.89418E+06 1.06987E+08 1.55352E+07 2.07563E+07
 -1        95 9.50595E+07 2.89098E+07-3.70334E+06 1.16552E+08-1.25120E+07 2.83655E+07
 -1        96 8.79534E+07 8.03700E+07 5.00218E+07 9.93691E+07 4.44670E+07 4.77334E+07
 -1        97 1.26331E+08 8.50030E+07 7.60266E+07 9.27993E+07-9.77164E+07-1.20475E+08
 -1        98 8.13407E+07 1.01061E+07-1.58849E+06 7.60882E+07-3.29760E+06-3.63927E+07
 -1        99 7.67938E+06 6.13615E+05-6.66830E+05 5.74645E+07 3.03068E+05-4.30273E+07
 -1       100 3.19631E+05-1.24910E+06-3.70335E+05 5.78531E+07 2.89051E+05-4.33217E+07
 -1       101-5.59470E+07-4.21592E+06 4.98232E+06 7.23298E+07 4.60405E+06-4.20118E+07
 -1       102-8.14553E+07-1.24250E+08-7.39356E+07 9.01327E+07 1.17624E+08-9.40287E+07
 -1       103 4.42865E+06 6.00042E+07-5.10774E+06 7.39292E+07-4.28512E+07-4.76997E+06
 -1       104 1.81586E+07 1.28647E+07-2.78656E+06 1.69780E+08-2.28819E+06-2.56065E+06
 -1       105 6.75229E+06 1.18431E+06 1.63968E+06 1.50555E+08 2.85973E+05-2.99449E+06
 -1       106 3.18825E+05-2.22623E+06-1.09914E+06 1.50163E+08 1.15146E+04-2.70503E+06
 -1       107-1.09151E+07-1.65686E+07 2.71692E+06 1.67111E+08 2.40027E+06-2.01542E+06
 -1       108-1.01084E+07-7.84273E+07 1.39603E+06 7.45706E+07 3.54903E+07-3.07533E+06
 -1       109 1.06870E+06 3.16736E+06-1.37721E+05 5.83059E+07-4.40312E+07-4.47516E+05
 -1       110 3.36170E+06 2.96537E+06 1.17592E+06 1.51406E+08-2.87943E+06-9.21919E+04
 -1       111 3.48799E+06-3.73996E+05-7.26201E+05 1.40472E+08 3.01336E+05 3.44043E+05
 -1       112 2.46738E+06-1.59347E+06 7.03459E+05 1.39809E+08-3.01085E+05 4.16940E+05
 -1       113-3.03044E+05-4.63411E+06-1.63167E+06 1.48847E+08 2.93761E+06 4.14206E+05
 -1       114-6.78186E+05-5.66676E+06 4.61400E+05 5.67366E+07 4.24025E+07 4.26331E+05
 -1       115-1.02030E+06-2.31268E+06 9.06126E+04 5.77765E+07-4.38468E+07-4.82938E+04
 -1       116 1.75364E+04-2.35533E+06-1.27343E+06 1.50246E+08-2.94137E+06-2.84987E+05
 -1       117 2.02616E+06-4.53751E+05 6.85560E+05 1.39991E+08 2.61465E+05-3.19770E+05
 -1       118 2.42150E+06-4.89627E+05-6.39126E+05 1.39511E+08-3.31929E+05-1.66782E+05
 -1       119 2.37322E+06 1.60428E+06 1.25904E+06 1.48836E+08 2.79675E+06 2.45586E+04
 -1       120 1.09633E+06 2.08054E+06 3.26828E+05 5.71086E+07 4.28655E+07 7.79002E+04
 -1       121-6.56115E+06-6.30433E+07 3.14815E+06 7.30084E+07-3.96126E+07 3.54742E+06
 -1       122-1.21183E+07-1.24711E+07 2.79818E+06 1.66391E+08-2.38241E+06 2.29069E+06
 -1       123-7.52585E+05-1.33671E+06-1.33860E+06 1.49120E+08 1.36199E+05 2.86750E+06
 -1       124 4.64136E+06 1.16016E+06 1.40083E+06 1.48962E+08-2.12730E+05 2.96955E+06
 -1       125 1.44283E+07 1.25002E+07-2.86034E+06 1.66178E+08 2.32627E+06 2.55509E+06
 -1       126 6.24523E+06 6.28033E+07-3.39158E+06 7.28632E+07 3.97283E+07 3.81814E+06
 -1       127-1.00728E+08-9.60441E+07-7.17315E+07 8.61047E+07-1.00011E+08 1.02556E+08
 -1       128-6.46739E+07-7.16662E+06 2.78980E+06 7.30489E+07-3.47364E+06 3.86467E+07
 -1       129-1.40442E+06-9.26287E+05 3.75301E+03 5.71166E+07 4.46016E+04 4.30678E+07
 -1       130 5.17320E+06 9.73131E+05-4.12909E+04 5.70898E+07-1.07449E+05 4.31261E+07
 -1       131 6.82356E+07 7.49729E+06-2.65974E+06 7.34579E+07 3.43766E+06 3.86389E+07
 -1       132 1.03587E+08 9.47350E+07 7.23805E+07 8.68717E+07 9.98192E+07 1.04746E+08
 -1       133 2.08751E+08 1.60037E+08 2.32409E+08 9.16467E+07-2.67255E+08-3.25865E+08
 -1       134 1.18517E+08 3.20665E+07-4.80772E+06 7.54386E+07-1.67176E+07-1.03661E+08
 -1       135 6.81606E+07 8.98191E+06 6.56468E+06 4.53610E+07-7.43258E+06-8.00738E+07
 -1       136-1.12963E+06-1.48517E+07-2.10096E+07 3.29485E+07 5.07413E+06-7.83817E+07
 -1       137 1.70507E+07 1.10148E+07 2.23081E+07 3.40973E+07-4.87344E+06-8.64186E+07
 -1       138 3.58709E+06 3.44078E+05 9.68120E+05 3.62479E+07 6.26472E+05-8.58763E+07
 -1       139-8.98737E+06-1.00458E+07-1.90874E+07 3.42771E+07 7.62604E+06-8.38283E+07
 -1       140 3.57688E+06 1.23602E+07 1.64784E+07 3.44057E+07-8.19888E+06-8.10111E+07
 -1       141-4.39904E+07 3.26148E+05 4.55759E+06 4.21845E+07 9.57828E+06-8.59115E+07
 -1       142-7.25549E+07-3.42837E+07-8.53122E+06 7.11763E+07 2.12725E+07-1.03728E+08
 -1       143-1.54214E+08-2.04657E+08-2.25935E+08 8.90073E+07 3.18140E+08-2.57317E+08
 -1       144 3.52343E+07 7.66028E+07 8.42596E+06 7.31941E+07-1.06336E+08-2.19687E+07
 -1       145 3.81359E+07 1.63587E+07 2.88869E+07 9.61953E+07-1.23705E+07-2.02575E+07
 -1       146 6.75800E+06-2.30368E+03-5.05581E+06 8.01313E+07 1.93501E+06-6.39195E+06
 -1       147 5.27125E+05-5.33359E+04 5.56432E+06 8.02674E+07-1.59012E+06-7.49966E+06
 -1       148-3.36748E+07-1.73068E+07-2.57641E+07 9.21558E+07 1.91080E+07-1.51382E+07
 -1       149-3.10132E+07-1.16123E+08 5.16194E+06 7.35154E+07 1.00990E+08-1.58217E+07
 -1       150-5.05997E+04 4.73188E+07-4.10632E+06 4.31652E+07-8.76450E+07-9.85130E+06
 -1       151 1.81713E+07 3.60523E+07 2.65308E+07 9.38449E+07-1.60250E+07-1.94513E+07
 -1       152 6.35417E+06 1.61414E+06-2.93728E+07 1.31236E+08 1.38856E+07 1.64550E+07
 -1       153 7.53972E+06 3.00314E+06-4.22175E+06 1.17666E+08 2.92537E+06 4.02597E+06
 -1       154 5.89077E+06 1.99178E+06 5.27141E+06 1.15068E+08-3.02781E+06-3.05047E+06
 -1       155 2.88629E+06-2.28835E+05 1.15610E+05 1.14126E+08 4.08211E+05-3.47928E+06
 -1       156-1.08165E+06-2.97326E+06-5.45805E+06 1.14802E+08 3.66264E+06-2.17184E+06
 -1       157-2.26589E+06-5.32178E+06 4.73147E+06 1.16081E+08-3.06702E+06 2.97033E+06
 -1       158-3.29514E+05-5.36733E+06 2.86025E+07 1.29178E+08-1.62376E+07 1.36485E+07
 -1       159-1.53697E+07-3.60561E+07-2.81352E+07 9.45804E+07 1.97118E+07-1.16983E+07
 -1       160-9.17939E+06-6.60159E+07-6.74086E+06 4.44867E+07 7.82405E+07-7.05481E+06
 -1       161-1.30203E+07-1.82520E+06-1.74303E+07 3.47958E+07-8.22030E+07 8.07875E+06
 -1       162 6.23773E+06 4.21221E+06-4.91416E+06 1.17492E+08 2.97464E+06 3.02823E+06
 -1       163 3.33316E+06 2.15514E+05-2.94443E+05 1.05516E+08-2.96135E+05 1.22601E+06
 -1       164 1.34104E+06-1.54245E+06 2.76587E+05 1.04958E+08 5.23590E+05 1.53926E+06
 -1       165-2.00764E+06-6.17182E+06 4.06604E+06 1.16106E+08-3.88134E+06 3.12885E+06
 -1       166 1.43295E+07 2.24827E+06 2.03930E+07 3.24347E+07 7.70400E+07 5.07074E+06
 -1       167 1.00378E+07 1.19106E+07 1.89661E+07 3.44441E+07-8.54614E+07-8.12529E+06
 -1       168 6.01850E+05 2.51166E+06-5.33288E+06 8.09330E+07-7.62729E+06 1.68291E+06
 -1       169 3.69948E+06 3.41377E+06 5.30752E+06 1.15792E+08-2.70434E+06-3.77974E+06
 -1       170 2.70811E+06 6.48684E+05-3.17924E+05 1.05610E+08 1.29692E+06-4.45343E+05
 -1       171 3.23855E+06 2.86500E+05 3.98737E+05 1.06173E+08-5.43392E+04-6.51367E+04
 -1       172 2.13559E+06-8.03310E+05-1.40131E+04 1.05430E+08 7.48574E+03 4.55894E+04
 -1       173 1.36158E+06-1.75382E+06-3.33913E+05 1.05684E+08 1.33996E+05 9.83040E+04
 -1       174 8.85626E+05-1.83100E+06 2.52131E+05 1.04665E+08-1.17279E+06-1.96955E+05
 -1       175-1.31891E+06-4.27819E+06-5.15419E+06 1.13762E+08 2.98261E+06-2.62008E+06
 -1       176 3.87731E+05-5.02848E+06 5.05594E+06 7.91655E+07 6.36240E+06 1.78887E+06
 -1       177-1.07769E+07-1.51791E+07-2.19530E+07 3.36849E+07 8.50685E+07-4.36245E+06
 -1       178-1.28326E+04 1.32504E+05 1.30250E+04 3.63546E+07-8.62402E+07-5.88216E+05
 -1       179 1.21705E+06 1.93145E+05 1.21541E+05 1.14531E+08-3.40100E+06-4.89320E+05
 -1       180 2.08635E+06-2.54240E+05 3.56373E+04 1.05493E+08-1.46856E+04 5.30552E+04
 -1       181 1.85073E+06-7.52180E+05 1.77617E+04 1.05079E+08 1.19854E+05 2.01042E+05
 -1       182 6.58425E+05-1.29902E+06-1.24858E+05 1.12968E+08 3.58359E+06 4.05150E+05
 -1       183-3.57608E+05-1.80012E+06-7.66069E+05 3.58877E+07 8.50354E+07 4.36117E+05
 -1       184-9.91006E+06-1.12648E+07-1.90456E+07 3.43794E+07-8.53950E+07 5.89001E+06
 -1       185 5.68921E+05-1.83674E+06 5.05702E+06 8.02248E+07-7.47514E+06-1.77742E+06
 -1       186-1.15449E+06-2.86279E+06-5.12936E+06 1.14828E+08-2.68993E+06 3.02543E+06
 -1       187 8.01539E+05-7.37723E+05 2.87236E+05 1.05131E+08 1.14788E+06 4.81520E+05
 -1       188 1.03193E+06-8.25277E+05-2.87160E+05 1.05821E+08-1.67704E+05 9.41232E+04
 -1       189 1.69438E+06-3.80261E+05-5.77405E+03 1.05134E+08-3.56846E+04 1.83356E+05
 -1       190 2.31444E+06 1.03492E+05 2.93882E+05 1.05465E+08 8.78098E+04 3.35722E+05
 -1       191 1.86887E+06 6.06130E+04-2.03266E+05 1.04454E+08-1.31594E+06 5.37236E+05
 -1       192 3.05666E+06 2.39092E+06 5.26922E+06 1.13743E+08 2.34659E+06 3.37682E+06
 -1       193 1.23246E+05 1.48202E+06-5.35862E+06 7.93977E+07 7.33158E+06-1.39996E+06
 -1       194 9.83865E+06 1.07686E+07 1.94821E+07 3.39517E+07 8.35508E+07 5.97652E+06
 -1       195 1.23897E+07 2.59317E+06 1.72708E+07 3.37537E+07-7.97747E+07-6.39096E+06
 -1       196-2.66519E+06-3.92266E+06 4.27630E+06 1.16089E+08 2.93030E+06-2.91025E+06
 -1       197 8.13578E+05-7.01455E+05 2.31800E+05 1.04757E+08-3.81279E+05-1.20234E+06
 -1       198 2.23706E+06 2.76507E+05-2.14074E+05 1.04514E+08 3.99699E+05-1.01071E+06
 -1       199 4.41568E+06 3.64240E+06-4.35111E+06 1.15447E+08-3.00606E+06-2.56619E+06
 -1       200-1.25031E+07-2.62760E+06-1.70599E+07 3.35634E+07 7.91391E+07-6.53561E+06
 -1       201-4.07619E+06-5.18035E+07-5.52160E+05 4.33542E+07-8.20845E+07 7.38179E+06
 -1       202-1.53105E+07-3.30906E+07-2.56350E+07 9.29534E+07-1.62960E+07 1.45748E+07
 -1       203-1.95633E+06-2.13182E+06 2.72884E+07 1.28612E+08 1.33125E+07-1.38274E+07
 -1       204-3.15056E+06-3.26136E+06 4.20376E+06 1.15727E+08 2.74958E+06-3.07807E+06
 -1       205-1.57991E+06-2.16056E+06-5.05463E+06 1.13969E+08-3.01665E+06 2.64175E+06
 -1       206 1.48232E+06-8.58523E+04 3.42707E+04 1.13147E+08-5.14906E+04 3.56093E+06
 -1       207 4.50678E+06 2.03134E+06 5.09745E+06 1.13851E+08 2.90399E+06 2.83839E+06
 -1       208 5.51513E+06 3.12473E+06-4.23427E+06 1.15603E+08-2.80384E+06-3.06658E+06
 -1       209 3.65626E+06 2.04360E+06-2.75772E+07 1.28462E+08-1.33336E+07-1.36735E+07
 -1       210 1.62533E+07 3.36692E+07 2.58722E+07 9.27321E+07 1.60245E+07 1.51002E+07
 -1       211 3.41122E+06 5.12001E+07-2.58277E+05 4.31745E+07 8.23794E+07 7.98768E+06
 -1       212-3.06735E+07-8.69527E+07-2.49872E+06 6.94722E+07-1.01322E+08 1.79539E+07
 -1       213-3.27987E+07-1.54582E+07-2.59537E+07 9.31243E+07-1.37627E+07 1.65465E+07
 -1       214-1.16872E+06 1.57219E+05 5.13000E+06 7.94839E+07 1.51836E+06 7.21926E+06
 -1       215 4.13361E+06-1.83656E+05-5.09324E+06 7.94171E+07-1.53273E+06 7.27780E+06
 -1       216 3.46741E+07 1.55785E+07 2.62990E+07 9.32872E+07 1.35133E+07 1.72404E+07
 -1       217 3.10020E+07 8.55986E+07 3.10913E+06 6.97831E+07 1.01917E+08 1.87253E+07
 -1       218-1.73178E+08-1.67658E+08-2.18258E+08 8.34091E+07-2.68686E+08 2.75283E+08
 -1       219-9.14182E+07-3.02273E+07-9.64972E+05 6.96822E+07-1.74732E+07 1.00837E+08
 -1       220-5.35060E+07-5.01054E+06-1.66586E+06 4.34719E+07-7.37730E+06 8.09189E+07
 -1       221 3.42473E+06 1.26752E+07 1.76450E+07 3.33244E+07 6.03981E+06 7.86985E+07
 -1       222-1.04983E+07-9.79670E+06-1.94666E+07 3.39572E+07-5.46600E+06 8.43179E+07
 -1       223 1.46568E+06 4.90500E+04 8.69154E+04 3.59378E+07-2.69927E+04 8.52334E+07
 -1       224 1.35091E+07 9.96633E+06 1.97512E+07 3.39290E+07 5.33005E+06 8.46232E+07
 -1       225-1.32688E+06-1.28913E+07-1.79829E+07 3.32609E+07-5.92393E+06 7.87047E+07
 -1       226 5.64687E+07 5.51522E+06 2.26071E+06 4.37473E+07 7.31200E+06 8.11348E+07
 -1       227 9.49152E+07 3.03961E+07 3.09558E+05 7.03055E+07 1.75164E+07 1.01491E+08
 -1       228 1.77008E+08 1.66575E+08 2.20338E+08 8.41713E+07 2.68089E+08 2.80785E+08
 -1       229 5.86541E+08 4.95769E+08 4.68458E+08 2.42134E+08-4.60980E+08-5.56145E+08
 -1       230 1.66880E+07-2.26446E+07 1.35672E+07 4.95311E+06-1.00124E+06-9.47190E+07
 -1       231 1.77399E+07 2.75019E+07 3.77415E+07 2.22726E+07-1.60766E+07-1.14877E+08
 -1       232-1.41271E+07-2.93457E+07-3.29445E+07 1.95583E+07 2.03635E+07-1.10285E+08
 -1       233-1.03197E+06 3.98197E+07 4.58243E+06 4.25330E+06 3.89169E+06-1.01759E+08
 -1       234-4.78620E+08-5.72729E+08-4.55193E+08 2.35072E+08 5.42952E+08-4.44113E+08
 -1       235-4.03830E+07 2.42498E+06-3.71738E+06 4.12233E+06-1.03658E+08-4.07560E+06
 -1       236 1.94298E+07 1.20103E+07-4.64760E+07 9.97431E+07 1.88667E+07 2.49141E+07
 -1       237 3.31152E+06-4.48546E+05 9.19312E+06 7.71637E+07-2.77020E+06-5.55612E+06
 -1       238-5.07027E+05 5.83338E+04-9.85267E+06 7.74086E+07 3.76417E+06-3.77929E+06
 -1       239-1.06229E+07-1.84025E+07 4.53069E+07 9.80112E+07-2.45350E+07 1.83507E+07
 -1       240 2.11567E+07-1.62094E+07-1.37479E+07 5.12083E+06 9.25965E+07-7.82734E+05
 -1       241 2.99136E+07 1.62799E+07 3.32318E+07 1.99382E+07-1.12734E+08-2.10563E+07
 -1       242 2.23689E+05 2.07954E+06 9.51008E+06 7.79799E+07-4.60356E+06-3.97661E+06
 -1       243 1.82913E+06-1.87146E+05 2.41168E+05 7.16547E+07 1.15414E+05 1.59222E+05
 -1       244 1.31227E+06-7.99602E+05-1.45515E+05 7.13450E+07-4.12400E+04 2.86571E+05
 -1       245 6.34452E+05-2.27741E+06-8.99859E+06 7.62807E+07 5.39157E+06-2.19064E+06
 -1       246-2.61617E+07-1.59795E+07-3.69218E+07 2.19896E+07 1.13068E+08-1.50572E+07
 -1       247-2.71035E+07-1.46180E+07-3.28687E+07 2.10484E+07-1.12220E+08 1.69681E+07
 -1       248 1.15182E+06-1.61249E+06-9.03384E+06 7.72906E+07-4.82574E+06 3.03514E+06
 -1       249 1.03840E+06-1.96051E+05-1.29525E+05 7.14580E+07 4.15165E+04-1.33900E+05
 -1       250 1.17423E+06-3.11213E+05 7.49435E+04 7.12251E+07-1.04251E+05 2.11684E+05
 -1       251 4.94321E+05 1.33392E+06 9.36749E+06 7.65918E+07 4.18930E+06 3.27357E+06
 -1       252 2.64123E+07 1.39541E+07 3.32080E+07 2.03806E+07 1.09860E+08 1.71960E+07
 -1       253 2.86488E+07-9.23202E+06-3.14176E+06 6.34927E+06-9.76373E+07 1.87692E+06
 -1       254-1.28264E+07-1.23998E+07 4.31447E+07 9.68076E+07 1.89531E+07-1.99172E+07
 -1       255-7.44199E+05 9.87229E+04-8.92496E+06 7.66469E+07-2.85055E+06 4.73005E+06
 -1       256 2.70055E+06-1.87547E+05 8.93392E+06 7.65395E+07 2.69280E+06 4.99791E+06
 -1       257 1.41813E+07 1.22078E+07-4.36053E+07 9.67780E+07-1.88227E+07-1.98636E+07
 -1       258-2.97243E+07 8.62758E+06 1.93776E+06 6.19228E+06 9.79838E+07 2.62744E+06
 -1       259-4.96570E+08-4.86216E+08-4.37701E+08 2.17893E+08-4.58457E+08 4.69207E+08
 -1       260-1.04527E+07 2.64496E+07-5.00648E+06 6.43483E+06-1.96869E+06 9.62431E+07
 -1       261-1.34125E+07-2.57532E+07-3.32905E+07 2.09545E+07-1.61901E+07 1.11063E+08
 -1       262 1.53711E+07 2.58282E+07 3.37018E+07 2.10831E+07 1.60329E+07 1.11568E+08
 -1       263 1.22909E+07-2.57647E+07 6.00650E+06 6.39702E+06 1.80594E+06 9.64477E+07
 -1       264 5.05215E+08 4.85713E+08 4.41775E+08 2.19725E+08 4.57591E+08 4.78250E+08
 -1       265 8.49698E+08 2.18494E+09 8.49699E+08-3.08368E+06 4.21306E+08-3.46037E+02
 -1       266 6.82951E+08 1.75616E+09 6.82952E+08-1.73419E+07 2.88216E+08 1.69602E+02
 -1       267 5.33206E+08 1.37110E+09 5.33207E+08-2.67505E+07 2.45835E+08-7.96872E+01
 -1       268 4.16430E+08 1.07082E+09 4.16431E+08-1.78237E+07 1.16973E+08 3.55499E+02
 -1       269 3.13241E+08 8.05476E+08 3.13241E+08-1.07144E+07 8.32490E+07-1.66700E+02
 -1       270 2.12167E+08 5.45573E+08 2.12167E+08-1.04900E+07 4.98819E+07 1.22954E+02
 -1       271 1.03609E+08 2.66424E+08 1.03609E+08-1.65804E+07-4.24750E+07-3.01546E+01
 -1       272-7.60577E+06-1.95577E+07-7.60577E+06-2.12397E+07-4.17656E+06 4.24431E+02
 -1       273-1.18057E+08-3.03574E+08-1.18057E+08-1.59720E+07 3.39537E+07-9.85423E+01
 -1       274-2.32954E+08-5.99024E+08-2.32954E+08-1.29238E+07-6.46404E+07 2.91846E+02
 -1       275-3.41790E+08-8.78887E+08-3.41790E+08-1.54327E+07-1.14362E+08-2.05175E+02
 -1       276-4.45097E+08-1.14454E+09-4.45098E+08-1.54096E+07-1.60293E+08 1.95406E+02
 -1       277-5.55815E+08-1.42924E+09-5.55815E+08-2.24484E+07-2.58336E+08-4.21537E+01
 -1       278-6.96158E+08-1.79012E+09-6.96159E+08-1.54483E+07-2.98930E+08 1.70224E+02
 -1       279-8.43660E+08-2.16941E+09-8.43661E+08 1.63511E+06-4.17504E+08-2.48113E+02
 -1       280 5.85812E+08 1.63779E+09 4.76258E+08-2.44856E+08-2.57921E+07-8.17439E+07
 -1       281 3.93170E+08 1.05040E+09 2.57358E+08-1.79907E+08-2.34085E+07 3.03583E+07
 -1       282 2.36782E+08 6.53829E+08 1.52192E+08-1.21432E+08-5.49388E+06 3.54359E+07
 -1       283 5.72380E+07 2.85460E+08 2.81679E+07-1.69173E+08 6.26493E+06 1.36060E+07
 -1       284-7.15845E+07-3.12458E+08-3.77025E+07-1.69645E+08-7.55529E+06 1.05526E+07
 -1       285-2.40395E+08-6.85343E+08-1.71901E+08-1.30880E+08 1.43444E+07 3.68546E+07
 -1       286-4.16269E+08-1.08482E+09-2.88140E+08-1.70319E+08 2.57238E+07 3.28969E+07
 -1       287-5.61516E+08-1.61741E+09-4.71994E+08-2.16761E+08 1.22112E+07-9.10304E+07
 -1       288 4.52186E+07 1.74935E+08-2.31059E+08-4.61759E+08 4.30862E+08-5.80754E+06
 -1       289 7.89585E+07 1.92795E+08-2.17103E+08-3.89645E+08 2.78585E+08 9.54533E+06
 -1       290 8.68275E+07 1.71774E+08-2.21277E+08-3.06905E+08 1.48459E+08-1.52739E+07
 -1       291 1.11331E+08 2.49598E+08-1.42962E+08-2.55311E+08 1.31444E+08-3.95723E+06
 -1       292 6.83868E+07 2.72303E+08-9.89652E+07-2.11327E+08 5.26938E+07 7.53453E+06
 -1       293 2.92944E+06 3.17201E+08-7.53301E+07-2.20434E+08 3.00121E+07-5.16507E+06
 -1       294 1.26786E+07 3.66504E+08-2.94039E+07-2.76436E+08 1.66375E+07-1.61698E+07
 -1       295-2.29927E+06-7.38168E+06-6.68626E+05-3.67379E+08-3.36870E+06-1.11585E+08
 -1       296-1.27862E+07-3.35573E+08 4.21185E+07-2.83931E+08-5.40106E+06-2.08745E+07
 -1       297-2.58924E+06-2.69560E+08 8.09337E+07-2.26783E+08-6.11263E+07 5.15737E+06
 -1       298-2.22606E+07-2.01943E+08 1.11835E+08-2.13332E+08-1.18827E+08 1.36371E+07
 -1       299-4.93315E+07-1.53249E+08 1.62750E+08-2.54254E+08-1.39090E+08-2.15469E+07
 -1       300-8.73799E+07-1.37365E+08 2.01404E+08-2.98191E+08-1.95426E+08-2.99272E+06
 -1       301-5.73330E+07-1.60912E+08 2.09163E+08-3.58611E+08-2.85418E+08 2.40167E+07
 -1       302 4.40201E+06-1.50856E+08 2.35204E+08-4.12000E+08-4.25503E+08-3.00060E+07
 -1       303-2.22169E+08-1.12712E+09-2.63786E+08-2.33296E+08 4.55992E+07-2.72063E+07
 -1       304 7.31572E+07-3.75576E+08-6.40476E+07-1.24221E+08 1.58195E+07-1.79467E+07
 -1       305 3.94112E+07 8.63502E+07-5.51463E+07-1.02745E+08 1.07959E+07 8.41735E+06
 -1       306 6.06258E+07 3.72465E+08 3.04190E+07-9.49145E+07-2.49143E+07-6.35420E+06
 -1       307-2.85777E+07-3.11505E+08-6.45083E+06-7.12728E+07-1.77579E+06-3.39455E+06
 -1       308 2.01523E+06 1.31107E+08 4.53137E+07-6.36431E+07 2.92073E+07-1.10334E+07
 -1       309 2.89160E+07 4.83422E+08 9.44220E+07-1.80193E+08 1.46002E+07-2.80338E+07
 -1       310 2.27356E+08 1.12160E+09 2.55182E+08-2.26619E+08-1.55485E+07 2.34967E+07
 -1       311-1.11255E+08-1.24887E+08-7.05494E+07 7.69619E+08-1.62278E+08-1.22831E+08
 -1       312-2.72275E+08-5.37826E+08 3.13230E+07 6.06700E+08 1.25626E+08-2.11158E+08
 -1       313-1.72595E+08-1.13938E+09 1.53380E+08 2.75974E+08 5.52259E+07-7.28432E+07
 -1       314 8.95418E+07-9.82078E+08 1.77929E+08 8.63947E+07 7.96600E+07 1.71921E+07
 -1       315 1.39483E+08-7.29317E+08 1.69792E+08 4.29763E+07 6.56949E+07-2.96117E+07
 -1       316 1.10929E+08-9.43169E+07 1.78944E+08 9.19048E+07-1.21364E+07 1.22057E+06
 -1       317 3.71668E+07 1.04919E+08 5.34237E+07 9.73424E+06 4.01348E+07 3.42739E+07
 -1       318-5.17431E+06 1.36041E+08 2.04034E+07-1.67468E+07 7.28503E+07-1.39467E+07
 -1       319 1.28122E+07 2.18578E+08 1.86715E+07-2.07049E+07 8.02887E+07 3.06964E+07
 -1       320-3.89447E+07-2.47277E+08-4.22571E+07 8.34876E+07-5.91237E+07 1.80216E+07
 -1       321 2.62535E+07 1.78894E+06-5.24724E+07 8.42657E+07-6.34296E+07 2.37549E+07
 -1       322-4.96488E+07 3.82126E+08-6.54399E+07 6.93968E+07-1.88701E+06-8.54509E+05
 -1       323-4.18671E+07 5.92236E+08-1.06363E+08 1.61419E+07-6.20375E+07 2.60292E+07
 -1       324 3.55106E+07 7.69705E+08-1.36938E+08-2.31450E+07-9.88855E+07-3.38263E+06
 -1       325 1.15073E+07 9.62561E+08-1.69090E+08 5.91434E+07-7.68864E+07-1.38540E+07
 -1       326 1.53091E+08 1.17693E+09-1.48855E+08 2.41030E+08-5.23747E+07-1.87942E+07
 -1       327 2.50452E+08 5.65661E+08-3.04161E+07 5.98402E+08-1.14302E+08-2.05757E+08
 -1       328 1.24031E+08 1.16633E+08 7.07888E+07 7.52110E+08 1.17466E+08-1.58041E+08
 -1       329-5.70744E+08-2.57005E+08 3.05939E+07 6.07443E+08-2.10379E+08 1.14136E+08
 -1       330-4.58131E+08-9.95373E+08 7.35347E+06 1.34898E+08-5.63762E+07-2.08394E+07
 -1       331-4.95839E+08-1.49521E+09-2.35804E+08-2.30450E+08-7.95366E+07 3.51752E+07
 -1       332 1.23549E+07 5.60661E+08 4.44694E+07 2.03394E+08-1.31669E+08 6.98870E+07
 -1       333 1.32489E+08 1.18572E+09 8.00080E+07 4.88904E+07 3.31471E+06 6.12110E+06
 -1       334 4.47131E+08 9.93908E+08-7.16996E+06 1.31037E+08 3.84001E+06-5.72641E+07
 -1       335 5.22265E+08 2.77959E+08-3.00045E+07 5.92837E+08 2.07488E+08 1.21430E+08
 -1       336 2.20702E+09 8.58285E+08 8.58286E+08 1.61110E+06-2.54549E+02 4.24849E+08
 -1       337 1.64538E+09 5.71176E+08 4.79954E+08-2.20985E+08-9.24939E+07-1.21061E+07
 -1       338 1.55158E+08-3.83947E+06-2.38992E+08-4.19651E+08-3.03484E+07 4.32500E+08
 -1       339-1.13688E+09-2.31823E+08-2.59338E+08-2.31846E+08 2.35011E+07 1.60974E+07
 -1       340-1.19147E+09-1.58385E+08 1.51199E+08 2.41185E+08-1.83219E+07 5.41500E+07
 -1       341-1.00576E+09-4.58441E+08 8.57001E+06 1.25931E+08-5.93102E+07-5.00221E+06
 -1       342-5.40811E+08-5.41001E+08 5.02983E+06-8.45702E+07-2.59547E+06 2.02410E+07
 -1       343-3.87472E+08-7.11395E+08 5.02516E+05-2.68773E+08-2.68883E+08-1.12198E+08
 -1       344-5.16368E+08-7.16599E+08-3.67980E+07-3.74886E+08-1.48577E+08-1.59479E+08
 -1       345-1.56417E+08 2.65535E+08-4.28641E+07 4.33704E+08 5.23528E+07 1.20588E+08
 -1       346-2.73349E+08 6.37618E+08-4.26049E+07 3.98140E+08 1.68376E+08 9.44738E+07
 -1       347-7.44369E+07 1.03336E+09 5.27162E+07-4.44321E+07 1.48165E+08-8.59138E+07
 -1       348 1.15783E+08 8.10258E+08 1.36917E+06-1.69203E+08 2.46631E+08-2.43906E+07
 -1       349 5.26562E+08 5.34822E+08-2.87521E+06-7.32028E+07-1.85930E+07-2.50141E+06
 -1       350 9.61154E+08 4.55765E+08-9.06301E+06 1.38187E+08 2.01569E+07-5.44268E+07
 -1       351 1.10842E+09 1.84295E+08-1.49579E+08 2.73500E+08 6.39517E+07 5.29123E+07
 -1       352 1.11584E+09 2.43021E+08 2.68091E+08-2.35810E+08 2.71421E+07 4.47615E+07
 -1       353-1.58491E+08-2.47821E+07 2.35444E+08-4.67015E+08 1.38484E+06 4.29626E+08
 -1       354-1.59935E+09-5.71386E+08-4.64427E+08-2.48210E+08 6.74936E+07-2.36611E+07
 -1       355-2.13738E+09-8.31204E+08-8.31204E+08-5.08507E+06 2.61328E+02 4.10304E+08
 -1       356 1.82025E+09 7.07874E+08 7.07875E+08-1.58001E+07 1.74837E+02 3.03965E+08
 -1       357 1.64589E+08 5.84597E+07-2.12722E+08-3.65839E+08 2.43017E+07 2.89839E+08
 -1       358-9.76800E+08-1.28655E+07 1.71590E+08 5.66582E+07-1.36223E+07 7.78313E+07
 -1       359-8.23162E+08-1.15704E+08-3.84047E+05-1.81064E+08-2.63755E+07-2.50925E+08
 -1       360 6.02912E+08 7.85179E+08 2.71114E+08 2.20331E+08-6.83874E+07-1.49978E+08
 -1       361-5.42088E+08-5.51271E+08-1.51025E+08 1.33028E+08 7.46255E+07-3.47291E+07
 -1       362 6.90737E+08 3.79613E+08-1.61879E+06-2.48308E+08 1.10326E+08-2.58378E+08
 -1       363 9.43085E+08-7.27539E+07-1.73257E+08 9.39214E+07-1.19777E+07 7.58732E+07
 -1       364-1.80875E+08-5.51902E+07 2.05372E+08-4.07242E+08-7.96414E+06 2.66581E+08
 -1       365-1.69627E+09-6.59661E+08-6.59661E+08-1.76546E+07-9.14395E+01 2.79552E+08
 -1       366 1.45182E+09 5.64596E+08 5.64596E+08-2.29962E+07-4.31198E+01 2.62230E+08
 -1       367 1.10212E+09 4.23091E+08 2.92565E+08-1.74020E+08 3.34915E+07-2.61007E+07
 -1       368 1.39920E+08 8.93028E+07-2.04806E+08-3.04696E+08-3.23947E+06 1.98412E+08
 -1       369-4.90214E+08-2.79296E+07-9.54572E+07-1.85757E+08-2.89666E+07-1.48780E+07
 -1       370-7.81867E+08-3.45278E+07 1.39644E+08-2.75718E+07-5.00313E+06 1.01226E+08
 -1       371-1.20593E+09-1.32572E+08-8.21323E+07 4.49298E+07 6.27319E+06-4.17950E+06
 -1       372-1.05079E+09 7.90801E+07-5.50183E+07-5.09168E+07-8.97587E+07-1.51006E+08
 -1       373 5.66073E+08 5.66621E+08 1.53916E+08 1.35992E+08-3.41317E+07-7.61119E+07
 -1       374 1.19396E+09 1.01663E+09 2.91009E+08 5.67263E+08-4.29785E+08-5.29471E+08
 -1       375 2.75973E+08 1.43607E+08-4.11281E+07 1.35271E+08-1.25107E+07-8.57602E+07
 -1       376-1.57398E+07-4.18764E+07 5.99093E+07-3.43062E+07 1.75147E+07-1.18853E+08
 -1       377-1.94756E+07-3.48753E+07-4.68315E+06-7.52768E+06-1.81554E+06-1.22188E+08
 -1       378-7.31755E+06 2.11652E+07-7.63106E+06 1.14834E+07-1.89620E+06-1.14702E+08
 -1       379 2.91712E+06-1.43158E+06 4.69240E+05 2.14750E+07-1.45049E+05-1.22318E+08
 -1       380 3.12575E+06-2.89450E+07 6.26022E+06 5.77173E+06 9.43278E+04-1.17468E+08
 -1       381 1.79233E+07 4.26458E+07 2.28804E+06-2.66415E+06 3.51344E+06-1.20501E+08
 -1       382 1.73142E+07 6.12080E+07-5.07659E+07-3.20461E+07-1.84628E+07-1.20473E+08
 -1       383-1.93454E+08-1.53348E+08 3.85813E+07 1.35418E+08 2.01440E+07-1.14584E+08
 -1       384-9.76514E+08-1.16506E+09-2.82442E+08 5.51436E+08 5.16729E+08-4.14590E+08
 -1       385-7.42785E+08-5.84471E+08-2.59910E+08 2.23708E+08 1.48901E+08-6.41685E+07
 -1       386 6.99677E+08 5.05314E+08 3.48272E+07-3.45920E+08 1.57294E+08-1.37775E+08
 -1       387 1.44412E+09 4.93053E+08 2.29944E+08-2.06859E+08-3.52330E+07-7.38292E+07
 -1       388 6.67665E+08-1.29984E+08-1.71810E+08 6.35791E+07 1.80632E+07 5.69104E+07
 -1       389 3.32225E+08-4.28844E+07 4.79251E+07-1.24164E+08 2.47068E+07 2.52406E+07
 -1       390-1.63386E+08-5.17664E+07 1.95938E+08-3.42881E+08 6.46867E+06 1.40694E+08
 -1       391-9.87295E+08-3.59782E+08-2.49092E+08-2.03731E+08-3.71950E+07-3.13095E+07
 -1       392-1.28986E+09-5.01613E+08-5.01613E+08-2.71539E+07 1.34305E+02 2.14815E+08
 -1       393 1.16118E+09 4.51571E+08 4.51571E+08-1.55595E+07 1.99232E+02 1.62264E+08
 -1       394 1.55595E+08 5.13758E+07-1.65303E+08-2.59096E+08-2.17096E+07 1.41355E+08
 -1       395-6.02379E+08 4.62347E+07 1.08160E+08 1.31853E+07 2.68874E+07 6.31602E+07
 -1       396-6.47386E+08 2.84683E+08 4.36619E+07 4.02064E+08 9.50075E+07-1.70886E+08
 -1       397 1.57295E+08 2.01798E+08-4.02951E+07 1.39227E+08-1.16460E+08-2.08038E+07
 -1       398-2.04762E+07 1.63193E+07 4.65481E+07 2.16963E+07 1.36723E+07 1.42496E+07
 -1       399 3.33251E+06 1.71188E+06-1.33629E+07 2.76024E+07-3.44705E+06-1.63835E+07
 -1       400-9.29614E+05-3.29151E+06 1.34396E+07 2.72368E+07 3.84581E+06-1.55513E+07
 -1       401 1.45547E+06-2.82843E+07-5.28854E+07 1.41497E+07-1.80648E+07 6.72763E+06
 -1       402-1.39166E+08-2.70387E+08 3.97442E+07 1.31258E+08 8.28094E+07-1.15052E+07
 -1       403 1.99663E+07-1.04689E+08-1.39950E+08 1.51524E+08-1.03989E+07 2.51295E+07
 -1       404-2.91749E+08-7.66810E+07 1.34257E+08-3.16552E+08 1.09672E+07 1.06668E+08
 -1       405-9.02510E+08-3.50976E+08-3.50977E+08-2.28455E+07-5.14071E+02 1.04543E+08
 -1       406 8.90773E+08 3.46412E+08 3.46412E+08-1.52726E+07-2.18546E+02 1.16902E+08
 -1       407 6.95293E+08 2.44407E+08 1.74356E+08-1.32743E+08 3.63645E+07-1.42372E+07
 -1       408 2.05261E+08 2.55353E+07-1.12897E+08-2.16649E+08 1.44120E+07 1.20084E+08
 -1       409-1.34924E+08 1.66108E+06-4.63110E+07-6.53480E+07-1.16005E+07-3.01576E+07
 -1       410-3.89809E+08 5.60573E+07 6.60753E+07 6.83362E+07-7.26413E+05 2.11042E+06
 -1       411-5.69671E+08-8.70947E+06-4.54952E+07 2.04576E+08 7.23546E+07 1.33071E+08
 -1       412-2.69218E+08 1.62668E+08 4.35437E+07 4.39792E+08 1.23936E+08-5.42740E+07
 -1       413-6.24909E+07-1.75543E+07 5.25279E+07-3.32722E+07-1.23167E+08 1.86618E+07
 -1       414 2.88374E+07-1.62657E+06 5.40797E+07 1.44232E+07 6.87180E+06 1.83978E+07
 -1       415 4.70531E+07 3.70359E+07-2.06388E+07 6.78668E+07-1.57746E+07-2.05452E+07
 -1       416-1.44963E+07-1.40494E+06-1.41442E+07 4.24476E+07-5.96069E+05-3.78212E+06
 -1       417-2.61198E+05-3.95819E+06 8.49114E+06 3.99032E+07 3.28840E+06 2.73583E+05
 -1       418 2.38232E+06 1.37060E+06 9.62048E+05 4.01019E+07 7.36671E+04-2.12104E+06
 -1       419 1.65454E+06 4.67640E+06-8.36841E+06 4.06725E+07-2.78497E+06-3.86809E+05
 -1       420 9.95125E+06-4.77869E+06 1.15105E+07 3.93561E+07 2.62780E+06-1.56594E+06
 -1       421-3.51967E+07-4.56309E+07 2.01220E+07 6.64820E+07 1.99279E+07-1.47068E+07
 -1       422-1.51527E+07 2.09913E+07-4.46489E+07 2.16707E+07-1.41577E+07 1.32096E+07
 -1       423 3.98174E+07 1.54981E+07-5.79395E+07-3.31374E+07 1.16213E+08 1.72426E+07
 -1       424-2.19457E+08-7.78133E+07 6.66977E+06 1.15880E+08-7.38633E+07 1.33068E+08
 -1       425-2.97146E+08-9.17223E+07 4.53978E+07-9.13079E+07-8.38228E+06 3.68659E+06
 -1       426-4.13898E+08-1.35750E+08 6.47543E+07-3.10749E+08 1.62781E+07 1.21851E+07
 -1       427-4.84009E+08-1.73400E+08-7.47470E+07-1.79386E+08-2.00831E+07-1.57312E+06
 -1       428-5.40044E+08-2.10017E+08-2.10017E+08-2.07651E+07 2.05303E+02 2.94585E+07
 -1       429 6.10246E+08 2.37318E+08 2.37318E+08-1.31296E+07 3.08878E+02 6.63844E+07
 -1       430 2.72234E+08 7.58096E+06-8.20799E+07-2.28289E+08 4.44699E+06 6.30966E+07
 -1       431-2.47947E+06-2.07984E+07 5.44513E+07 8.54992E+07 2.30087E+07 6.31084E+07
 -1       432-4.35786E+07-1.80364E+07-2.09214E+06-2.85988E+06-1.22471E+08-3.73240E+06
 -1       433 4.76746E+06-1.01206E+07-1.23233E+07 3.98084E+07-1.77402E+06-2.82483E+06
 -1       434 2.97345E+06 2.42159E+06 2.85742E+06 3.83265E+07 3.88668E+05 1.26570E+06
 -1       435-1.37461E+06-3.09777E+06-2.86730E+06 3.77883E+07-1.74416E+05 1.25919E+06
 -1       436 1.73015E+06 1.45992E+07 1.38478E+07 4.20373E+07 3.82257E+06-1.70989E+05
 -1       437 3.37499E+07 1.92346E+07 4.29208E+06-7.33244E+06 1.20279E+08-1.55151E+06
 -1       438-2.14180E+08-1.22049E+08 2.37616E+07-2.92868E+08 6.13161E+07 3.97857E+07
 -1       439-2.54843E+08-9.91053E+07-9.91056E+07-1.36555E+07-1.99298E+02-1.39079E+07
 -1       440 3.16051E+08 1.22909E+08 1.22909E+08-1.63619E+07-1.02264E+02-2.92088E+07
 -1       441 3.21040E+08 7.74195E+07 3.99009E+07-1.68114E+08 9.11699E+06 6.37857E+06
 -1       442 3.39230E+08 2.19599E+07-4.22026E+07-2.81865E+08-2.08618E+07 4.61157E+06
 -1       443 3.10550E+08 3.09689E+07 5.16347E+06-7.19876E+07-2.08525E+06 1.62386E+06
 -1       444 2.48731E+08 4.25961E+07 4.39840E+07 8.49364E+07 1.87770E+07 5.97702E+07
 -1       445 3.02655E+07-1.54425E+06-5.14188E+06 6.38249E+06-1.18880E+08-1.70665E+05
 -1       446 3.66728E+06 1.88753E+06-1.30136E+07 2.74809E+07-1.63374E+07-3.95748E+06
 -1       447-4.78847E+06-8.03626E+05 7.95686E+06 4.08493E+07-5.90376E+05 2.71324E+06
 -1       448 3.55563E+06 2.12561E+06 2.74253E+06 3.81188E+07 9.55120E+05 3.77279E+05
 -1       449-8.45371E+05-1.92380E+06-2.46262E+06 3.69816E+07 7.54967E+05 6.23705E+05
 -1       450 6.26790E+05-4.15997E+05-9.71095E+04 3.72980E+07 1.57827E+05 3.60158E+05
 -1       451 2.48413E+06 1.37860E+06 2.48206E+06 3.68561E+07-5.28567E+05 1.01252E+06
 -1       452-1.76643E+06-2.24432E+06-2.59969E+06 3.79625E+07-1.17110E+06 4.43310E+05
 -1       453 3.70830E+06 7.68191E+05-8.14848E+06 3.94332E+07-2.15349E+05 3.41402E+06
 -1       454-1.65648E+06-2.97831E+06 1.25303E+07 2.73764E+07 1.60806E+07-3.13076E+06
 -1       455-1.95974E+07 8.00459E+06 6.53319E+06 1.13138E+07 1.13233E+08-1.90639E+06
 -1       456-1.52548E+07-4.02926E+07 1.60261E+06-2.38359E+08 4.94944E+07-4.81693E+06
 -1       457-1.22249E+07-1.24670E+07 1.66415E+06-1.23253E+08-2.14605E+07-5.72716E+05
 -1       458-1.78703E+07-6.94946E+06-6.94961E+06-7.10999E+06-6.42389E+01 1.44922E+07
 -1       459 3.73779E+07 1.45358E+07 1.45359E+07-2.06550E+07 3.95978E+02-1.19270E+06
 -1       460 2.84798E+07 2.28101E+07-2.68300E+06-3.50764E+08-1.06171E+08 7.34907E+06
 -1       461 1.24143E+06-3.69995E+05-1.56873E+06 2.09740E+07-1.23490E+08-2.15254E+05
 -1       462-1.72377E+05-9.65517E+04 3.54913E+05 4.05470E+07-2.54507E+06-1.46903E+05
 -1       463 7.01721E+05-1.04419E+05-1.45353E+05 3.72884E+07 2.91463E+05-1.47604E+03
 -1       464 7.63990E+05-1.71074E+05 2.05751E+05 3.72051E+07-1.15910E+05 3.83480E+05
 -1       465-7.09745E+05-1.52118E+06-1.06812E+06 3.94982E+07 2.18852E+06 3.70122E+05
 -1       466 7.92377E+05-1.57580E+06 9.46554E+05 2.09558E+07 1.20556E+08 7.41604E+04
 -1       467 1.47637E+08 2.07722E+07-2.16145E+07-2.31197E+08 4.94418E+07-2.13134E+07
 -1       468 1.86397E+08 7.24876E+07 7.24877E+07-1.20357E+07-1.34331E+02 4.06705E+06
 -1       469-2.33259E+08-9.07117E+07-9.07116E+07-1.46282E+07-6.49172E+01 4.16315E+07
 -1       470-2.51745E+08-4.87752E+07-2.95220E+07-1.56041E+08 9.80013E+06-6.88902E+06
 -1       471-2.88828E+08 6.27416E+06 3.01323E+07-2.57771E+08-2.04771E+07-4.06974E+06
 -1       472-2.79278E+08-1.96765E+07-9.53316E+06-6.24307E+07-4.30214E+06-1.48954E+06
 -1       473-2.15645E+08-2.84229E+07-2.92387E+07 7.05404E+07 1.18327E+07-4.92195E+07
 -1       474-2.58562E+07 3.06925E+06 2.83832E+06 8.71733E+06-1.16857E+08 5.76168E+05
 -1       475-2.40515E+06-1.70625E+06 1.15137E+07 2.72362E+07-1.63262E+07 3.42800E+06
 -1       476 5.13099E+06 1.28488E+06-6.94392E+06 4.03728E+07-6.74187E+05-3.22943E+06
 -1       477-2.04670E+06-1.92859E+06-2.35455E+06 3.79847E+07 9.95828E+05-2.62520E+05
 -1       478 2.12811E+06 1.50797E+06 2.12673E+06 3.69537E+07 5.59545E+05-5.55782E+05
 -1       479 6.55800E+05-9.05901E+04 2.03784E+04 3.71993E+07-7.06015E+04-1.53248E+04
 -1       480-1.01015E+06-1.77352E+06-2.16801E+06 3.68422E+07-6.67672E+05-3.16977E+05
 -1       481 2.76229E+06 1.54894E+06 2.35401E+06 3.76500E+07-1.09668E+06 2.56007E+04
 -1       482-3.80745E+06-1.43179E+06 7.29561E+06 4.00582E+07 4.46838E+05-2.47118E+06
 -1       483 2.87979E+06 2.01668E+06-1.15313E+07 2.70959E+07 1.56330E+07 3.45216E+06
 -1       484 2.43386E+07-4.08967E+06-3.09474E+06 7.76848E+06 1.15394E+08 1.18382E+06
 -1       485 2.01412E+08 3.93814E+07 5.60907E+07 7.64016E+07-1.46991E+07-5.16724E+07
 -1       486 2.33651E+08 2.38474E+07-1.09134E+07-5.15510E+07-2.07543E+05-7.77006E+05
 -1       487 2.93678E+08 3.49224E+07-6.26862E+07-1.92368E+08 1.88337E+07-2.08514E+07
 -1       488 3.56265E+08 1.05452E+08 5.19339E+07-1.15199E+08-1.57097E+07 4.01875E+06
 -1       489 4.02578E+08 1.56558E+08 1.56558E+08-1.55125E+07 4.84190E+01-4.42661E+06
 -1       490-4.98589E+08-1.93896E+08-1.93896E+08-1.14354E+07 2.49654E+02-5.36326E+07
 -1       491-2.32303E+08 9.52743E+06 6.63905E+07-1.99111E+08 5.18456E+06-4.89197E+07
 -1       492-2.55795E+06 3.12137E+07-4.13760E+07 6.72619E+07 2.26768E+07-5.80591E+07
 -1       493 3.67341E+07 1.87263E+07 7.91754E+06-3.54679E+06-1.20761E+08 1.85375E+06
 -1       494-1.51894E+06 1.07188E+07 1.05561E+07 4.04684E+07-2.50043E+06 1.27892E+06
 -1       495-1.20029E+06-2.28050E+06-2.16359E+06 3.78453E+07 2.16231E+05-1.01166E+06
 -1       496 2.25803E+06 2.09914E+06 2.16021E+06 3.77525E+07-2.00353E+05-8.08547E+05
 -1       497 2.73852E+06-1.03779E+07-1.03930E+07 4.02543E+07 2.37044E+06 2.03188E+06
 -1       498-3.80780E+07-1.86011E+07-7.60966E+06-3.60732E+06 1.19835E+08 2.45788E+06
 -1       499-3.66495E+06-9.72688E+06 6.20142E+07 8.34213E+07-1.73009E+07-4.91290E+07
 -1       500 2.44329E+08 2.78936E+07-8.21274E+07-1.65295E+08 1.93020E+05-6.62818E+07
 -1       501 6.03279E+08 2.34609E+08 2.34609E+08-1.13786E+07-3.12453E+02-6.74344E+07
 -1       502-7.46233E+08-2.90202E+08-2.90202E+08-1.36853E+07-1.68231E+02-9.47009E+07
 -1       503-5.79885E+08-2.01001E+08-1.44504E+08-1.12527E+08 3.33859E+07 1.27736E+07
 -1       504-1.71933E+08-1.06163E+07 9.71740E+07-1.83360E+08 1.15886E+07-1.02080E+08
 -1       505 1.02064E+08 9.38885E+06 3.64008E+07-5.73613E+07-9.14003E+06 2.50531E+07
 -1       506 3.10224E+08-3.26107E+07-6.01677E+07 5.72859E+07-2.39235E+06-2.77075E+06
 -1       507 4.66126E+08 1.32742E+07 4.09060E+07 1.71766E+08 5.66176E+07-1.12567E+08
 -1       508 2.29850E+08-1.23707E+08-1.90330E+07 3.58698E+08 1.05920E+08 3.84690E+07
 -1       509 5.15446E+07 1.76166E+07-3.84611E+07-2.92584E+07-1.18101E+08-1.73928E+07
 -1       510-1.95814E+07 9.88956E+06-4.20884E+07 1.85529E+07 8.60707E+06-1.45876E+07
 -1       511-3.84716E+07-3.74546E+07 1.61276E+07 6.47488E+07-1.62581E+07 1.65920E+07
 -1       512 1.16005E+07-1.32002E+06 1.08638E+07 4.07278E+07-1.37910E+06 2.74148E+06
 -1       513 1.73271E+06 4.03241E+06-6.82246E+06 3.99440E+07 2.79291E+06 4.40508E+05
 -1       514 5.93269E+05 2.56235E+04 7.77661E+04 3.97154E+07-5.04744E+04 2.48947E+06
 -1       515-7.03569E+05-4.04448E+06 6.87591E+06 3.98486E+07-2.93052E+06 5.91663E+05
 -1       516-1.11271E+07 1.04190E+06-1.10939E+07 4.08242E+07 1.20114E+06 2.96130E+06
 -1       517 3.95977E+07 3.72815E+07-1.64095E+07 6.48282E+07 1.60495E+07 1.74584E+07
 -1       518 2.07215E+07-8.91381E+06 4.29425E+07 1.80354E+07-8.51967E+06-1.47445E+07
 -1       519-5.24112E+07-1.75179E+07 3.85772E+07-2.93633E+07 1.17971E+08-1.74036E+07
 -1       520-2.47017E+08 1.30459E+08 2.01836E+07 3.62197E+08-1.12111E+08 4.27600E+07
 -1       521-4.96085E+08-6.78703E+06-4.29646E+07 1.77686E+08-6.06930E+07-1.16295E+08
 -1       522-3.40498E+08 4.92386E+07 6.13068E+07 7.31108E+07-1.83494E+06-8.67708E+06
 -1       523-1.15459E+08 5.16054E+06-4.04565E+07-3.55763E+07 1.19431E+07 2.98051E+07
 -1       524 1.97366E+08 3.44304E+07-9.71022E+07-1.59724E+08-1.53112E+07-1.03620E+08
 -1       525 6.28121E+08 2.20277E+08 1.56549E+08-9.86751E+07-2.42133E+07 8.85566E+06
 -1       526 7.97546E+08 3.10157E+08 3.10157E+08-1.03976E+07 2.13371E+02-1.09142E+08
 -1       527-9.70975E+08-3.77601E+08-3.77602E+08-1.30417E+07 1.56071E+02-1.36802E+08
 -1       528-1.33571E+08-3.86733E+07 1.37515E+08-2.14396E+08-1.90652E+07-1.15821E+08
 -1       529 4.92747E+08-1.97488E+07-8.52552E+07 1.23019E+07 1.92954E+07-4.99973E+07
 -1       530 5.20894E+08-2.36761E+08-4.21410E+07 3.28098E+08 7.59322E+07 1.41231E+08
 -1       531-1.40934E+08-2.16526E+08 1.98907E+07 1.24360E+08-1.01212E+08 1.66361E+07
 -1       532 1.22375E+07-1.83094E+07-4.10674E+07 1.93631E+07 1.39330E+07-9.70643E+06
 -1       533-1.85041E+06-2.60628E+06 1.08615E+07 2.71918E+07-3.23125E+06 1.59795E+07
 -1       534 2.90194E+06 2.54942E+06-1.08864E+07 2.72048E+07 3.22972E+06 1.62333E+07
 -1       535-1.28176E+07 1.78149E+07 4.10516E+07 1.95963E+07-1.38357E+07-9.73478E+06
 -1       536 1.42777E+08 2.14427E+08-2.03265E+07 1.25543E+08 1.03037E+08 1.75983E+07
 -1       537-5.37220E+08 2.55138E+08 4.39385E+07 3.34369E+08-7.72437E+07 1.48193E+08
 -1       538-5.12827E+08 3.39818E+07 8.76263E+07 2.39027E+07-2.31990E+07-5.30782E+07
 -1       539 1.44990E+08 4.68891E+07-1.42062E+08-1.95502E+08 1.72222E+07-1.20809E+08
 -1       540 1.00657E+09 3.91445E+08 3.91445E+08-1.13318E+07-1.22053E+02-1.40840E+08
 -1       541-1.20822E+09-4.69863E+08-4.69864E+08-1.87054E+07-3.20903E+01-2.17596E+08
 -1       542-9.17005E+08-3.50278E+08-2.43240E+08-1.41782E+08 2.91492E+07 2.09912E+07
 -1       543-1.21643E+08-7.20108E+07 1.68975E+08-2.47957E+08-6.05985E+04-1.64402E+08
 -1       544 3.94550E+08 2.33956E+07 7.98786E+07-1.47787E+08-2.59643E+07 1.34745E+07
 -1       545 6.37856E+08 3.03870E+07-1.10382E+08-2.03623E+07-1.12310E+07-7.58659E+07
 -1       546 9.87603E+08 1.31649E+08 6.73241E+07 3.19749E+07 1.92821E+07-7.28938E+06
 -1       547 8.57922E+08 3.43425E+06 4.65365E+07-5.13915E+07-4.69442E+07 1.10421E+08
 -1       548-4.49499E+08-5.02157E+08-1.54072E+08 5.51284E+07-1.14008E+08 1.21667E+08
 -1       549-9.73686E+08-9.48074E+08-2.95081E+08 4.41516E+08-4.45659E+08 4.54916E+08
 -1       550-2.24763E+08-1.39371E+08 2.01955E+07 1.23836E+08-1.58183E+07 9.74767E+07
 -1       551 1.76175E+07 4.88114E+07-3.89814E+07-2.92664E+07 1.71588E+07 1.16971E+08
 -1       552 1.90428E+07 3.61958E+07 7.69874E+06-4.11373E+06-1.94155E+06 1.19963E+08
 -1       553 4.60163E+06-2.33407E+07 2.09690E+06 8.93666E+06-1.26513E+06 1.15264E+08
 -1       554 6.46435E+05-9.84638E+02 2.18773E+04 2.05070E+07-1.64246E+02 1.21126E+08
 -1       555-3.95202E+06 2.30800E+07-2.18288E+06 9.22624E+06 1.30944E+06 1.15308E+08
 -1       556-1.85846E+07-3.61051E+07-7.81315E+06-4.44960E+06 1.88860E+06 1.20337E+08
 -1       557-1.70277E+07-4.81220E+07 3.99049E+07-2.96361E+07-1.72245E+07 1.17639E+08
 -1       558 2.30511E+08 1.39853E+08-2.06558E+07 1.24681E+08 1.56929E+07 9.66528E+07
 -1       559 9.93431E+08 9.45366E+08 2.97246E+08 4.41984E+08 4.45560E+08 4.63432E+08
 -1       560 4.64928E+08 5.10202E+08 1.57540E+08 4.05500E+07 1.10111E+08 1.27340E+08
 -1       561-8.76531E+08 1.88120E+07-4.71387E+07-5.80792E+07 4.47707E+07 1.14572E+08
 -1       562-1.01224E+09-1.18909E+08-6.99384E+07 3.63704E+07-1.80909E+07-7.14082E+06
 -1       563-6.50770E+08-2.03898E+07 1.12622E+08-9.90981E+06 1.26052E+07-7.68393E+07
 -1       564-3.99058E+08-1.48006E+07-8.03931E+07-1.35257E+08 2.58775E+07 1.37705E+07
 -1       565 1.24758E+08 7.59567E+07-1.73372E+08-2.34490E+08 2.31943E+06-1.67040E+08
 -1       566 9.35824E+08 3.58764E+08 2.47699E+08-1.34710E+08-2.81419E+07 2.31563E+07
 -1       567 1.23300E+09 4.79499E+08 4.79499E+08-1.85114E+07 6.71307E+00-2.20012E+08
 -1       568-1.50812E+09-5.86492E+08-5.86492E+08-1.24463E+07 1.24485E+02-2.50141E+08
 -1       569-1.41158E+08-4.92238E+07 1.76671E+08-2.99804E+08 1.83098E+07-2.38945E+08
 -1       570 7.89699E+08 5.63555E+06-1.48413E+08 5.56064E+07-4.31839E+06-6.96852E+07
 -1       571 6.41219E+08 1.11928E+08 3.12301E+06-1.48729E+08-7.44596E+07 2.16475E+08
 -1       572-5.11480E+08-4.32612E+08-1.51859E+08 6.84070E+07-1.17042E+08 1.20402E+08
 -1       573 5.24615E+08 4.34189E+08 1.51912E+08 6.74933E+07 1.19040E+08 1.23230E+08
 -1       574-6.47120E+08-9.55055E+07-2.56776E+06-1.57680E+08 7.27899E+07 2.20666E+08
 -1       575-7.97669E+08 3.69679E+06 1.50075E+08 6.25974E+07 4.91842E+06-7.20377E+07
 -1       576 1.43026E+08 5.05846E+07-1.79021E+08-2.89215E+08-1.83634E+07-2.41049E+08
 -1       577 1.51867E+09 5.90596E+08 5.90596E+08-1.20503E+07-1.15904E+02-2.49794E+08
 -1       578-1.82295E+09-7.08926E+08-7.08927E+08 1.48615E+06-2.04085E+02-3.47604E+08
 -1       579-1.36231E+09-4.74536E+08-3.95939E+08-1.80548E+08-7.47885E+07 1.00736E+07
 -1       580-1.34207E+08-1.83050E+06 1.98667E+08-3.43379E+08-2.20535E+07-3.56990E+08
 -1       581 9.37924E+08 1.97512E+08 2.13939E+08-1.85890E+08 1.40025E+07-1.17067E+07
 -1       582 9.80627E+08 1.49893E+08-1.28178E+08 2.01249E+08-2.64789E+07-4.02255E+07
 -1       583 8.21664E+08 3.64908E+08-5.57484E+05 1.19199E+08-3.86733E+07 3.56269E+06
 -1       584 3.69415E+08 3.63718E+08-1.55957E+07-3.59029E+07-6.78995E+06 4.99998E+06
 -1       585 1.22371E+08 6.25767E+08 1.81559E+06-1.45714E+08-2.10884E+08 8.20296E+07
 -1       586 1.88207E+07 8.28117E+08 4.26900E+07-4.78612E+07-1.02913E+08 4.64955E+07
 -1       587-2.29773E+08 4.92107E+08-4.02558E+07 3.10691E+08-1.34418E+08-7.16392E+07
 -1       588-1.10696E+08 2.18018E+08-2.91551E+06 3.30706E+08-2.83393E+07-1.05597E+08
 -1       589 1.12555E+08-2.13724E+08 1.99274E+06 3.25936E+08 2.86354E+07-1.05246E+08
 -1       590 2.32369E+08-4.84441E+08 4.00344E+07 3.03975E+08 1.32116E+08-6.98609E+07
 -1       591-2.08280E+07-8.16500E+08-4.35432E+07-5.24671E+07 1.00441E+08 4.68489E+07
 -1       592-1.21492E+08-6.15304E+08-1.99243E+06-1.50992E+08 2.10252E+08 8.64592E+07
 -1       593-3.66821E+08-3.52274E+08 1.63658E+07-4.20094E+07 7.73137E+06 3.84766E+06
 -1       594-8.26727E+08-3.55784E+08-1.33471E+05 1.17805E+08 3.98893E+07 2.36988E+06
 -1       595-9.86483E+08-1.41280E+08 1.28454E+08 2.04501E+08 2.77829E+07-3.89730E+07
 -1       596-9.38808E+08-1.91874E+08-2.12922E+08-1.81260E+08-1.32676E+07-1.03665E+07
 -1       597 1.37567E+08 3.48329E+06-1.97397E+08-3.35870E+08 2.18382E+07-3.55029E+08
 -1       598 1.36463E+09 4.74769E+08 3.96587E+08-1.75208E+08 7.64572E+07 1.14381E+07
 -1       599 1.82215E+09 7.08614E+08 7.08615E+08 2.30661E+06 2.00353E+02-3.45462E+08
 -1       600 4.72428E+08 2.17357E+08-2.94277E+07 4.96488E+08-1.77179E+08-8.65636E+07
 -1       601 3.69297E+08 8.01678E+08-2.55299E+06 1.15247E+08-5.86395E+06 3.82764E+07
 -1       602 1.35391E+08 9.59012E+08 7.00748E+07 2.28624E+07 3.96156E+06-1.78870E+07
 -1       603-8.12539E+06 4.22158E+08 3.69251E+07 1.46652E+08 9.89126E+07-5.35018E+07
 -1       604 1.05726E+07-4.14666E+08-3.65940E+07 1.42740E+08-9.69851E+07-5.38244E+07
 -1       605-1.33659E+08-9.47165E+08-6.97050E+07 1.71891E+07-3.65886E+06-1.88365E+07
 -1       606-3.67593E+08-7.90061E+08 2.50692E+06 1.08993E+08 5.83763E+06 3.78451E+07
 -1       607-4.74067E+08-2.13273E+08 2.90933E+07 4.97281E+08 1.74910E+08-8.63758E+07
 -1       608 7.95916E+07 8.06515E+07 4.44555E+07 6.41926E+08-9.26956E+07 8.82709E+07
 -1       609 2.20685E+08 4.61255E+08-2.92525E+07 4.89358E+08 8.55268E+07 1.79385E+08
 -1       610 1.58527E+08 9.60632E+08-1.26615E+08 1.94831E+08 4.58417E+07 2.54229E+07
 -1       611 6.58330E+06 7.60245E+08-1.44410E+08 4.96735E+07 6.35304E+07 3.29799E+06
 -1       612 1.84152E+07 5.91169E+08-1.07579E+08-3.39251E+07 6.24256E+07 2.15352E+07
 -1       613-2.97175E+07 4.88854E+08-7.30946E+07-8.37924E+06 6.80626E+07-2.70618E+07
 -1       614-9.58088E+07 4.09476E+08-3.72156E+07 2.85450E+07 2.06679E+07 1.15894E+07
 -1       615 9.58315E+07-4.03343E+08 3.66817E+07 2.40923E+07-1.95434E+07 1.14926E+07
 -1       616 3.01582E+07-4.82927E+08 7.20887E+07-1.27668E+07-6.67705E+07-2.64288E+07
 -1       617-1.68310E+07-5.83948E+08 1.06725E+08-3.85912E+07-6.20831E+07 2.26674E+07
 -1       618-6.81863E+06-7.50726E+08 1.43154E+08 4.52849E+07-6.24100E+07 2.54727E+06
 -1       619-1.58891E+08-9.47836E+08 1.25705E+08 1.89279E+08-4.47963E+07 2.51411E+07
 -1       620-2.17338E+08-4.52620E+08 2.96410E+07 4.83439E+08-8.46413E+07 1.78790E+08
 -1       621-7.64223E+07-7.87081E+07-4.45658E+07 6.38921E+08 9.60972E+07 8.74479E+07
 -1       622 2.02159E+08 9.21532E+08 2.15375E+08-1.98052E+08 9.10840E+06-1.31157E+07
 -1       623 1.34234E+07 3.60618E+08 6.32443E+07-1.54627E+08 7.24150E+06 2.21562E+07
 -1       624-7.92914E+07 5.46082E+07 2.53184E+07-4.12029E+07-5.17401E+07 2.83187E+07
 -1       625 7.94442E+07-5.59196E+07-2.50712E+07-4.48102E+07 5.22427E+07 2.79928E+07
 -1       626-1.22212E+07-3.56236E+08-6.23274E+07-1.56859E+08-6.82400E+06 2.24322E+07
 -1       627-2.01022E+08-9.10946E+08-2.13478E+08-1.98670E+08-9.73276E+06-1.24532E+07
 -1       628 2.70465E+06-1.37808E+08 2.03633E+08-3.52136E+08 3.60653E+08 1.94714E+07
 -1       629-4.01299E+07-1.32984E+08 1.69904E+08-3.12423E+08 2.29413E+08-1.83801E+07
 -1       630-4.85261E+07-9.70285E+07 1.54534E+08-2.64995E+08 1.48590E+08 2.97419E+06
 -1       631-1.22468E+07-1.59156E+08 1.44402E+08-2.29175E+08 1.17179E+08 1.95998E+07
 -1       632-6.57356E+07-3.21478E+08 8.10822E+07-2.27509E+08 8.74579E+07 7.84563E+06
 -1       633-1.30491E+08-2.36076E+08 3.70390E+07-2.33688E+08 6.17205E+07 6.15826E+07
 -1       634-6.75054E+07-6.34878E+07 5.31757E+07-1.63019E+08 1.91404E+07 4.01918E+07
 -1       635-2.18203E+06-1.42537E+06 4.07074E+05-1.45531E+08 7.74054E+05 1.16653E+07
 -1       636 6.42010E+07 6.03916E+07-5.21335E+07-1.60230E+08-1.87207E+07 3.99657E+07
 -1       637 1.29759E+08 2.31008E+08-3.55454E+07-2.30147E+08-6.04636E+07 6.01163E+07
 -1       638 6.70444E+07 3.14608E+08-7.92385E+07-2.26421E+08-8.52916E+07 7.49659E+06
 -1       639 1.39282E+07 1.55934E+08-1.42120E+08-2.29453E+08-1.15583E+08 1.95701E+07
 -1       640 4.87535E+07 9.61160E+07-1.52698E+08-2.65427E+08-1.46679E+08 2.83140E+06
 -1       641 4.01041E+07 1.32223E+08-1.68301E+08-3.12284E+08-2.26987E+08-1.80703E+07
 -1       642-1.82864E+06 1.37527E+08-2.01848E+08-3.51239E+08-3.57732E+08 1.91807E+07
 -1       643-4.65242E+08-1.34081E+09-3.84963E+08-1.83517E+08-7.16979E+06 7.03289E+07
 -1       644-3.33516E+08-8.82465E+08-2.42831E+08-1.54686E+08-2.74616E+07-3.22954E+07
 -1       645-1.64599E+08-4.99239E+08-9.11237E+07-1.47296E+08-4.33246E+06-1.47447E+07
 -1       646-5.80225E+07-1.10165E+08-2.16563E+06-8.84550E+07-9.48394E+06-2.11273E+07
 -1       647 5.56378E+07 1.05815E+08 1.69695E+06-8.70753E+07 9.25958E+06-2.16856E+07
 -1       648 1.62246E+08 4.89017E+08 8.93033E+07-1.45895E+08 4.03650E+06-1.48132E+07
 -1       649 3.29548E+08 8.71586E+08 2.39687E+08-1.54869E+08 2.68312E+07-3.19387E+07
 -1       650 4.61770E+08 1.32991E+09 3.81749E+08-1.83456E+08 6.76758E+06 6.94733E+07
 -1       651-6.99111E+08-1.79771E+09-6.99111E+08 4.40796E+05 3.47629E+08 2.13331E+02
 -1       652-5.75129E+08-1.47890E+09-5.75129E+08-1.32801E+07 2.47467E+08-1.31890E+02
 -1       653-4.55624E+08-1.17160E+09-4.55624E+08-2.02159E+07 2.03692E+08 6.96458E+01
 -1       654-3.38457E+08-8.70317E+08-3.38457E+08-1.66247E+07 1.22771E+08-2.62456E+02
 -1       655-2.25926E+08-5.80952E+08-2.25926E+08-2.00512E+07 5.33277E+07 1.17082E+02
 -1       656-1.34503E+08-3.45865E+08-1.34503E+08-1.63936E+07 7.02515E+06-2.29669E+02
 -1       657-6.32133E+07-1.62548E+08-6.32133E+07-8.07657E+06 3.85139E+07-1.02773E+02
 -1       658-1.00279E+06-2.57861E+06-1.00279E+06-5.25419E+06-9.69287E+03 5.26917E+01
 -1       659 6.09064E+07 1.56616E+08 6.09065E+07-8.04123E+06-3.69171E+07-1.04682E+02
 -1       660 1.31124E+08 3.37177E+08 1.31124E+08-1.60307E+07-6.12686E+06-2.24911E+02
 -1       661 2.21213E+08 5.68833E+08 2.21213E+08-1.97385E+07-5.28939E+07 1.20956E+02
 -1       662 3.33145E+08 8.56658E+08 3.33145E+08-1.65542E+07-1.20459E+08-2.64420E+02
 -1       663 4.49876E+08 1.15682E+09 4.49876E+08-2.01867E+07-2.01350E+08 7.28884E+01
 -1       664 5.69623E+08 1.46474E+09 5.69623E+08-1.33269E+07-2.45367E+08-1.33952E+02
 -1       665 6.93681E+08 1.78375E+09 6.93681E+08 1.78258E+05-3.45580E+08 2.14726E+02
 -1       666 1.87941E-05 3.48389E-05 3.16845E-05 1.20848E-05 4.16384E+08-2.06343E+02
 -1       667 2.08206E-05 5.00269E-05 2.45210E-05-3.44589E-07 2.40894E+08 3.45565E+02
 -1       668 6.46315E-06 1.30478E-05 1.01093E-05-1.93715E-06 7.99772E+07 4.24223E+02
 -1       669-4.48822E-06-8.60542E-06-7.35826E-06-3.09013E-06-4.47583E+07 1.78599E+02
 -1       670-3.14531E-06-1.40015E-05 2.78233E-06-2.24449E-06 3.63055E+07 2.65135E+02
 -1       671 9.34210E-06 1.04234E-05 2.30300E-05-2.57045E-06-1.11424E+08 4.71498E+02
 -1       672 2.21711E-05 4.55678E-05 3.38666E-05-9.25362E-06-2.53889E+08 2.33931E+02
 -1       673 9.23127E-06 3.49134E-05-1.66334E-06-1.19545E-05-4.12860E+08-2.68407E+02
 -1       674 8.46572E-06 2.15769E-05-6.22896E-05 5.66011E-07 4.35256E+08-5.82491E+06
 -1       675 2.57276E-05 2.46773E-05 2.89691E-05 5.22006E-07 1.51286E+08-1.44458E+07
 -1       676-7.40532E-06 1.59743E-05-1.53254E-05-8.16304E-07 5.28108E+07 8.86655E+06
 -1       677-5.87040E-06 7.45058E-08 1.37013E-06 2.26482E-06 1.56182E+07-1.39641E+07
 -1       678-4.16736E-06-8.75133E-06 2.96297E-05-1.20948E-06-4.40531E+06-1.89363E+07
 -1       679 2.86684E-06 3.46168E-05 2.33083E-05-9.08854E-06-1.20165E+08 1.46875E+07
 -1       680 1.03205E-05 4.38001E-05 5.97991E-05-1.77120E-05-1.98485E+08-2.13706E+06
 -1       681-3.09413E-05 1.46776E-05-1.35958E-04-1.01286E-05-4.29901E+08-2.98064E+07
 -1       682 3.08007E-04 2.04995E-04 8.70891E-04-3.00994E-05-1.53291E+08-1.13986E+08
 -1       683 5.62506E-05-9.74039E-06-5.83443E-05 2.17966E-05 5.74047E+07-7.19821E+07
 -1       684-8.12492E-05-9.59017E-05-2.85441E-04 1.34093E-05 7.26080E+07-3.35033E+07
 -1       685-5.36696E-05-4.81885E-05-1.52890E-04 2.38454E-06 4.36406E+07 3.10642E+07
 -1       686-1.91294E-05 1.92747E-05 2.33110E-05-6.71297E-06 8.17973E+07 2.96897E+07
 -1       687 3.45204E-05 6.98119E-06 7.46017E-05-1.66586E-05-6.08400E+07 1.47125E+07
 -1       688 1.43889E-05 2.86077E-05-6.17141E-05 9.48769E-06-5.15174E+06-4.24641E+06
 -1       689 2.97301E-05 8.54507E-05 1.47321E-04-6.53311E-06-1.02932E+08-6.43798E+06
 -1       690 1.00629E-04 1.30787E-04 3.35291E-04 6.17777E-08-5.43703E+07-1.76335E+07
 -1       691-1.73137E-04-1.84141E-04-5.25338E-04 1.98558E-05 1.08793E+08-1.49205E+08
 -1       692 8.46833E-05 3.47272E-05 3.89069E-05 1.62646E-05-2.70885E+02 4.20119E+08
 -1       693-1.72667E-05-5.21927E-05-1.80002E-04-7.34325E-06-3.01405E+07 4.36965E+08
 -1       694 3.58696E-05-2.14018E-05 1.83891E-04 8.86020E-06-1.71343E+07 5.62187E+07
 -1       695-7.86148E-05-3.75854E-05-1.66100E-04 7.43906E-06-5.15702E+06 1.83781E+07
 -1       696-5.63562E-05-7.51466E-05-2.72255E-04-1.04122E-05-1.55982E+08-1.59477E+08
 -1       697 9.51365E-05 7.51913E-05 4.34906E-04-5.54323E-06 5.37880E+07 1.18192E+08
 -1       698 6.15014E-05 1.16191E-04 3.34466E-05 6.31809E-06 1.53982E+08-8.76624E+07
 -1       699-2.65229E-06-1.08099E-05 4.90537E-05 2.34479E-05-1.67473E+07-4.99612E+06
 -1       700-5.41955E-05-8.31941E-05-1.08705E-04 1.02495E-05 6.31860E+07 5.50209E+07
 -1       701 1.17905E-05-3.97898E-05-9.06270E-05-3.06591E-06 8.70407E+05 4.33943E+08
 -1       702 1.65239E-04 1.41509E-04 3.41967E-04 1.27126E-06 1.90882E+02 4.05482E+08
 -1       703 2.41213E-05 6.06012E-06-2.90340E-06-1.52737E-07 2.39996E+02 2.57706E+08
 -1       704 1.39973E-05-3.81526E-05-8.54379E-05 1.14929E-05-2.36494E+06 2.01520E+08
 -1       705 7.84700E-05 2.60663E-05 1.54292E-04 3.07709E-06-8.11666E+06 1.05322E+08
 -1       706-4.40379E-05-2.64986E-05-1.57300E-04-1.34725E-05-9.15890E+07-1.56980E+08
 -1       707-3.28212E-05-7.97536E-05-2.12004E-04 1.33980E-05-3.76724E+08-4.73825E+08
 -1       708-5.13171E-05-5.67689E-05-1.50533E-04 4.03821E-06 1.09512E+07-1.52625E+08
 -1       709 6.20894E-06 6.82042E-06 6.15207E-06-9.95584E-07 2.27963E+07-1.00831E+08
 -1       710-1.51168E-05-2.35951E-05-3.08700E-05 6.96164E-07-3.03301E+07-1.11134E+08
 -1       711-1.20759E-05-3.01679E-06-8.66794E-06-2.11305E-06-1.49663E+07-1.43448E+08
 -1       712-8.96386E-05 7.65501E-06 5.03424E-05 3.34473E-05 4.62424E+08-3.63631E+08
 -1       713 1.50099E-05 8.68505E-05 2.56591E-04 2.48123E-05 1.57258E+08-1.44927E+08
 -1       714-1.11216E-04-1.56218E-04-3.06141E-04-1.69159E-05 2.25036E+07 6.32989E+07
 -1       715 2.68938E-05 2.14730E-05 8.12663E-05 1.35172E-05 5.89520E+06 1.43415E+08
 -1       716 9.71071E-05 7.93859E-05 1.86611E-04 4.86523E-06-3.90817E+02 2.10505E+08
 -1       717 2.88729E-05 9.56794E-06 5.09410E-06-1.10269E-06 4.73302E+02 1.13914E+08
 -1       718 4.46970E-05 2.82643E-05 1.28856E-04 7.65291E-06 1.54706E+07 1.21430E+08
 -1       719 6.50932E-06 4.07003E-06-4.26825E-06 2.76292E-07-4.17661E+06 5.41317E+06
 -1       720 4.72367E-06 4.59775E-05 6.28131E-05-4.45545E-06 1.21518E+08-5.57268E+07
 -1       721 3.21423E-05 2.53064E-05 1.09497E-04-6.51320E-06-1.47343E+08 1.49644E+07
 -1       722 4.14610E-06 2.01025E-06 3.62411E-06 4.66569E-06-4.55274E+07-6.04899E+07
 -1       723 2.02041E-05 2.00639E-05 6.02702E-05 4.43775E-06 7.46659E+06 3.79096E+06
 -1       724 3.26419E-05 3.14988E-05 6.80433E-05 3.39304E-06-7.46760E+06 8.03122E+05
 -1       725 1.50866E-05 1.22655E-05 1.63391E-05 2.02442E-06 5.90180E+07-4.31182E+07
 -1       726 1.78230E-05 1.99759E-05 8.15433E-05-9.21427E-08 1.49275E+08 1.09658E+07
 -1       727-8.87997E-05-9.34880E-05-1.99202E-04-8.74326E-06-6.69182E+07 1.35240E+08
 -1       728 3.65109E-06 1.34559E-05 1.71165E-05 3.81377E-06 1.47249E+07 1.04544E+07
 -1       729 3.83686E-05 3.06931E-05 7.16985E-05-1.27428E-06-3.67593E+02 2.57766E+07
 -1       730-1.48816E-05-7.96185E-06-1.37719E-05-5.08875E-06 2.47024E+02-3.16225E+07
 -1       731-8.06029E-06-1.45091E-05 1.46951E-05 4.19437E-06-1.90595E+07 3.59683E+06
 -1       732-1.84104E-05 1.84672E-05-4.59533E-05-8.25152E-07 1.54562E+07 6.15535E+07
 -1       733-1.53809E-05-2.22819E-05-5.09444E-05 4.24217E-07-1.11117E+08 3.08213E+07
 -1       734-4.97740E-06-6.71689E-06 3.58945E-06 3.66603E-06 1.12841E+06 7.55548E+06
 -1       735-9.88516E-06-9.38199E-06-3.31540E-05 3.84031E-06 1.98954E+06 1.68262E+06
 -1       736 3.95033E-06 4.04444E-06 1.30416E-05 4.25882E-06-1.64878E+06 2.27596E+06
 -1       737 1.77617E-05 9.76301E-06 5.00307E-05 2.45860E-06-3.55703E+06 7.18692E+06
 -1       738-4.73455E-06-4.53402E-06-1.41673E-05-2.10642E-06 9.99204E+07 2.14019E+07
 -1       739 9.93721E-07 2.44062E-05-3.48664E-06 5.90389E-06 4.63496E+07-5.10590E+06
 -1       740 1.43908E-05 4.94439E-06 3.28664E-06-1.34706E-05-1.51184E+02 1.42033E+07
 -1       741-1.80416E-05-7.75403E-06-9.96725E-06-4.90900E-06 2.34151E+02 4.34713E+07
 -1       742-2.45074E-05-1.45091E-05 7.49179E-06-9.81024E-06-1.86202E+07-3.23768E+06
 -1       743 1.09263E-05 5.75213E-05 6.53421E-05 4.42052E-06 8.85073E+06-5.04027E+07
 -1       744 1.39611E-05 6.65724E-06 4.73166E-05-2.09082E-07-1.07894E+08-2.53095E+07
 -1       745-4.08449E-06-8.69190E-06-1.01279E-05 3.18699E-06 1.33866E+06-7.73068E+06
 -1       746 9.85339E-06 1.07108E-05 2.87161E-05 3.46499E-06 1.64615E+06-1.57697E+06
 -1       747-1.94145E-06-1.01905E-06-5.49985E-06 4.67332E-06-1.79391E+06-1.47208E+06
 -1       748-6.46483E-07-1.51828E-06-1.71509E-05 8.59785E-07-1.17722E+06-6.49342E+06
 -1       749-1.52932E-05-1.34018E-05-2.29217E-05 4.12867E-07 1.07623E+08-2.44744E+07
 -1       750-3.45940E-05-1.73887E-05-2.89381E-05 1.11200E-06-1.21014E+07-5.40891E+07
 -1       751 4.50787E-05 5.70078E-05-1.81980E-06-3.40408E-05 1.77865E+07-1.99203E+07
 -1       752 2.10479E-06-1.82185E-05-6.70813E-05-1.43682E-05-3.02547E+02-1.82169E+06
 -1       753-1.28523E-06-1.01142E-06-2.46905E-06-6.63288E-06 4.21223E+02-9.22055E+07
 -1       754 1.33016E-05-4.08624E-06-1.51010E-05-9.72196E-06 1.25486E+07-1.03244E+08
 -1       755 3.73187E-05 5.92354E-05 1.67240E-04-9.75902E-06-5.17809E+06-5.48533E+06
 -1       756 1.21862E-04 2.03297E-04 4.77214E-04-9.57027E-06 1.03464E+08 3.99718E+07
 -1       757 1.64080E-05 3.46405E-06-2.19030E-06 2.68803E-07-1.44143E+08-1.35328E+07
 -1       758-1.04932E-05-1.13453E-05-3.89236E-05 2.17688E-06-4.68457E+07 4.84041E+07
 -1       759 1.38468E-05 1.42113E-05 5.04415E-05 3.26024E-06 6.73751E+06-1.69828E+06
 -1       760 7.82526E-06 3.94319E-06 1.19500E-05 2.83372E-06-6.84099E+06-1.66360E+06
 -1       761 9.60194E-06 5.61026E-06 1.98602E-05 3.31356E-06 4.62888E+07 4.99471E+07
 -1       762-4.11894E-05-4.42825E-05-9.02703E-05-5.66477E-06 1.43464E+08-1.40215E+07
 -1       763-6.47753E-05-6.88089E-05-1.93527E-04 1.02886E-05-1.09751E+08 4.42780E+07
 -1       764 1.26550E-05 1.65887E-05-5.10394E-05-1.10186E-05 8.01320E+05-1.15964E+07
 -1       765 4.36595E-05 7.68220E-05 1.89224E-04-2.47580E-05-1.59421E+07-1.04825E+08
 -1       766-4.68269E-05-5.06118E-05-1.33898E-04-1.54448E-05-3.44033E+02-1.06416E+08
 -1       767 2.15471E-05 1.48211E-05 3.10764E-05-7.72253E-06 1.95053E+02-2.13842E+08
 -1       768 1.01710E-05-6.50750E-06-2.76825E-05-2.92377E-06 6.84471E+05-1.66913E+08
 -1       769-2.41548E-05-5.17706E-05-1.31531E-04-1.24187E-05-1.38155E+07-7.93871E+07
 -1       770 1.24186E-04 1.53360E-04 2.56310E-04-9.75250E-07-4.80614E+07 1.15028E+08
 -1       771-1.11247E-04-1.31493E-04-5.77600E-05 4.05806E-05-4.02795E+08 4.10840E+08
 -1       772-4.31690E-05-5.07039E-05-1.46017E-04 6.48841E-07 1.33590E+07 1.43926E+08
 -1       773-2.32906E-05-1.70836E-05-5.18888E-05 1.80770E-06 2.30661E+07 1.06026E+08
 -1       774-1.45974E-05-1.34035E-05-2.57948E-05-1.06927E-06-2.28746E+07 1.05565E+08
 -1       775 2.01706E-05 9.98471E-06 1.85240E-06 2.32272E-06-1.32205E+07 1.45376E+08
 -1       776 1.40814E-04 2.33940E-05 1.06469E-04 1.85901E-05 4.02918E+08 4.18508E+08
 -1       777-4.73716E-05-5.67447E-05-3.17559E-05 6.72783E-05 4.58385E+07 1.19249E+08
 -1       778 5.19743E-05 1.45995E-04 2.62580E-04-1.65480E-05 1.51438E+07-8.04006E+07
 -1       779 9.35290E-05 1.46594E-04 3.57617E-04-3.78658E-05 1.68882E+06-1.69576E+08
 -1       780-1.08212E-04-9.23350E-05-2.21524E-04-2.24202E-05-1.79115E+02-2.16150E+08
 -1       781 7.95424E-05 3.29204E-05 3.76049E-05-1.36569E-05-2.28021E+02-3.43624E+08
 -1       782 6.83591E-05 2.80915E-05 1.26527E-04-6.03357E-06-2.18255E+07-3.60743E+08
 -1       783-6.32331E-05-6.95555E-05-2.57075E-04 7.82140E-06-2.56386E+07-4.15397E+07
 -1       784 7.70037E-05 1.13175E-04 2.77220E-04 2.72568E-05-8.85969E+06 7.11136E+06
 -1       785-2.56542E-05-7.70390E-05-2.73463E-04 2.29379E-05-1.07305E+08 4.77025E+07
 -1       786-5.70150E-05-4.71622E-05-1.43074E-04-7.93580E-06-2.98915E+07-1.02878E+08
 -1       787-2.37413E-05-1.88500E-05-2.14512E-04-2.27569E-06 3.01941E+07-1.02542E+08
 -1       788 5.36512E-05-9.80628E-06 3.29285E-04-7.24879E-08 1.04841E+08 4.80552E+07
 -1       789 6.49932E-05-1.03949E-05 9.55460E-05 2.24882E-05 9.77777E+06 5.98477E+06
 -1       790 4.70343E-05 1.21190E-04-8.25241E-05-5.01672E-06 2.68969E+07-4.02552E+07
 -1       791 1.29938E-05 1.13167E-04 2.37007E-04 9.02126E-06 2.17154E+07-3.58778E+08
 -1       792-2.48253E-04-1.22041E-04-1.87874E-04-3.14917E-05 2.49469E+02-3.41479E+08
 -1       793-2.94060E-04-2.72781E-04-9.17909E-04-3.92795E-05-8.52119E+07 8.08671E+07
 -1       794 1.68237E-04 1.67429E-04 5.12361E-04 1.20353E-05 4.72089E+07 2.47720E+07
 -1       795 7.03357E-05 1.28461E-04 3.03895E-04-1.84370E-05 6.57103E+07 2.41882E+07
 -1       796 1.21942E-05 1.63491E-05 2.86642E-05-1.31316E-06 2.25430E+07 1.41699E+07
 -1       797-9.02489E-05-5.78817E-05-2.49968E-04 1.35559E-05-2.13675E+07 1.40552E+07
 -1       798-6.17996E-05-4.34155E-05-1.30042E-04 8.09436E-06-6.53208E+07 2.53024E+07
 -1       799-1.44973E-05-8.48534E-05 8.80477E-05 8.15590E-06-4.61435E+07 2.44941E+07
 -1       800 5.37187E-05 1.45718E-04 1.40159E-04 2.41995E-05 8.85959E+07 8.00921E+07
 -1       801 8.97888E-06 6.65598E-05-4.87342E-05 1.30963E-05 3.64366E+08 1.86940E+07
 -1       802-8.49110E-06 2.65905E-05-2.73595E-05-1.09801E-05 1.50939E+08 2.53662E+06
 -1       803-7.00044E-06 2.02892E-05 3.06210E-05-4.79072E-06 8.70985E+07 7.22091E+06
 -1       804-2.09447E-05-1.93296E-05-4.50776E-05-4.07221E-07 1.76272E+07 3.78627E+07
 -1       805-2.35764E-06 1.16229E-06-2.33296E-06-9.10601E-07-1.72552E+07 3.76413E+07
 -1       806-4.39516E-05-3.13669E-06-8.46280E-05 5.40757E-06-8.49386E+07 6.85962E+06
 -1       807-1.92607E-05-3.29893E-05-5.58011E-05 3.36523E-05-1.49000E+08 2.37882E+06
 -1       808 5.71050E-05-1.06394E-05 1.26112E-04 3.54205E-06-3.61408E+08 1.83965E+07
 -1       809 7.38204E-05 1.02833E-04 1.59554E-04-1.33067E-05 3.43569E+08 1.83200E+02
 -1       810-3.13297E-06 4.29899E-06-1.53929E-05 2.73343E-06 2.00408E+08-2.90462E+02
 -1       811-7.45570E-06 8.10251E-07-2.76403E-05 1.79978E-06 5.01374E+07-2.23454E+02
 -1       812-6.57351E-06-6.23241E-06-1.74204E-05 9.22475E-07 3.70006E+07-1.54563E+02
 -1       813-1.85408E-05-2.11131E-05-4.53452E-05 4.10108E-06-3.54516E+07-1.62879E+02
 -1       814-5.83380E-06-5.45382E-06-1.57040E-05 3.29316E-06-4.97609E+07-2.23692E+02
 -1       815-1.23680E-05-7.37607E-06-3.72082E-05 7.80239E-06-1.98099E+08-2.89123E+02
 -1       816 9.65297E-05 1.07467E-04 2.38031E-04 7.76909E-06-3.41548E+08 1.76198E+02
 -1       817-8.49698E+08-2.18494E+09-8.49699E+08 3.08368E+06 4.21306E+08-3.46037E+02
 -1       818-6.82951E+08-1.75616E+09-6.82952E+08 1.73419E+07 2.88216E+08 1.69602E+02
 -1       819-5.33206E+08-1.37110E+09-5.33207E+08 2.67505E+07 2.45835E+08-7.96872E+01
 -1       820-4.16430E+08-1.07082E+09-4.16431E+08 1.78237E+07 1.16973E+08 3.55499E+02
 -1       821-3.13241E+08-8.05476E+08-3.13241E+08 1.07144E+07 8.32490E+07-1.66700E+02
 -1       822-2.12167E+08-5.45573E+08-2.12167E+08 1.04900E+07 4.98819E+07 1.22954E+02
 -1       823-1.03609E+08-2.66424E+08-1.03609E+08 1.65804E+07-4.24750E+07-3.01546E+01
 -1       824 7.60577E+06 1.95577E+07 7.60577E+06 2.12397E+07-4.17656E+06 4.24431E+02
 -1       825 1.18057E+08 3.03574E+08 1.18057E+08 1.59720E+07 3.39537E+07-9.85423E+01
 -1       826 2.32954E+08 5.99024E+08 2.32954E+08 1.29238E+07-6.46404E+07 2.91846E+02
 -1       827 3.41790E+08 8.78887E+08 3.41790E+08 1.54327E+07-1.14362E+08-2.05175E+02
 -1       828 4.45097E+08 1.14454E+09 4.45098E+08 1.54096E+07-1.60293E+08 1.95406E+02
 -1       829 5.55815E+08 1.42924E+09 5.55815E+08 2.24484E+07-2.58336E+08-4.21537E+01
 -1       830 6.96158E+08 1.79012E+09 6.96159E+08 1.54483E+07-2.98930E+08 1.70224E+02
 -1       831 8.43660E+08 2.16941E+09 8.43661E+08-1.63511E+06-4.17504E+08-2.48113E+02
 -1       832-5.85812E+08-1.63779E+09-4.76258E+08 2.44856E+08-2.57921E+07-8.17439E+07
 -1       833-3.93170E+08-1.05040E+09-2.57358E+08 1.79907E+08-2.34085E+07 3.03583E+07
 -1       834-2.36782E+08-6.53829E+08-1.52192E+08 1.21432E+08-5.49388E+06 3.54359E+07
 -1       835-5.72380E+07-2.85460E+08-2.81679E+07 1.69173E+08 6.26493E+06 1.36060E+07
 -1       836 7.15845E+07 3.12458E+08 3.77025E+07 1.69645E+08-7.55529E+06 1.05526E+07
 -1       837 2.40395E+08 6.85343E+08 1.71901E+08 1.30880E+08 1.43444E+07 3.68546E+07
 -1       838 4.16269E+08 1.08482E+09 2.88140E+08 1.70319E+08 2.57238E+07 3.28969E+07
 -1       839 5.61516E+08 1.61741E+09 4.71994E+08 2.16761E+08 1.22112E+07-9.10304E+07
 -1       840-4.52186E+07-1.74935E+08 2.31059E+08 4.61759E+08 4.30862E+08-5.80754E+06
 -1       841-7.89585E+07-1.92795E+08 2.17103E+08 3.89645E+08 2.78585E+08 9.54533E+06
 -1       842-8.68275E+07-1.71774E+08 2.21277E+08 3.06905E+08 1.48459E+08-1.52739E+07
 -1       843-1.11331E+08-2.49598E+08 1.42962E+08 2.55311E+08 1.31444E+08-3.95723E+06
 -1       844-6.83868E+07-2.72303E+08 9.89652E+07 2.11327E+08 5.26938E+07 7.53453E+06
 -1       845-2.92944E+06-3.17201E+08 7.53301E+07 2.20434E+08 3.00121E+07-5.16507E+06
 -1       846-1.26786E+07-3.66504E+08 2.94039E+07 2.76436E+08 1.66375E+07-1.61698E+07
 -1       847 2.29927E+06 7.38168E+06 6.68626E+05 3.67379E+08-3.36870E+06-1.11585E+08
 -1       848 1.27862E+07 3.35573E+08-4.21185E+07 2.83931E+08-5.40106E+06-2.08745E+07
 -1       849 2.58924E+06 2.69560E+08-8.09337E+07 2.26783E+08-6.11263E+07 5.15737E+06
 -1       850 2.22606E+07 2.01943E+08-1.11835E+08 2.13332E+08-1.18827E+08 1.36371E+07
 -1       851 4.93315E+07 1.53249E+08-1.62750E+08 2.54254E+08-1.39090E+08-2.15469E+07
 -1       852 8.73799E+07 1.37365E+08-2.01404E+08 2.98191E+08-1.95426E+08-2.99272E+06
 -1       853 5.73330E+07 1.60912E+08-2.09163E+08 3.58611E+08-2.85418E+08 2.40167E+07
 -1       854-4.40201E+06 1.50856E+08-2.35204E+08 4.12000E+08-4.25503E+08-3.00060E+07
 -1       855 2.22169E+08 1.12712E+09 2.63786E+08 2.33296E+08 4.55992E+07-2.72063E+07
 -1       856-7.31572E+07 3.75576E+08 6.40476E+07 1.24221E+08 1.58195E+07-1.79467E+07
 -1       857-3.94112E+07-8.63502E+07 5.51463E+07 1.02745E+08 1.07959E+07 8.41735E+06
 -1       858-6.06258E+07-3.72465E+08-3.04190E+07 9.49145E+07-2.49143E+07-6.35420E+06
 -1       859 2.85777E+07 3.11505E+08 6.45083E+06 7.12728E+07-1.77579E+06-3.39455E+06
 -1       860-2.01523E+06-1.31107E+08-4.53137E+07 6.36431E+07 2.92073E+07-1.10334E+07
 -1       861-2.89160E+07-4.83422E+08-9.44220E+07 1.80193E+08 1.46002E+07-2.80338E+07
 -1       862-2.27356E+08-1.12160E+09-2.55182E+08 2.26619E+08-1.55485E+07 2.34967E+07
 -1       863 1.11255E+08 1.24887E+08 7.05494E+07-7.69619E+08-1.62278E+08-1.22831E+08
 -1       864 2.72275E+08 5.37826E+08-3.13230E+07-6.06700E+08 1.25626E+08-2.11158E+08
 -1       865 1.72595E+08 1.13938E+09-1.53380E+08-2.75974E+08 5.52259E+07-7.28432E+07
 -1       866-8.95418E+07 9.82078E+08-1.77929E+08-8.63947E+07 7.96600E+07 1.71921E+07
 -1       867-1.39483E+08 7.29317E+08-1.69792E+08-4.29763E+07 6.56949E+07-2.96117E+07
 -1       868-1.10929E+08 9.43169E+07-1.78944E+08-9.19048E+07-1.21364E+07 1.22057E+06
 -1       869-3.71668E+07-1.04919E+08-5.34237E+07-9.73424E+06 4.01348E+07 3.42739E+07
 -1       870 5.17431E+06-1.36041E+08-2.04034E+07 1.67468E+07 7.28503E+07-1.39467E+07
 -1       871-1.28122E+07-2.18578E+08-1.86715E+07 2.07049E+07 8.02887E+07 3.06964E+07
 -1       872 3.89447E+07 2.47277E+08 4.22571E+07-8.34876E+07-5.91237E+07 1.80216E+07
 -1       873-2.62535E+07-1.78894E+06 5.24724E+07-8.42657E+07-6.34296E+07 2.37549E+07
 -1       874 4.96488E+07-3.82126E+08 6.54399E+07-6.93968E+07-1.88701E+06-8.54509E+05
 -1       875 4.18671E+07-5.92236E+08 1.06363E+08-1.61419E+07-6.20375E+07 2.60292E+07
 -1       876-3.55106E+07-7.69705E+08 1.36938E+08 2.31450E+07-9.88855E+07-3.38263E+06
 -1       877-1.15073E+07-9.62561E+08 1.69090E+08-5.91434E+07-7.68864E+07-1.38540E+07
 -1       878-1.53091E+08-1.17693E+09 1.48855E+08-2.41030E+08-5.23747E+07-1.87942E+07
 -1       879-2.50452E+08-5.65661E+08 3.04161E+07-5.98402E+08-1.14302E+08-2.05757E+08
 -1       880-1.24031E+08-1.16633E+08-7.07888E+07-7.52110E+08 1.17466E+08-1.58041E+08
 -1       881 5.70744E+08 2.57005E+08-3.05939E+07-6.07443E+08-2.10379E+08 1.14136E+08
 -1       882 4.58131E+08 9.95373E+08-7.35347E+06-1.34898E+08-5.63762E+07-2.08394E+07
 -1       883 4.95839E+08 1.49521E+09 2.35804E+08 2.30450E+08-7.95366E+07 3.51752E+07
 -1       884-1.23549E+07-5.60661E+08-4.44694E+07-2.03394E+08-1.31669E+08 6.98870E+07
 -1       885-1.32489E+08-1.18572E+09-8.00080E+07-4.88904E+07 3.31471E+06 6.12110E+06
 -1       886-4.47131E+08-9.93908E+08 7.16996E+06-1.31037E+08 3.84001E+06-5.72641E+07
 -1       887-5.22265E+08-2.77959E+08 3.00045E+07-5.92837E+08 2.07488E+08 1.21430E+08
 -1       888-2.20702E+09-8.58285E+08-8.58286E+08-1.61110E+06-2.54549E+02 4.24849E+08
 -1       889-1.64538E+09-5.71176E+08-4.79954E+08 2.20985E+08-9.24939E+07-1.21061E+07
 -1       890-1.55158E+08 3.83947E+06 2.38992E+08 4.19651E+08-3.03484E+07 4.32500E+08
 -1       891 1.13688E+09 2.31823E+08 2.59338E+08 2.31846E+08 2.35011E+07 1.60974E+07
 -1       892 1.19147E+09 1.58385E+08-1.51199E+08-2.41185E+08-1.83219E+07 5.41500E+07
 -1       893 1.00576E+09 4.58441E+08-8.57001E+06-1.25931E+08-5.93102E+07-5.00221E+06
 -1       894 5.40811E+08 5.41001E+08-5.02983E+06 8.45702E+07-2.59547E+06 2.02410E+07
 -1       895 3.87472E+08 7.11395E+08-5.02516E+05 2.68773E+08-2.68883E+08-1.12198E+08
 -1       896 5.16368E+08 7.16599E+08 3.67980E+07 3.74886E+08-1.48577E+08-1.59479E+08
 -1       897 1.56417E+08-2.65535E+08 4.28641E+07-4.33704E+08 5.23528E+07 1.20588E+08
 -1       898 2.73349E+08-6.37618E+08 4.26049E+07-3.98140E+08 1.68376E+08 9.44738E+07
 -1       899 7.44369E+07-1.03336E+09-5.27162E+07 4.44321E+07 1.48165E+08-8.59138E+07
 -1       900-1.15783E+08-8.10258E+08-1.36917E+06 1.69203E+08 2.46631E+08-2.43906E+07
 -1       901-5.26562E+08-5.34822E+08 2.87521E+06 7.32028E+07-1.85930E+07-2.50141E+06
 -1       902-9.61154E+08-4.55765E+08 9.06301E+06-1.38187E+08 2.01569E+07-5.44268E+07
 -1       903-1.10842E+09-1.84295E+08 1.49579E+08-2.73500E+08 6.39517E+07 5.29123E+07
 -1       904-1.11584E+09-2.43021E+08-2.68091E+08 2.35810E+08 2.71421E+07 4.47615E+07
 -1       905 1.58491E+08 2.47821E+07-2.35444E+08 4.67015E+08 1.38484E+06 4.29626E+08
 -1       906 1.59935E+09 5.71386E+08 4.64427E+08 2.48210E+08 6.74936E+07-2.36611E+07
 -1       907 2.13738E+09 8.31204E+08 8.31204E+08 5.08507E+06 2.61328E+02 4.10304E+08
 -1       908-1.82025E+09-7.07874E+08-7.07875E+08 1.58001E+07 1.74837E+02 3.03965E+08
 -1       909-1.64589E+08-5.84597E+07 2.12722E+08 3.65839E+08 2.43017E+07 2.89839E+08
 -1       910 9.76800E+08 1.28655E+07-1.71590E+08-5.66582E+07-1.36223E+07 7.78313E+07
 -1       911 8.23162E+08 1.15704E+08 3.84047E+05 1.81064E+08-2.63755E+07-2.50925E+08
 -1       912-6.02912E+08-7.85179E+08-2.71114E+08-2.20331E+08-6.83874E+07-1.49978E+08
 -1       913 5.42088E+08 5.51271E+08 1.51025E+08-1.33028E+08 7.46255E+07-3.47291E+07
 -1       914-6.90737E+08-3.79613E+08 1.61879E+06 2.48308E+08 1.10326E+08-2.58378E+08
 -1       915-9.43085E+08 7.27539E+07 1.73257E+08-9.39214E+07-1.19777E+07 7.58732E+07
 -1       916 1.80875E+08 5.51902E+07-2.05372E+08 4.07242E+08-7.96414E+06 2.66581E+08
 -1       917 1.69627E+09 6.59661E+08 6.59661E+08 1.76546E+07-9.14395E+01 2.79552E+08
 -1       918-1.45182E+09-5.64596E+08-5.64596E+08 2.29962E+07-4.31198E+01 2.62230E+08
 -1       919-1.10212E+09-4.23091E+08-2.92565E+08 1.74020E+08 3.34915E+07-2.61007E+07
 -1       920-1.39920E+08-8.93028E+07 2.04806E+08 3.04696E+08-3.23947E+06 1.98412E+08
 -1       921 4.90214E+08 2.79296E+07 9.54572E+07 1.85757E+08-2.89666E+07-1.48780E+07
 -1       922 7.81867E+08 3.45278E+07-1.39644E+08 2.75718E+07-5.00313E+06 1.01226E+08
 -1       923 1.20593E+09 1.32572E+08 8.21323E+07-4.49298E+07 6.27319E+06-4.17950E+06
 -1       924 1.05079E+09-7.90801E+07 5.50183E+07 5.09168E+07-8.97587E+07-1.51006E+08
 -1       925-5.66073E+08-5.66621E+08-1.53916E+08-1.35992E+08-3.41317E+07-7.61119E+07
 -1       926-1.19396E+09-1.01663E+09-2.91009E+08-5.67263E+08-4.29785E+08-5.29471E+08
 -1       927-2.75973E+08-1.43607E+08 4.11281E+07-1.35271E+08-1.25107E+07-8.57602E+07
 -1       928 1.57398E+07 4.18764E+07-5.99093E+07 3.43062E+07 1.75147E+07-1.18853E+08
 -1       929 1.94756E+07 3.48753E+07 4.68315E+06 7.52768E+06-1.81554E+06-1.22188E+08
 -1       930 7.31755E+06-2.11652E+07 7.63106E+06-1.14834E+07-1.89620E+06-1.14702E+08
 -1       931-2.91712E+06 1.43158E+06-4.69240E+05-2.14750E+07-1.45049E+05-1.22318E+08
 -1       932-3.12575E+06 2.89450E+07-6.26022E+06-5.77173E+06 9.43278E+04-1.17468E+08
 -1       933-1.79233E+07-4.26458E+07-2.28804E+06 2.66415E+06 3.51344E+06-1.20501E+08
 -1       934-1.73142E+07-6.12080E+07 5.07659E+07 3.20461E+07-1.84628E+07-1.20473E+08
 -1       935 1.93454E+08 1.53348E+08-3.85813E+07-1.35418E+08 2.01440E+07-1.14584E+08
 -1       936 9.76514E+08 1.16506E+09 2.82442E+08-5.51436E+08 5.16729E+08-4.14590E+08
 -1       937 7.42785E+08 5.84471E+08 2.59910E+08-2.23708E+08 1.48901E+08-6.41685E+07
 -1       938-6.99677E+08-5.05314E+08-3.48272E+07 3.45920E+08 1.57294E+08-1.37775E+08
 -1       939-1.44412E+09-4.93053E+08-2.29944E+08 2.06859E+08-3.52330E+07-7.38292E+07
 -1       940-6.67665E+08 1.29984E+08 1.71810E+08-6.35791E+07 1.80632E+07 5.69104E+07
 -1       941-3.32225E+08 4.28844E+07-4.79251E+07 1.24164E+08 2.47068E+07 2.52406E+07
 -1       942 1.63386E+08 5.17664E+07-1.95938E+08 3.42881E+08 6.46867E+06 1.40694E+08
 -1       943 9.87295E+08 3.59782E+08 2.49092E+08 2.03731E+08-3.71950E+07-3.13095E+07
 -1       944 1.28986E+09 5.01613E+08 5.01613E+08 2.71539E+07 1.34305E+02 2.14815E+08
 -1       945-1.16118E+09-4.51571E+08-4.51571E+08 1.55595E+07 1.99232E+02 1.62264E+08
 -1       946-1.55595E+08-5.13758E+07 1.65303E+08 2.59096E+08-2.17096E+07 1.41355E+08
 -1       947 6.02379E+08-4.62347E+07-1.08160E+08-1.31853E+07 2.68874E+07 6.31602E+07
 -1       948 6.47386E+08-2.84683E+08-4.36619E+07-4.02064E+08 9.50075E+07-1.70886E+08
 -1       949-1.57295E+08-2.01798E+08 4.02951E+07-1.39227E+08-1.16460E+08-2.08038E+07
 -1       950 2.04762E+07-1.63193E+07-4.65481E+07-2.16963E+07 1.36723E+07 1.42496E+07
 -1       951-3.33251E+06-1.71188E+06 1.33629E+07-2.76024E+07-3.44705E+06-1.63835E+07
 -1       952 9.29614E+05 3.29151E+06-1.34396E+07-2.72368E+07 3.84581E+06-1.55513E+07
 -1       953-1.45547E+06 2.82843E+07 5.28854E+07-1.41497E+07-1.80648E+07 6.72763E+06
 -1       954 1.39166E+08 2.70387E+08-3.97442E+07-1.31258E+08 8.28094E+07-1.15052E+07
 -1       955-1.99663E+07 1.04689E+08 1.39950E+08-1.51524E+08-1.03989E+07 2.51295E+07
 -1       956 2.91749E+08 7.66810E+07-1.34257E+08 3.16552E+08 1.09672E+07 1.06668E+08
 -1       957 9.02510E+08 3.50976E+08 3.50977E+08 2.28455E+07-5.14071E+02 1.04543E+08
 -1       958-8.90773E+08-3.46412E+08-3.46412E+08 1.52726E+07-2.18546E+02 1.16902E+08
 -1       959-6.95293E+08-2.44407E+08-1.74356E+08 1.32743E+08 3.63645E+07-1.42372E+07
 -1       960-2.05261E+08-2.55353E+07 1.12897E+08 2.16649E+08 1.44120E+07 1.20084E+08
 -1       961 1.34924E+08-1.66108E+06 4.63110E+07 6.53480E+07-1.16005E+07-3.01576E+07
 -1       962 3.89809E+08-5.60573E+07-6.60753E+07-6.83362E+07-7.26413E+05 2.11042E+06
 -1       963 5.69671E+08 8.70947E+06 4.54952E+07-2.04576E+08 7.23546E+07 1.33071E+08
 -1       964 2.69218E+08-1.62668E+08-4.35437E+07-4.39792E+08 1.23936E+08-5.42740E+07
 -1       965 6.24909E+07 1.75543E+07-5.25279E+07 3.32722E+07-1.23167E+08 1.86618E+07
 -1       966-2.88374E+07 1.62657E+06-5.40797E+07-1.44232E+07 6.87180E+06 1.83978E+07
 -1       967-4.70531E+07-3.70359E+07 2.06388E+07-6.78668E+07-1.57746E+07-2.05452E+07
 -1       968 1.44963E+07 1.40494E+06 1.41442E+07-4.24476E+07-5.96069E+05-3.78212E+06
 -1       969 2.61198E+05 3.95819E+06-8.49114E+06-3.99032E+07 3.28840E+06 2.73583E+05
 -1       970-2.38232E+06-1.37060E+06-9.62048E+05-4.01019E+07 7.36671E+04-2.12104E+06
 -1       971-1.65454E+06-4.67640E+06 8.36841E+06-4.06725E+07-2.78497E+06-3.86809E+05
 -1       972-9.95125E+06 4.77869E+06-1.15105E+07-3.93561E+07 2.62780E+06-1.56594E+06
 -1       973 3.51967E+07 4.56309E+07-2.01220E+07-6.64820E+07 1.99279E+07-1.47068E+07
 -1       974 1.51527E+07-2.09913E+07 4.46489E+07-2.16707E+07-1.41577E+07 1.32096E+07
 -1       975-3.98174E+07-1.54981E+07 5.79395E+07 3.31374E+07 1.16213E+08 1.72426E+07
 -1       976 2.19457E+08 7.78133E+07-6.66977E+06-1.15880E+08-7.38633E+07 1.33068E+08
 -1       977 2.97146E+08 9.17223E+07-4.53978E+07 9.13079E+07-8.38228E+06 3.68659E+06
 -1       978 4.13898E+08 1.35750E+08-6.47543E+07 3.10749E+08 1.62781E+07 1.21851E+07
 -1       979 4.84009E+08 1.73400E+08 7.47470E+07 1.79386E+08-2.00831E+07-1.57312E+06
 -1       980 5.40044E+08 2.10017E+08 2.10017E+08 2.07651E+07 2.05303E+02 2.94585E+07
 -1       981-6.10246E+08-2.37318E+08-2.37318E+08 1.31296E+07 3.08878E+02 6.63844E+07
 -1       982-2.72234E+08-7.58096E+06 8.20799E+07 2.28289E+08 4.44699E+06 6.30966E+07
 -1       983 2.47947E+06 2.07984E+07-5.44513E+07-8.54992E+07 2.30087E+07 6.31084E+07
 -1       984 4.35786E+07 1.80364E+07 2.09214E+06 2.85988E+06-1.22471E+08-3.73240E+06
 -1       985-4.76746E+06 1.01206E+07 1.23233E+07-3.98084E+07-1.77402E+06-2.82483E+06
 -1       986-2.97345E+06-2.42159E+06-2.85742E+06-3.83265E+07 3.88668E+05 1.26570E+06
 -1       987 1.37461E+06 3.09777E+06 2.86730E+06-3.77883E+07-1.74416E+05 1.25919E+06
 -1       988-1.73015E+06-1.45992E+07-1.38478E+07-4.20373E+07 3.82257E+06-1.70989E+05
 -1       989-3.37499E+07-1.92346E+07-4.29208E+06 7.33244E+06 1.20279E+08-1.55151E+06
 -1       990 2.14180E+08 1.22049E+08-2.37616E+07 2.92868E+08 6.13161E+07 3.97857E+07
 -1       991 2.54843E+08 9.91053E+07 9.91056E+07 1.36555E+07-1.99298E+02-1.39079E+07
 -1       992-3.16051E+08-1.22909E+08-1.22909E+08 1.63619E+07-1.02264E+02-2.92088E+07
 -1       993-3.21040E+08-7.74195E+07-3.99009E+07 1.68114E+08 9.11699E+06 6.37857E+06
 -1       994-3.39230E+08-2.19599E+07 4.22026E+07 2.81865E+08-2.08618E+07 4.61157E+06
 -1       995-3.10550E+08-3.09689E+07-5.16347E+06 7.19876E+07-2.08525E+06 1.62386E+06
 -1       996-2.48731E+08-4.25961E+07-4.39840E+07-8.49364E+07 1.87770E+07 5.97702E+07
 -1       997-3.02655E+07 1.54425E+06 5.14188E+06-6.38249E+06-1.18880E+08-1.70665E+05
 -1       998-3.66728E+06-1.88753E+06 1.30136E+07-2.74809E+07-1.63374E+07-3.95748E+06
 -1       999 4.78847E+06 8.03626E+05-7.95686E+06-4.08493E+07-5.90376E+05 2.71324E+06
 -1      1000-3.55563E+06-2.12561E+06-2.74253E+06-3.81188E+07 9.55120E+05 3.77279E+05
 -1      1001 8.45371E+05 1.92380E+06 2.46262E+06-3.69816E+07 7.54967E+05 6.23705E+05
 -1      1002-6.26790E+05 4.15997E+05 9.71095E+04-3.72980E+07 1.57827E+05 3.60158E+05
 -1      1003-2.48413E+06-1.37860E+06-2.48206E+06-3.68561E+07-5.28567E+05 1.01252E+06
 -1      1004 1.76643E+06 2.24432E+06 2.59969E+06-3.79625E+07-1.17110E+06 4.43310E+05
 -1      1005-3.70830E+06-7.68191E+05 8.14848E+06-3.94332E+07-2.15349E+05 3.41402E+06
 -1      1006 1.65648E+06 2.97831E+06-1.25303E+07-2.73764E+07 1.60806E+07-3.13076E+06
 -1      1007 1.95974E+07-8.00459E+06-6.53319E+06-1.13138E+07 1.13233E+08-1.90639E+06
 -1      1008 1.52548E+07 4.02926E+07-1.60261E+06 2.38359E+08 4.94944E+07-4.81693E+06
 -1      1009 1.22249E+07 1.24670E+07-1.66415E+06 1.23253E+08-2.14605E+07-5.72716E+05
 -1      1010 1.78703E+07 6.94946E+06 6.94961E+06 7.10999E+06-6.42389E+01 1.44922E+07
 -1      1011-3.73779E+07-1.45358E+07-1.45359E+07 2.06550E+07 3.95978E+02-1.19270E+06
 -1      1012-2.84798E+07-2.28101E+07 2.68300E+06 3.50764E+08-1.06171E+08 7.34907E+06
 -1      1013-1.24143E+06 3.69995E+05 1.56873E+06-2.09740E+07-1.23490E+08-2.15254E+05
 -1      1014 1.72377E+05 9.65517E+04-3.54913E+05-4.05470E+07-2.54507E+06-1.46903E+05
 -1      1015-7.01721E+05 1.04419E+05 1.45353E+05-3.72884E+07 2.91463E+05-1.47604E+03
 -1      1016-7.63990E+05 1.71074E+05-2.05751E+05-3.72051E+07-1.15910E+05 3.83480E+05
 -1      1017 7.09745E+05 1.52118E+06 1.06812E+06-3.94982E+07 2.18852E+06 3.70122E+05
 -1      1018-7.92377E+05 1.57580E+06-9.46554E+05-2.09558E+07 1.20556E+08 7.41604E+04
 -1      1019-1.47637E+08-2.07722E+07 2.16145E+07 2.31197E+08 4.94418E+07-2.13134E+07
 -1      1020-1.86397E+08-7.24876E+07-7.24877E+07 1.20357E+07-1.34331E+02 4.06705E+06
 -1      1021 2.33259E+08 9.07117E+07 9.07116E+07 1.46282E+07-6.49172E+01 4.16315E+07
 -1      1022 2.51745E+08 4.87752E+07 2.95220E+07 1.56041E+08 9.80013E+06-6.88902E+06
 -1      1023 2.88828E+08-6.27416E+06-3.01323E+07 2.57771E+08-2.04771E+07-4.06974E+06
 -1      1024 2.79278E+08 1.96765E+07 9.53316E+06 6.24307E+07-4.30214E+06-1.48954E+06
 -1      1025 2.15645E+08 2.84229E+07 2.92387E+07-7.05404E+07 1.18327E+07-4.92195E+07
 -1      1026 2.58562E+07-3.06925E+06-2.83832E+06-8.71733E+06-1.16857E+08 5.76168E+05
 -1      1027 2.40515E+06 1.70625E+06-1.15137E+07-2.72362E+07-1.63262E+07 3.42800E+06
 -1      1028-5.13099E+06-1.28488E+06 6.94392E+06-4.03728E+07-6.74187E+05-3.22943E+06
 -1      1029 2.04670E+06 1.92859E+06 2.35455E+06-3.79847E+07 9.95828E+05-2.62520E+05
 -1      1030-2.12811E+06-1.50797E+06-2.12673E+06-3.69537E+07 5.59545E+05-5.55782E+05
 -1      1031-6.55800E+05 9.05901E+04-2.03784E+04-3.71993E+07-7.06015E+04-1.53248E+04
 -1      1032 1.01015E+06 1.77352E+06 2.16801E+06-3.68422E+07-6.67672E+05-3.16977E+05
 -1      1033-2.76229E+06-1.54894E+06-2.35401E+06-3.76500E+07-1.09668E+06 2.56007E+04
 -1      1034 3.80745E+06 1.43179E+06-7.29561E+06-4.00582E+07 4.46838E+05-2.47118E+06
 -1      1035-2.87979E+06-2.01668E+06 1.15313E+07-2.70959E+07 1.56330E+07 3.45216E+06
 -1      1036-2.43386E+07 4.08967E+06 3.09474E+06-7.76848E+06 1.15394E+08 1.18382E+06
 -1      1037-2.01412E+08-3.93814E+07-5.60907E+07-7.64016E+07-1.46991E+07-5.16724E+07
 -1      1038-2.33651E+08-2.38474E+07 1.09134E+07 5.15510E+07-2.07543E+05-7.77006E+05
 -1      1039-2.93678E+08-3.49224E+07 6.26862E+07 1.92368E+08 1.88337E+07-2.08514E+07
 -1      1040-3.56265E+08-1.05452E+08-5.19339E+07 1.15199E+08-1.57097E+07 4.01875E+06
 -1      1041-4.02578E+08-1.56558E+08-1.56558E+08 1.55125E+07 4.84190E+01-4.42661E+06
 -1      1042 4.98589E+08 1.93896E+08 1.93896E+08 1.14354E+07 2.49654E+02-5.36326E+07
 -1      1043 2.32303E+08-9.52743E+06-6.63905E+07 1.99111E+08 5.18456E+06-4.89197E+07
 -1      1044 2.55795E+06-3.12137E+07 4.13760E+07-6.72619E+07 2.26768E+07-5.80591E+07
 -1      1045-3.67341E+07-1.87263E+07-7.91754E+06 3.54679E+06-1.20761E+08 1.85375E+06
 -1      1046 1.51894E+06-1.07188E+07-1.05561E+07-4.04684E+07-2.50043E+06 1.27892E+06
 -1      1047 1.20029E+06 2.28050E+06 2.16359E+06-3.78453E+07 2.16231E+05-1.01166E+06
 -1      1048-2.25803E+06-2.09914E+06-2.16021E+06-3.77525E+07-2.00353E+05-8.08547E+05
 -1      1049-2.73852E+06 1.03779E+07 1.03930E+07-4.02543E+07 2.37044E+06 2.03188E+06
 -1      1050 3.80780E+07 1.86011E+07 7.60966E+06 3.60732E+06 1.19835E+08 2.45788E+06
 -1      1051 3.66495E+06 9.72688E+06-6.20142E+07-8.34213E+07-1.73009E+07-4.91290E+07
 -1      1052-2.44329E+08-2.78936E+07 8.21274E+07 1.65295E+08 1.93020E+05-6.62818E+07
 -1      1053-6.03279E+08-2.34609E+08-2.34609E+08 1.13786E+07-3.12453E+02-6.74344E+07
 -1      1054 7.46233E+08 2.90202E+08 2.90202E+08 1.36853E+07-1.68231E+02-9.47009E+07
 -1      1055 5.79885E+08 2.01001E+08 1.44504E+08 1.12527E+08 3.33859E+07 1.27736E+07
 -1      1056 1.71933E+08 1.06163E+07-9.71740E+07 1.83360E+08 1.15886E+07-1.02080E+08
 -1      1057-1.02064E+08-9.38885E+06-3.64008E+07 5.73613E+07-9.14003E+06 2.50531E+07
 -1      1058-3.10224E+08 3.26107E+07 6.01677E+07-5.72859E+07-2.39235E+06-2.77075E+06
 -1      1059-4.66126E+08-1.32742E+07-4.09060E+07-1.71766E+08 5.66176E+07-1.12567E+08
 -1      1060-2.29850E+08 1.23707E+08 1.90330E+07-3.58698E+08 1.05920E+08 3.84690E+07
 -1      1061-5.15446E+07-1.76166E+07 3.84611E+07 2.92584E+07-1.18101E+08-1.73928E+07
 -1      1062 1.95814E+07-9.88956E+06 4.20884E+07-1.85529E+07 8.60707E+06-1.45876E+07
 -1      1063 3.84716E+07 3.74546E+07-1.61276E+07-6.47488E+07-1.62581E+07 1.65920E+07
 -1      1064-1.16005E+07 1.32002E+06-1.08638E+07-4.07278E+07-1.37910E+06 2.74148E+06
 -1      1065-1.73271E+06-4.03241E+06 6.82246E+06-3.99440E+07 2.79291E+06 4.40508E+05
 -1      1066-5.93269E+05-2.56235E+04-7.77661E+04-3.97154E+07-5.04744E+04 2.48947E+06
 -1      1067 7.03569E+05 4.04448E+06-6.87591E+06-3.98486E+07-2.93052E+06 5.91663E+05
 -1      1068 1.11271E+07-1.04190E+06 1.10939E+07-4.08242E+07 1.20114E+06 2.96130E+06
 -1      1069-3.95977E+07-3.72815E+07 1.64095E+07-6.48282E+07 1.60495E+07 1.74584E+07
 -1      1070-2.07215E+07 8.91381E+06-4.29425E+07-1.80354E+07-8.51967E+06-1.47445E+07
 -1      1071 5.24112E+07 1.75179E+07-3.85772E+07 2.93633E+07 1.17971E+08-1.74036E+07
 -1      1072 2.47017E+08-1.30459E+08-2.01836E+07-3.62197E+08-1.12111E+08 4.27600E+07
 -1      1073 4.96085E+08 6.78703E+06 4.29646E+07-1.77686E+08-6.06930E+07-1.16295E+08
 -1      1074 3.40498E+08-4.92386E+07-6.13068E+07-7.31108E+07-1.83494E+06-8.67708E+06
 -1      1075 1.15459E+08-5.16054E+06 4.04565E+07 3.55763E+07 1.19431E+07 2.98051E+07
 -1      1076-1.97366E+08-3.44304E+07 9.71022E+07 1.59724E+08-1.53112E+07-1.03620E+08
 -1      1077-6.28121E+08-2.20277E+08-1.56549E+08 9.86751E+07-2.42133E+07 8.85566E+06
 -1      1078-7.97546E+08-3.10157E+08-3.10157E+08 1.03976E+07 2.13371E+02-1.09142E+08
 -1      1079 9.70975E+08 3.77601E+08 3.77602E+08 1.30417E+07 1.56071E+02-1.36802E+08
 -1      1080 1.33571E+08 3.86733E+07-1.37515E+08 2.14396E+08-1.90652E+07-1.15821E+08
 -1      1081-4.92747E+08 1.97488E+07 8.52552E+07-1.23019E+07 1.92954E+07-4.99973E+07
 -1      1082-5.20894E+08 2.36761E+08 4.21410E+07-3.28098E+08 7.59322E+07 1.41231E+08
 -1      1083 1.40934E+08 2.16526E+08-1.98907E+07-1.24360E+08-1.01212E+08 1.66361E+07
 -1      1084-1.22375E+07 1.83094E+07 4.10674E+07-1.93631E+07 1.39330E+07-9.70643E+06
 -1      1085 1.85041E+06 2.60628E+06-1.08615E+07-2.71918E+07-3.23125E+06 1.59795E+07
 -1      1086-2.90194E+06-2.54942E+06 1.08864E+07-2.72048E+07 3.22972E+06 1.62333E+07
 -1      1087 1.28176E+07-1.78149E+07-4.10516E+07-1.95963E+07-1.38357E+07-9.73478E+06
 -1      1088-1.42777E+08-2.14427E+08 2.03265E+07-1.25543E+08 1.03037E+08 1.75983E+07
 -1      1089 5.37220E+08-2.55138E+08-4.39385E+07-3.34369E+08-7.72437E+07 1.48193E+08
 -1      1090 5.12827E+08-3.39818E+07-8.76263E+07-2.39027E+07-2.31990E+07-5.30782E+07
 -1      1091-1.44990E+08-4.68891E+07 1.42062E+08 1.95502E+08 1.72222E+07-1.20809E+08
 -1      1092-1.00657E+09-3.91445E+08-3.91445E+08 1.13318E+07-1.22053E+02-1.40840E+08
 -1      1093 1.20822E+09 4.69863E+08 4.69864E+08 1.87054E+07-3.20903E+01-2.17596E+08
 -1      1094 9.17005E+08 3.50278E+08 2.43240E+08 1.41782E+08 2.91492E+07 2.09912E+07
 -1      1095 1.21643E+08 7.20108E+07-1.68975E+08 2.47957E+08-6.05985E+04-1.64402E+08
 -1      1096-3.94550E+08-2.33956E+07-7.98786E+07 1.47787E+08-2.59643E+07 1.34745E+07
 -1      1097-6.37856E+08-3.03870E+07 1.10382E+08 2.03623E+07-1.12310E+07-7.58659E+07
 -1      1098-9.87603E+08-1.31649E+08-6.73241E+07-3.19749E+07 1.92821E+07-7.28938E+06
 -1      1099-8.57922E+08-3.43425E+06-4.65365E+07 5.13915E+07-4.69442E+07 1.10421E+08
 -1      1100 4.49499E+08 5.02157E+08 1.54072E+08-5.51284E+07-1.14008E+08 1.21667E+08
 -1      1101 9.73686E+08 9.48074E+08 2.95081E+08-4.41516E+08-4.45659E+08 4.54916E+08
 -1      1102 2.24763E+08 1.39371E+08-2.01955E+07-1.23836E+08-1.58183E+07 9.74767E+07
 -1      1103-1.76175E+07-4.88114E+07 3.89814E+07 2.92664E+07 1.71588E+07 1.16971E+08
 -1      1104-1.90428E+07-3.61958E+07-7.69874E+06 4.11373E+06-1.94155E+06 1.19963E+08
 -1      1105-4.60163E+06 2.33407E+07-2.09690E+06-8.93666E+06-1.26513E+06 1.15264E+08
 -1      1106-6.46435E+05 9.84638E+02-2.18773E+04-2.05070E+07-1.64246E+02 1.21126E+08
 -1      1107 3.95202E+06-2.30800E+07 2.18288E+06-9.22624E+06 1.30944E+06 1.15308E+08
 -1      1108 1.85846E+07 3.61051E+07 7.81315E+06 4.44960E+06 1.88860E+06 1.20337E+08
 -1      1109 1.70277E+07 4.81220E+07-3.99049E+07 2.96361E+07-1.72245E+07 1.17639E+08
 -1      1110-2.30511E+08-1.39853E+08 2.06558E+07-1.24681E+08 1.56929E+07 9.66528E+07
 -1      1111-9.93431E+08-9.45366E+08-2.97246E+08-4.41984E+08 4.45560E+08 4.63432E+08
 -1      1112-4.64928E+08-5.10202E+08-1.57540E+08-4.05500E+07 1.10111E+08 1.27340E+08
 -1      1113 8.76531E+08-1.88120E+07 4.71387E+07 5.80792E+07 4.47707E+07 1.14572E+08
 -1      1114 1.01224E+09 1.18909E+08 6.99384E+07-3.63704E+07-1.80909E+07-7.14082E+06
 -1      1115 6.50770E+08 2.03898E+07-1.12622E+08 9.90981E+06 1.26052E+07-7.68393E+07
 -1      1116 3.99058E+08 1.48006E+07 8.03931E+07 1.35257E+08 2.58775E+07 1.37705E+07
 -1      1117-1.24758E+08-7.59567E+07 1.73372E+08 2.34490E+08 2.31943E+06-1.67040E+08
 -1      1118-9.35824E+08-3.58764E+08-2.47699E+08 1.34710E+08-2.81419E+07 2.31563E+07
 -1      1119-1.23300E+09-4.79499E+08-4.79499E+08 1.85114E+07 6.71307E+00-2.20012E+08
 -1      1120 1.50812E+09 5.86492E+08 5.86492E+08 1.24463E+07 1.24485E+02-2.50141E+08
 -1      1121 1.41158E+08 4.92238E+07-1.76671E+08 2.99804E+08 1.83098E+07-2.38945E+08
 -1      1122-7.89699E+08-5.63555E+06 1.48413E+08-5.56064E+07-4.31839E+06-6.96852E+07
 -1      1123-6.41219E+08-1.11928E+08-3.12301E+06 1.48729E+08-7.44596E+07 2.16475E+08
 -1      1124 5.11480E+08 4.32612E+08 1.51859E+08-6.84070E+07-1.17042E+08 1.20402E+08
 -1      1125-5.24615E+08-4.34189E+08-1.51912E+08-6.74933E+07 1.19040E+08 1.23230E+08
 -1      1126 6.47120E+08 9.55055E+07 2.56776E+06 1.57680E+08 7.27899E+07 2.20666E+08
 -1      1127 7.97669E+08-3.69679E+06-1.50075E+08-6.25974E+07 4.91842E+06-7.20377E+07
 -1      1128-1.43026E+08-5.05846E+07 1.79021E+08 2.89215E+08-1.83634E+07-2.41049E+08
 -1      1129-1.51867E+09-5.90596E+08-5.90596E+08 1.20503E+07-1.15904E+02-2.49794E+08
 -1      1130 1.82295E+09 7.08926E+08 7.08927E+08-1.48615E+06-2.04085E+02-3.47604E+08
 -1      1131 1.36231E+09 4.74536E+08 3.95939E+08 1.80548E+08-7.47885E+07 1.00736E+07
 -1      1132 1.34207E+08 1.83050E+06-1.98667E+08 3.43379E+08-2.20535E+07-3.56990E+08
 -1      1133-9.37924E+08-1.97512E+08-2.13939E+08 1.85890E+08 1.40025E+07-1.17067E+07
 -1      1134-9.80627E+08-1.49893E+08 1.28178E+08-2.01249E+08-2.64789E+07-4.02255E+07
 -1      1135-8.21664E+08-3.64908E+08 5.57484E+05-1.19199E+08-3.86733E+07 3.56269E+06
 -1      1136-3.69415E+08-3.63718E+08 1.55957E+07 3.59029E+07-6.78995E+06 4.99998E+06
 -1      1137-1.22371E+08-6.25767E+08-1.81559E+06 1.45714E+08-2.10884E+08 8.20296E+07
 -1      1138-1.88207E+07-8.28117E+08-4.26900E+07 4.78612E+07-1.02913E+08 4.64955E+07
 -1      1139 2.29773E+08-4.92107E+08 4.02558E+07-3.10691E+08-1.34418E+08-7.16392E+07
 -1      1140 1.10696E+08-2.18018E+08 2.91551E+06-3.30706E+08-2.83393E+07-1.05597E+08
 -1      1141-1.12555E+08 2.13724E+08-1.99274E+06-3.25936E+08 2.86354E+07-1.05246E+08
 -1      1142-2.32369E+08 4.84441E+08-4.00344E+07-3.03975E+08 1.32116E+08-6.98609E+07
 -1      1143 2.08280E+07 8.16500E+08 4.35432E+07 5.24671E+07 1.00441E+08 4.68489E+07
 -1      1144 1.21492E+08 6.15304E+08 1.99243E+06 1.50992E+08 2.10252E+08 8.64592E+07
 -1      1145 3.66821E+08 3.52274E+08-1.63658E+07 4.20094E+07 7.73137E+06 3.84766E+06
 -1      1146 8.26727E+08 3.55784E+08 1.33471E+05-1.17805E+08 3.98893E+07 2.36988E+06
 -1      1147 9.86483E+08 1.41280E+08-1.28454E+08-2.04501E+08 2.77829E+07-3.89730E+07
 -1      1148 9.38808E+08 1.91874E+08 2.12922E+08 1.81260E+08-1.32676E+07-1.03665E+07
 -1      1149-1.37567E+08-3.48329E+06 1.97397E+08 3.35870E+08 2.18382E+07-3.55029E+08
 -1      1150-1.36463E+09-4.74769E+08-3.96587E+08 1.75208E+08 7.64572E+07 1.14381E+07
 -1      1151-1.82215E+09-7.08614E+08-7.08615E+08-2.30661E+06 2.00353E+02-3.45462E+08
 -1      1152-4.72428E+08-2.17357E+08 2.94277E+07-4.96488E+08-1.77179E+08-8.65636E+07
 -1      1153-3.69297E+08-8.01678E+08 2.55299E+06-1.15247E+08-5.86395E+06 3.82764E+07
 -1      1154-1.35391E+08-9.59012E+08-7.00748E+07-2.28624E+07 3.96156E+06-1.78870E+07
 -1      1155 8.12539E+06-4.22158E+08-3.69251E+07-1.46652E+08 9.89126E+07-5.35018E+07
 -1      1156-1.05726E+07 4.14666E+08 3.65940E+07-1.42740E+08-9.69851E+07-5.38244E+07
 -1      1157 1.33659E+08 9.47165E+08 6.97050E+07-1.71891E+07-3.65886E+06-1.88365E+07
 -1      1158 3.67593E+08 7.90061E+08-2.50692E+06-1.08993E+08 5.83763E+06 3.78451E+07
 -1      1159 4.74067E+08 2.13273E+08-2.90933E+07-4.97281E+08 1.74910E+08-8.63758E+07
 -1      1160-7.95916E+07-8.06515E+07-4.44555E+07-6.41926E+08-9.26956E+07 8.82709E+07
 -1      1161-2.20685E+08-4.61255E+08 2.92525E+07-4.89358E+08 8.55268E+07 1.79385E+08
 -1      1162-1.58527E+08-9.60632E+08 1.26615E+08-1.94831E+08 4.58417E+07 2.54229E+07
 -1      1163-6.58330E+06-7.60245E+08 1.44410E+08-4.96735E+07 6.35304E+07 3.29799E+06
 -1      1164-1.84152E+07-5.91169E+08 1.07579E+08 3.39251E+07 6.24256E+07 2.15352E+07
 -1      1165 2.97175E+07-4.88854E+08 7.30946E+07 8.37924E+06 6.80626E+07-2.70618E+07
 -1      1166 9.58088E+07-4.09476E+08 3.72156E+07-2.85450E+07 2.06679E+07 1.15894E+07
 -1      1167-9.58315E+07 4.03343E+08-3.66817E+07-2.40923E+07-1.95434E+07 1.14926E+07
 -1      1168-3.01582E+07 4.82927E+08-7.20887E+07 1.27668E+07-6.67705E+07-2.64288E+07
 -1      1169 1.68310E+07 5.83948E+08-1.06725E+08 3.85912E+07-6.20831E+07 2.26674E+07
 -1      1170 6.81863E+06 7.50726E+08-1.43154E+08-4.52849E+07-6.24100E+07 2.54727E+06
 -1      1171 1.58891E+08 9.47836E+08-1.25705E+08-1.89279E+08-4.47963E+07 2.51411E+07
 -1      1172 2.17338E+08 4.52620E+08-2.96410E+07-4.83439E+08-8.46413E+07 1.78790E+08
 -1      1173 7.64223E+07 7.87081E+07 4.45658E+07-6.38921E+08 9.60972E+07 8.74479E+07
 -1      1174-2.02159E+08-9.21532E+08-2.15375E+08 1.98052E+08 9.10840E+06-1.31157E+07
 -1      1175-1.34234E+07-3.60618E+08-6.32443E+07 1.54627E+08 7.24150E+06 2.21562E+07
 -1      1176 7.92914E+07-5.46082E+07-2.53184E+07 4.12029E+07-5.17401E+07 2.83187E+07
 -1      1177-7.94442E+07 5.59196E+07 2.50712E+07 4.48102E+07 5.22427E+07 2.79928E+07
 -1      1178 1.22212E+07 3.56236E+08 6.23274E+07 1.56859E+08-6.82400E+06 2.24322E+07
 -1      1179 2.01022E+08 9.10946E+08 2.13478E+08 1.98670E+08-9.73276E+06-1.24532E+07
 -1      1180-2.70465E+06 1.37808E+08-2.03633E+08 3.52136E+08 3.60653E+08 1.94714E+07
 -1      1181 4.01299E+07 1.32984E+08-1.69904E+08 3.12423E+08 2.29413E+08-1.83801E+07
 -1      1182 4.85261E+07 9.70285E+07-1.54534E+08 2.64995E+08 1.48590E+08 2.97419E+06
 -1      1183 1.22468E+07 1.59156E+08-1.44402E+08 2.29175E+08 1.17179E+08 1.95998E+07
 -1      1184 6.57356E+07 3.21478E+08-8.10822E+07 2.27509E+08 8.74579E+07 7.84563E+06
 -1      1185 1.30491E+08 2.36076E+08-3.70390E+07 2.33688E+08 6.17205E+07 6.15826E+07
 -1      1186 6.75054E+07 6.34878E+07-5.31757E+07 1.63019E+08 1.91404E+07 4.01918E+07
 -1      1187 2.18203E+06 1.42537E+06-4.07074E+05 1.45531E+08 7.74054E+05 1.16653E+07
 -1      1188-6.42010E+07-6.03916E+07 5.21335E+07 1.60230E+08-1.87207E+07 3.99657E+07
 -1      1189-1.29759E+08-2.31008E+08 3.55454E+07 2.30147E+08-6.04636E+07 6.01163E+07
 -1      1190-6.70444E+07-3.14608E+08 7.92385E+07 2.26421E+08-8.52916E+07 7.49659E+06
 -1      1191-1.39282E+07-1.55934E+08 1.42120E+08 2.29453E+08-1.15583E+08 1.95701E+07
 -1      1192-4.87535E+07-9.61160E+07 1.52698E+08 2.65427E+08-1.46679E+08 2.83140E+06
 -1      1193-4.01041E+07-1.32223E+08 1.68301E+08 3.12284E+08-2.26987E+08-1.80703E+07
 -1      1194 1.82864E+06-1.37527E+08 2.01848E+08 3.51239E+08-3.57732E+08 1.91807E+07
 -1      1195 4.65242E+08 1.34081E+09 3.84963E+08 1.83517E+08-7.16979E+06 7.03289E+07
 -1      1196 3.33516E+08 8.82465E+08 2.42831E+08 1.54686E+08-2.74616E+07-3.22954E+07
 -1      1197 1.64599E+08 4.99239E+08 9.11237E+07 1.47296E+08-4.33246E+06-1.47447E+07
 -1      1198 5.80225E+07 1.10165E+08 2.16563E+06 8.84550E+07-9.48394E+06-2.11273E+07
 -1      1199-5.56378E+07-1.05815E+08-1.69695E+06 8.70753E+07 9.25958E+06-2.16856E+07
 -1      1200-1.62246E+08-4.89017E+08-8.93033E+07 1.45895E+08 4.03650E+06-1.48132E+07
 -1      1201-3.29548E+08-8.71586E+08-2.39687E+08 1.54869E+08 2.68312E+07-3.19387E+07
 -1      1202-4.61770E+08-1.32991E+09-3.81749E+08 1.83456E+08 6.76758E+06 6.94733E+07
 -1      1203 6.99111E+08 1.79771E+09 6.99111E+08-4.40796E+05 3.47629E+08 2.13331E+02
 -1      1204 5.75129E+08 1.47890E+09 5.75129E+08 1.32801E+07 2.47467E+08-1.31890E+02
 -1      1205 4.55624E+08 1.17160E+09 4.55624E+08 2.02159E+07 2.03692E+08 6.96458E+01
 -1      1206 3.38457E+08 8.70317E+08 3.38457E+08 1.66247E+07 1.22771E+08-2.62456E+02
 -1      1207 2.25926E+08 5.80952E+08 2.25926E+08 2.00512E+07 5.33277E+07 1.17082E+02
 -1      1208 1.34503E+08 3.45865E+08 1.34503E+08 1.63936E+07 7.02515E+06-2.29669E+02
 -1      1209 6.32133E+07 1.62548E+08 6.32133E+07 8.07657E+06 3.85139E+07-1.02773E+02
 -1      1210 1.00279E+06 2.57861E+06 1.00279E+06 5.25419E+06-9.69287E+03 5.26917E+01
 -1      1211-6.09064E+07-1.56616E+08-6.09065E+07 8.04123E+06-3.69171E+07-1.04682E+02
 -1      1212-1.31124E+08-3.37177E+08-1.31124E+08 1.60307E+07-6.12686E+06-2.24911E+02
 -1      1213-2.21213E+08-5.68833E+08-2.21213E+08 1.97385E+07-5.28939E+07 1.20956E+02
 -1      1214-3.33145E+08-8.56658E+08-3.33145E+08 1.65542E+07-1.20459E+08-2.64420E+02
 -1      1215-4.49876E+08-1.15682E+09-4.49876E+08 2.01867E+07-2.01350E+08 7.28884E+01
 -1      1216-5.69623E+08-1.46474E+09-5.69623E+08 1.33269E+07-2.45367E+08-1.33952E+02
 -1      1217-6.93681E+08-1.78375E+09-6.93681E+08-1.78258E+05-3.45580E+08 2.14726E+02
 -1      1218-5.86541E+08-4.95769E+08-4.68458E+08-2.42134E+08-4.60980E+08-5.56145E+08
 -1      1219-1.66880E+07 2.26446E+07-1.35672E+07-4.95311E+06-1.00124E+06-9.47190E+07
 -1      1220-1.77399E+07-2.75019E+07-3.77415E+07-2.22726E+07-1.60766E+07-1.14877E+08
 -1      1221 1.41271E+07 2.93457E+07 3.29445E+07-1.95583E+07 2.03635E+07-1.10285E+08
 -1      1222 1.03197E+06-3.98197E+07-4.58243E+06-4.25330E+06 3.89169E+06-1.01759E+08
 -1      1223 4.78620E+08 5.72729E+08 4.55193E+08-2.35072E+08 5.42952E+08-4.44113E+08
 -1      1224 4.03830E+07-2.42498E+06 3.71738E+06-4.12233E+06-1.03658E+08-4.07560E+06
 -1      1225-1.94298E+07-1.20103E+07 4.64760E+07-9.97431E+07 1.88667E+07 2.49141E+07
 -1      1226-3.31152E+06 4.48546E+05-9.19312E+06-7.71637E+07-2.77020E+06-5.55612E+06
 -1      1227 5.07027E+05-5.83338E+04 9.85267E+06-7.74086E+07 3.76417E+06-3.77929E+06
 -1      1228 1.06229E+07 1.84025E+07-4.53069E+07-9.80112E+07-2.45350E+07 1.83507E+07
 -1      1229-2.11567E+07 1.62094E+07 1.37479E+07-5.12083E+06 9.25965E+07-7.82734E+05
 -1      1230-2.99136E+07-1.62799E+07-3.32318E+07-1.99382E+07-1.12734E+08-2.10563E+07
 -1      1231-2.23689E+05-2.07954E+06-9.51008E+06-7.79799E+07-4.60356E+06-3.97661E+06
 -1      1232-1.82913E+06 1.87146E+05-2.41168E+05-7.16547E+07 1.15414E+05 1.59222E+05
 -1      1233-1.31227E+06 7.99602E+05 1.45515E+05-7.13450E+07-4.12400E+04 2.86571E+05
 -1      1234-6.34452E+05 2.27741E+06 8.99859E+06-7.62807E+07 5.39157E+06-2.19064E+06
 -1      1235 2.61617E+07 1.59795E+07 3.69218E+07-2.19896E+07 1.13068E+08-1.50572E+07
 -1      1236 2.71035E+07 1.46180E+07 3.28687E+07-2.10484E+07-1.12220E+08 1.69681E+07
 -1      1237-1.15182E+06 1.61249E+06 9.03384E+06-7.72906E+07-4.82574E+06 3.03514E+06
 -1      1238-1.03840E+06 1.96051E+05 1.29525E+05-7.14580E+07 4.15165E+04-1.33900E+05
 -1      1239-1.17423E+06 3.11213E+05-7.49435E+04-7.12251E+07-1.04251E+05 2.11684E+05
 -1      1240-4.94321E+05-1.33392E+06-9.36749E+06-7.65918E+07 4.18930E+06 3.27357E+06
 -1      1241-2.64123E+07-1.39541E+07-3.32080E+07-2.03806E+07 1.09860E+08 1.71960E+07
 -1      1242-2.86488E+07 9.23202E+06 3.14176E+06-6.34927E+06-9.76373E+07 1.87692E+06
 -1      1243 1.28264E+07 1.23998E+07-4.31447E+07-9.68076E+07 1.89531E+07-1.99172E+07
 -1      1244 7.44199E+05-9.87229E+04 8.92496E+06-7.66469E+07-2.85055E+06 4.73005E+06
 -1      1245-2.70055E+06 1.87547E+05-8.93392E+06-7.65395E+07 2.69280E+06 4.99791E+06
 -1      1246-1.41813E+07-1.22078E+07 4.36053E+07-9.67780E+07-1.88227E+07-1.98636E+07
 -1      1247 2.97243E+07-8.62758E+06-1.93776E+06-6.19228E+06 9.79838E+07 2.62744E+06
 -1      1248 4.96570E+08 4.86216E+08 4.37701E+08-2.17893E+08-4.58457E+08 4.69207E+08
 -1      1249 1.04527E+07-2.64496E+07 5.00648E+06-6.43483E+06-1.96869E+06 9.62431E+07
 -1      1250 1.34125E+07 2.57532E+07 3.32905E+07-2.09545E+07-1.61901E+07 1.11063E+08
 -1      1251-1.53711E+07-2.58282E+07-3.37018E+07-2.10831E+07 1.60329E+07 1.11568E+08
 -1      1252-1.22909E+07 2.57647E+07-6.00650E+06-6.39702E+06 1.80594E+06 9.64477E+07
 -1      1253-5.05215E+08-4.85713E+08-4.41775E+08-2.19725E+08 4.57591E+08 4.78250E+08
 -1      1254-2.08751E+08-1.60037E+08-2.32409E+08-9.16467E+07-2.67255E+08-3.25865E+08
 -1      1255-1.18517E+08-3.20665E+07 4.80772E+06-7.54386E+07-1.67176E+07-1.03661E+08
 -1      1256-6.81606E+07-8.98191E+06-6.56468E+06-4.53610E+07-7.43258E+06-8.00738E+07
 -1      1257 1.12963E+06 1.48517E+07 2.10096E+07-3.29485E+07 5.07413E+06-7.83817E+07
 -1      1258-1.70507E+07-1.10148E+07-2.23081E+07-3.40973E+07-4.87344E+06-8.64186E+07
 -1      1259-3.58709E+06-3.44078E+05-9.68120E+05-3.62479E+07 6.26472E+05-8.58763E+07
 -1      1260 8.98737E+06 1.00458E+07 1.90874E+07-3.42771E+07 7.62604E+06-8.38283E+07
 -1      1261-3.57688E+06-1.23602E+07-1.64784E+07-3.44057E+07-8.19888E+06-8.10111E+07
 -1      1262 4.39904E+07-3.26148E+05-4.55759E+06-4.21845E+07 9.57828E+06-8.59115E+07
 -1      1263 7.25549E+07 3.42837E+07 8.53122E+06-7.11763E+07 2.12725E+07-1.03728E+08
 -1      1264 1.54214E+08 2.04657E+08 2.25935E+08-8.90073E+07 3.18140E+08-2.57317E+08
 -1      1265-3.52343E+07-7.66028E+07-8.42596E+06-7.31941E+07-1.06336E+08-2.19687E+07
 -1      1266-3.81359E+07-1.63587E+07-2.88869E+07-9.61953E+07-1.23705E+07-2.02575E+07
 -1      1267-6.75800E+06 2.30368E+03 5.05581E+06-8.01313E+07 1.93501E+06-6.39195E+06
 -1      1268-5.27125E+05 5.33359E+04-5.56432E+06-8.02674E+07-1.59012E+06-7.49966E+06
 -1      1269 3.36748E+07 1.73068E+07 2.57641E+07-9.21558E+07 1.91080E+07-1.51382E+07
 -1      1270 3.10132E+07 1.16123E+08-5.16194E+06-7.35154E+07 1.00990E+08-1.58217E+07
 -1      1271 5.05997E+04-4.73188E+07 4.10632E+06-4.31652E+07-8.76450E+07-9.85130E+06
 -1      1272-1.81713E+07-3.60523E+07-2.65308E+07-9.38449E+07-1.60250E+07-1.94513E+07
 -1      1273-6.35417E+06-1.61414E+06 2.93728E+07-1.31236E+08 1.38856E+07 1.64550E+07
 -1      1274-7.53972E+06-3.00314E+06 4.22175E+06-1.17666E+08 2.92537E+06 4.02597E+06
 -1      1275-5.89077E+06-1.99178E+06-5.27141E+06-1.15068E+08-3.02781E+06-3.05047E+06
 -1      1276-2.88629E+06 2.28835E+05-1.15610E+05-1.14126E+08 4.08211E+05-3.47928E+06
 -1      1277 1.08165E+06 2.97326E+06 5.45805E+06-1.14802E+08 3.66264E+06-2.17184E+06
 -1      1278 2.26589E+06 5.32178E+06-4.73147E+06-1.16081E+08-3.06702E+06 2.97033E+06
 -1      1279 3.29514E+05 5.36733E+06-2.86025E+07-1.29178E+08-1.62376E+07 1.36485E+07
 -1      1280 1.53697E+07 3.60561E+07 2.81352E+07-9.45804E+07 1.97118E+07-1.16983E+07
 -1      1281 9.17939E+06 6.60159E+07 6.74086E+06-4.44867E+07 7.82405E+07-7.05481E+06
 -1      1282 1.30203E+07 1.82520E+06 1.74303E+07-3.47958E+07-8.22030E+07 8.07875E+06
 -1      1283-6.23773E+06-4.21221E+06 4.91416E+06-1.17492E+08 2.97464E+06 3.02823E+06
 -1      1284-3.33316E+06-2.15514E+05 2.94443E+05-1.05516E+08-2.96135E+05 1.22601E+06
 -1      1285-1.34104E+06 1.54245E+06-2.76587E+05-1.04958E+08 5.23590E+05 1.53926E+06
 -1      1286 2.00764E+06 6.17182E+06-4.06604E+06-1.16106E+08-3.88134E+06 3.12885E+06
 -1      1287-1.43295E+07-2.24827E+06-2.03930E+07-3.24347E+07 7.70400E+07 5.07074E+06
 -1      1288-1.00378E+07-1.19106E+07-1.89661E+07-3.44441E+07-8.54614E+07-8.12529E+06
 -1      1289-6.01850E+05-2.51166E+06 5.33288E+06-8.09330E+07-7.62729E+06 1.68291E+06
 -1      1290-3.69948E+06-3.41377E+06-5.30752E+06-1.15792E+08-2.70434E+06-3.77974E+06
 -1      1291-2.70811E+06-6.48684E+05 3.17924E+05-1.05610E+08 1.29692E+06-4.45343E+05
 -1      1292-3.23855E+06-2.86500E+05-3.98737E+05-1.06173E+08-5.43392E+04-6.51367E+04
 -1      1293-2.13559E+06 8.03310E+05 1.40131E+04-1.05430E+08 7.48574E+03 4.55894E+04
 -1      1294-1.36158E+06 1.75382E+06 3.33913E+05-1.05684E+08 1.33996E+05 9.83040E+04
 -1      1295-8.85626E+05 1.83100E+06-2.52131E+05-1.04665E+08-1.17279E+06-1.96955E+05
 -1      1296 1.31891E+06 4.27819E+06 5.15419E+06-1.13762E+08 2.98261E+06-2.62008E+06
 -1      1297-3.87731E+05 5.02848E+06-5.05594E+06-7.91655E+07 6.36240E+06 1.78887E+06
 -1      1298 1.07769E+07 1.51791E+07 2.19530E+07-3.36849E+07 8.50685E+07-4.36245E+06
 -1      1299 1.28326E+04-1.32504E+05-1.30250E+04-3.63546E+07-8.62402E+07-5.88216E+05
 -1      1300-1.21705E+06-1.93145E+05-1.21541E+05-1.14531E+08-3.40100E+06-4.89320E+05
 -1      1301-2.08635E+06 2.54240E+05-3.56373E+04-1.05493E+08-1.46856E+04 5.30552E+04
 -1      1302-1.85073E+06 7.52180E+05-1.77617E+04-1.05079E+08 1.19854E+05 2.01042E+05
 -1      1303-6.58425E+05 1.29902E+06 1.24858E+05-1.12968E+08 3.58359E+06 4.05150E+05
 -1      1304 3.57608E+05 1.80012E+06 7.66069E+05-3.58877E+07 8.50354E+07 4.36117E+05
 -1      1305 9.91006E+06 1.12648E+07 1.90456E+07-3.43794E+07-8.53950E+07 5.89001E+06
 -1      1306-5.68921E+05 1.83674E+06-5.05702E+06-8.02248E+07-7.47514E+06-1.77742E+06
 -1      1307 1.15449E+06 2.86279E+06 5.12936E+06-1.14828E+08-2.68993E+06 3.02543E+06
 -1      1308-8.01539E+05 7.37723E+05-2.87236E+05-1.05131E+08 1.14788E+06 4.81520E+05
 -1      1309-1.03193E+06 8.25277E+05 2.87160E+05-1.05821E+08-1.67704E+05 9.41232E+04
 -1      1310-1.69438E+06 3.80261E+05 5.77405E+03-1.05134E+08-3.56846E+04 1.83356E+05
 -1      1311-2.31444E+06-1.03492E+05-2.93882E+05-1.05465E+08 8.78098E+04 3.35722E+05
 -1      1312-1.86887E+06-6.06130E+04 2.03266E+05-1.04454E+08-1.31594E+06 5.37236E+05
 -1      1313-3.05666E+06-2.39092E+06-5.26922E+06-1.13743E+08 2.34659E+06 3.37682E+06
 -1      1314-1.23246E+05-1.48202E+06 5.35862E+06-7.93977E+07 7.33158E+06-1.39996E+06
 -1      1315-9.83865E+06-1.07686E+07-1.94821E+07-3.39517E+07 8.35508E+07 5.97652E+06
 -1      1316-1.23897E+07-2.59317E+06-1.72708E+07-3.37537E+07-7.97747E+07-6.39096E+06
 -1      1317 2.66519E+06 3.92266E+06-4.27630E+06-1.16089E+08 2.93030E+06-2.91025E+06
 -1      1318-8.13578E+05 7.01455E+05-2.31800E+05-1.04757E+08-3.81279E+05-1.20234E+06
 -1      1319-2.23706E+06-2.76507E+05 2.14074E+05-1.04514E+08 3.99699E+05-1.01071E+06
 -1      1320-4.41568E+06-3.64240E+06 4.35111E+06-1.15447E+08-3.00606E+06-2.56619E+06
 -1      1321 1.25031E+07 2.62760E+06 1.70599E+07-3.35634E+07 7.91391E+07-6.53561E+06
 -1      1322 4.07619E+06 5.18035E+07 5.52160E+05-4.33542E+07-8.20845E+07 7.38179E+06
 -1      1323 1.53105E+07 3.30906E+07 2.56350E+07-9.29534E+07-1.62960E+07 1.45748E+07
 -1      1324 1.95633E+06 2.13182E+06-2.72884E+07-1.28612E+08 1.33125E+07-1.38274E+07
 -1      1325 3.15056E+06 3.26136E+06-4.20376E+06-1.15727E+08 2.74958E+06-3.07807E+06
 -1      1326 1.57991E+06 2.16056E+06 5.05463E+06-1.13969E+08-3.01665E+06 2.64175E+06
 -1      1327-1.48232E+06 8.58523E+04-3.42707E+04-1.13147E+08-5.14906E+04 3.56093E+06
 -1      1328-4.50678E+06-2.03134E+06-5.09745E+06-1.13851E+08 2.90399E+06 2.83839E+06
 -1      1329-5.51513E+06-3.12473E+06 4.23427E+06-1.15603E+08-2.80384E+06-3.06658E+06
 -1      1330-3.65626E+06-2.04360E+06 2.75772E+07-1.28462E+08-1.33336E+07-1.36735E+07
 -1      1331-1.62533E+07-3.36692E+07-2.58722E+07-9.27321E+07 1.60245E+07 1.51002E+07
 -1      1332-3.41122E+06-5.12001E+07 2.58277E+05-4.31745E+07 8.23794E+07 7.98768E+06
 -1      1333 3.06735E+07 8.69527E+07 2.49872E+06-6.94722E+07-1.01322E+08 1.79539E+07
 -1      1334 3.27987E+07 1.54582E+07 2.59537E+07-9.31243E+07-1.37627E+07 1.65465E+07
 -1      1335 1.16872E+06-1.57219E+05-5.13000E+06-7.94839E+07 1.51836E+06 7.21926E+06
 -1      1336-4.13361E+06 1.83656E+05 5.09324E+06-7.94171E+07-1.53273E+06 7.27780E+06
 -1      1337-3.46741E+07-1.55785E+07-2.62990E+07-9.32872E+07 1.35133E+07 1.72404E+07
 -1      1338-3.10020E+07-8.55986E+07-3.10913E+06-6.97831E+07 1.01917E+08 1.87253E+07
 -1      1339 1.73178E+08 1.67658E+08 2.18258E+08-8.34091E+07-2.68686E+08 2.75283E+08
 -1      1340 9.14182E+07 3.02273E+07 9.64972E+05-6.96822E+07-1.74732E+07 1.00837E+08
 -1      1341 5.35060E+07 5.01054E+06 1.66586E+06-4.34719E+07-7.37730E+06 8.09189E+07
 -1      1342-3.42473E+06-1.26752E+07-1.76450E+07-3.33244E+07 6.03981E+06 7.86985E+07
 -1      1343 1.04983E+07 9.79670E+06 1.94666E+07-3.39572E+07-5.46600E+06 8.43179E+07
 -1      1344-1.46568E+06-4.90500E+04-8.69154E+04-3.59378E+07-2.69927E+04 8.52334E+07
 -1      1345-1.35091E+07-9.96633E+06-1.97512E+07-3.39290E+07 5.33005E+06 8.46232E+07
 -1      1346 1.32688E+06 1.28913E+07 1.79829E+07-3.32609E+07-5.92393E+06 7.87047E+07
 -1      1347-5.64687E+07-5.51522E+06-2.26071E+06-4.37473E+07 7.31200E+06 8.11348E+07
 -1      1348-9.49152E+07-3.03961E+07-3.09558E+05-7.03055E+07 1.75164E+07 1.01491E+08
 -1      1349-1.77008E+08-1.66575E+08-2.20338E+08-8.41713E+07 2.68089E+08 2.80785E+08
 -1      1350-1.26331E+08-8.50030E+07-7.60266E+07-9.27993E+07-9.77164E+07-1.20475E+08
 -1      1351-8.13407E+07-1.01061E+07 1.58849E+06-7.60882E+07-3.29760E+06-3.63927E+07
 -1      1352-7.67938E+06-6.13615E+05 6.66830E+05-5.74645E+07 3.03068E+05-4.30273E+07
 -1      1353-3.19631E+05 1.24910E+06 3.70335E+05-5.78531E+07 2.89051E+05-4.33217E+07
 -1      1354 5.59470E+07 4.21592E+06-4.98232E+06-7.23298E+07 4.60405E+06-4.20118E+07
 -1      1355 8.14553E+07 1.24250E+08 7.39356E+07-9.01327E+07 1.17624E+08-9.40287E+07
 -1      1356-4.42865E+06-6.00042E+07 5.10774E+06-7.39292E+07-4.28512E+07-4.76997E+06
 -1      1357-1.81586E+07-1.28647E+07 2.78656E+06-1.69780E+08-2.28819E+06-2.56065E+06
 -1      1358-6.75229E+06-1.18431E+06-1.63968E+06-1.50555E+08 2.85973E+05-2.99449E+06
 -1      1359-3.18825E+05 2.22623E+06 1.09914E+06-1.50163E+08 1.15146E+04-2.70503E+06
 -1      1360 1.09151E+07 1.65686E+07-2.71692E+06-1.67111E+08 2.40027E+06-2.01542E+06
 -1      1361 1.01084E+07 7.84273E+07-1.39603E+06-7.45706E+07 3.54903E+07-3.07533E+06
 -1      1362-1.06870E+06-3.16736E+06 1.37721E+05-5.83059E+07-4.40312E+07-4.47516E+05
 -1      1363-3.36170E+06-2.96537E+06-1.17592E+06-1.51406E+08-2.87943E+06-9.21919E+04
 -1      1364-3.48799E+06 3.73996E+05 7.26201E+05-1.40472E+08 3.01336E+05 3.44043E+05
 -1      1365-2.46738E+06 1.59347E+06-7.03459E+05-1.39809E+08-3.01085E+05 4.16940E+05
 -1      1366 3.03044E+05 4.63411E+06 1.63167E+06-1.48847E+08 2.93761E+06 4.14206E+05
 -1      1367 6.78186E+05 5.66676E+06-4.61400E+05-5.67366E+07 4.24025E+07 4.26331E+05
 -1      1368 1.02030E+06 2.31268E+06-9.06126E+04-5.77765E+07-4.38468E+07-4.82938E+04
 -1      1369-1.75364E+04 2.35533E+06 1.27343E+06-1.50246E+08-2.94137E+06-2.84987E+05
 -1      1370-2.02616E+06 4.53751E+05-6.85560E+05-1.39991E+08 2.61465E+05-3.19770E+05
 -1      1371-2.42150E+06 4.89627E+05 6.39126E+05-1.39511E+08-3.31929E+05-1.66782E+05
 -1      1372-2.37322E+06-1.60428E+06-1.25904E+06-1.48836E+08 2.79675E+06 2.45586E+04
 -1      1373-1.09633E+06-2.08054E+06-3.26828E+05-5.71086E+07 4.28655E+07 7.79002E+04
 -1      1374 6.56115E+06 6.30433E+07-3.14815E+06-7.30084E+07-3.96126E+07 3.54742E+06
 -1      1375 1.21183E+07 1.24711E+07-2.79818E+06-1.66391E+08-2.38241E+06 2.29069E+06
 -1      1376 7.52585E+05 1.33671E+06 1.33860E+06-1.49120E+08 1.36199E+05 2.86750E+06
 -1      1377-4.64136E+06-1.16016E+06-1.40083E+06-1.48962E+08-2.12730E+05 2.96955E+06
 -1      1378-1.44283E+07-1.25002E+07 2.86034E+06-1.66178E+08 2.32627E+06 2.55509E+06
 -1      1379-6.24523E+06-6.28033E+07 3.39158E+06-7.28632E+07 3.97283E+07 3.81814E+06
 -1      1380 1.00728E+08 9.60441E+07 7.17315E+07-8.61047E+07-1.00011E+08 1.02556E+08
 -1      1381 6.46739E+07 7.16662E+06-2.78980E+06-7.30489E+07-3.47364E+06 3.86467E+07
 -1      1382 1.40442E+06 9.26287E+05-3.75301E+03-5.71166E+07 4.46016E+04 4.30678E+07
 -1      1383-5.17320E+06-9.73131E+05 4.12909E+04-5.70898E+07-1.07449E+05 4.31261E+07
 -1      1384-6.82356E+07-7.49729E+06 2.65974E+06-7.34579E+07 3.43766E+06 3.86389E+07
 -1      1385-1.03587E+08-9.47350E+07-7.23805E+07-8.68717E+07 9.98192E+07 1.04746E+08
 -1      1386-1.06012E+08-7.05759E+07-5.24782E+07-1.04360E+08-4.18459E+07-5.70266E+07
 -1      1387-1.16737E+08-3.08684E+07 5.73134E+06-1.21981E+08 1.23579E+07-2.91571E+07
 -1      1388-1.03789E+08-1.74549E+07-6.70932E+06-1.10520E+08-1.57377E+07-2.05376E+07
 -1      1389-2.22137E+07 3.84832E+06-4.78774E+05-8.24529E+07-4.01395E+06-2.76883E+07
 -1      1390-5.41954E+06 1.66673E+06 2.99594E+06-8.31792E+07 4.10591E+06-1.39322E+07
 -1      1391-5.81141E+06-4.73639E+05-8.64518E+05-8.33442E+07 5.47214E+04-2.00290E+07
 -1      1392-3.78381E+06-8.33342E+05-1.71327E+06-8.36141E+07-3.78977E+06-1.52627E+07
 -1      1393 1.25280E+07-2.39918E+06 9.02929E+05-8.30693E+07 3.87711E+06-2.64486E+07
 -1      1394 7.28812E+07 1.08454E+07 2.17056E+06-1.06712E+08 1.76647E+07-2.16565E+07
 -1      1395 7.21780E+07 2.99287E+07-6.57806E+05-1.17084E+08-1.41437E+07-2.88953E+07
 -1      1396 6.74459E+07 1.04144E+08 5.10246E+07-1.01356E+08 5.58270E+07-4.01172E+07
 -1      1397-3.10151E+07-7.67443E+07 8.06850E+05-1.20182E+08-2.95962E+07 1.43698E+07
 -1      1398-5.50838E+07-1.62294E+07-9.42086E+06-1.70944E+08-9.51053E+06 7.92939E+06
 -1      1399-7.47377E+06 1.48888E+06 4.27719E+06-1.43099E+08 2.33709E+06 1.13927E+07
 -1      1400-2.28609E+06-3.63012E+05-3.42640E+06-1.43010E+08-2.37087E+06 1.04893E+07
 -1      1401 4.29238E+07 1.65752E+07 8.64769E+06-1.66940E+08 1.14715E+07 9.93647E+06
 -1      1402 2.98248E+07 1.13857E+08-5.72517E+06-1.18951E+08 2.84482E+07 1.20891E+07
 -1      1403-1.13056E+07-7.81044E+07-2.29474E+06-1.09004E+08-2.22959E+07-1.81521E+07
 -1      1404-1.77140E+07-4.66880E+07-8.88256E+06-1.69979E+08 9.95041E+06-1.16584E+07
 -1      1405-1.72055E+07-1.14223E+07 6.49895E+06-2.09770E+08-7.92556E+06-6.87253E+06
 -1      1406-1.31180E+07-5.06321E+06 3.33780E+06-1.88753E+08-2.24247E+06-5.92244E+06
 -1      1407-9.56190E+06-2.52510E+06-2.91326E+06-1.86938E+08 1.72716E+06-7.99235E+06
 -1      1408-4.42654E+06 7.49964E+05 7.10392E+04-1.85733E+08 1.73726E+05-6.36318E+06
 -1      1409 4.15852E+05 3.89612E+06 2.35814E+06-1.86440E+08-1.43001E+06-7.28280E+06
 -1      1410 3.68407E+06 7.93697E+06-3.08366E+06-1.87241E+08 1.68841E+06-6.87268E+06
 -1      1411 9.16489E+06 1.53589E+07-6.30785E+06-2.06465E+08 6.65668E+06-7.70486E+06
 -1      1412 1.49703E+07 5.20019E+07 9.19075E+06-1.67911E+08-7.79906E+06-9.23460E+06
 -1      1413 1.72144E+07 9.99157E+07 6.66736E+06-1.08261E+08 1.99869E+07-1.51406E+07
 -1      1414 2.48779E+06-1.65847E+07-8.79541E+05-8.41736E+07-2.67242E+07-4.10472E+06
 -1      1415-9.51113E+06-6.88946E+06 3.21871E+06-1.89472E+08-6.87905E+06-1.83518E+06
 -1      1416-6.86905E+06-1.79299E+06-1.32997E+06-1.73418E+08 1.49903E+06-1.53411E+06
 -1      1417-1.28550E+06 3.81790E+06 1.19376E+06-1.72717E+08-1.36980E+06-1.19748E+06
 -1      1418 3.39810E+06 1.08040E+07-3.24311E+06-1.86243E+08 5.85051E+06-2.10642E+06
 -1      1419-3.72753E+06 1.95149E+07 4.90783E+05-8.11704E+07 2.72690E+07-3.83014E+06
 -1      1420 1.04316E+06-4.43859E+05 2.38410E+06-8.43942E+07-1.53896E+07 3.74948E+06
 -1      1421-3.40169E+05-2.29401E+06 3.58865E+06-1.44257E+08 1.05274E+07 2.45416E+06
 -1      1422-5.37969E+06-4.56015E+06-2.48530E+06-1.87949E+08-7.49944E+06 1.31617E+06
 -1      1423-5.79489E+06-2.06851E+06-1.24207E+06-1.73802E+08-1.30540E+06 1.39196E+06
 -1      1424-4.03289E+06 7.42764E+05 1.27770E+06-1.74488E+08 1.46013E+06 1.60667E+06
 -1      1425-3.66063E+06 1.20068E+06-4.16669E+04-1.73449E+08-9.13627E+04 9.14005E+05
 -1      1426-3.31732E+06 1.69184E+06-1.23232E+06-1.73652E+08-1.58933E+06 1.48592E+06
 -1      1427-9.41665E+04 4.34175E+06 1.27464E+06-1.72022E+08 1.47075E+06 1.46348E+06
 -1      1428 1.36365E+06 6.88141E+06 2.84971E+06-1.84813E+08 7.80564E+06 1.81361E+06
 -1      1429-1.98403E+06 4.79466E+06-4.19958E+06-1.41328E+08-1.12376E+07 2.23537E+06
 -1      1430-1.51443E+06 3.04915E+06-2.67591E+06-8.20919E+07 1.37678E+07 4.04614E+06
 -1      1431 8.65316E+04-5.73988E+05 1.86834E+05-8.38980E+07-2.02341E+07-5.07800E+04
 -1      1432-2.11628E+06-3.49805E+05-2.89503E+04-1.86334E+08-6.32421E+06-1.44777E+05
 -1      1433-3.34872E+06 5.15145E+05 2.91007E+04-1.73574E+08 9.26555E+05 2.08395E+04
 -1      1434-2.96747E+06 1.30141E+06 2.38400E+04-1.72844E+08-9.11932E+05 2.12527E+03
 -1      1435-1.31898E+06 1.89281E+06-3.83367E+04-1.83870E+08 6.37505E+06 1.67922E+05
 -1      1436 3.50894E+05 2.81146E+06 6.17245E+05-8.22961E+07 1.97912E+07 8.88327E+04
 -1      1437-1.08916E+06-7.78319E+05-2.26173E+06-8.34670E+07-1.52387E+07-3.85291E+06
 -1      1438-1.73558E+06 8.76920E+05-3.62713E+06-1.43013E+08 1.06574E+07-2.25406E+06
 -1      1439 1.00569E+06 3.80518E+06 2.50019E+06-1.86574E+08-7.63928E+06-1.62312E+06
 -1      1440-1.37823E+05 2.23002E+06 1.17118E+06-1.72919E+08-1.41795E+06-1.34477E+06
 -1      1441-2.79304E+06 3.26384E+05-1.19428E+06-1.73883E+08 1.48704E+06-1.59048E+06
 -1      1442-2.82399E+06 6.29183E+05-3.93654E+03-1.72948E+08-1.59843E+04-9.27929E+05
 -1      1443-2.75859E+06 8.60456E+05 1.14639E+06-1.73279E+08-1.52667E+06-1.45401E+06
 -1      1444-4.29350E+06-1.04950E+06-1.15948E+06-1.71804E+08 1.27981E+06-1.44618E+06
 -1      1445-3.91854E+06-2.82582E+06-2.42805E+06-1.84820E+08 7.38748E+06-1.52220E+06
 -1      1446 4.46609E+05-6.33084E+05 3.56432E+06-1.41513E+08-1.05924E+07-2.27592E+06
 -1      1447 8.37418E+05 6.66894E+05 1.65522E+06-8.24728E+07 1.48805E+07-3.71458E+06
 -1      1448-3.06994E+06 1.45961E+07 5.76756E+05-8.24322E+07-2.63457E+07 3.57246E+06
 -1      1449 4.14509E+06 6.73199E+06-3.00266E+06-1.86979E+08-6.46445E+06 1.81200E+06
 -1      1450-3.29065E+05 2.35582E+06 1.14854E+06-1.72277E+08 1.44758E+06 1.32544E+06
 -1      1451-4.73687E+06-1.66434E+06-1.18699E+06-1.71874E+08-1.40772E+06 1.43269E+06
 -1      1452-6.94184E+06-6.30230E+06 3.03784E+06-1.85933E+08 6.45008E+06 1.91994E+06
 -1      1453 3.08792E+06-1.46972E+07-6.30021E+05-8.19297E+07 2.63410E+07 3.77779E+06
 -1      1454 1.27998E+07 8.07014E+07 4.19539E+06-1.06559E+08-2.09807E+07 1.57743E+07
 -1      1455 1.42446E+07 4.41445E+07 8.61414E+06-1.66339E+08 9.01731E+06 1.02286E+07
 -1      1456 1.05711E+07 1.11189E+07-6.17665E+06-2.05618E+08-7.33149E+06 7.12668E+06
 -1      1457 5.51532E+06 5.19637E+06-3.04231E+06-1.86258E+08-1.92773E+06 6.31568E+06
 -1      1458 1.82116E+06 2.62717E+06 2.51712E+06-1.85163E+08 1.57823E+06 7.51887E+06
 -1      1459-2.44913E+06 1.63720E+05-7.40333E+03-1.84130E+08-3.18667E+04 6.36668E+06
 -1      1460-6.67860E+06-2.40225E+06-2.57567E+06-1.84964E+08-1.64746E+06 7.59665E+06
 -1      1461-9.49590E+06-5.02049E+06 3.07482E+06-1.85981E+08 1.94754E+06 6.23481E+06
 -1      1462-1.33801E+07-1.11525E+07 6.26110E+06-2.05337E+08 7.37994E+06 7.24818E+06
 -1      1463-1.55927E+07-4.47983E+07-8.73748E+06-1.66167E+08-9.14833E+06 1.03283E+07
 -1      1464-1.26104E+07-8.06957E+07-3.99258E+06-1.06500E+08 2.09352E+07 1.61062E+07
 -1      1465 2.85222E+07 8.69570E+07-2.85327E+06-1.15606E+08-2.83262E+07-1.28295E+07
 -1      1466 4.42402E+07 1.46539E+07 8.72256E+06-1.66266E+08-9.94278E+06-8.84682E+06
 -1      1467-3.03974E+05-1.06810E+06-3.69917E+06-1.41704E+08 2.23762E+06-1.06835E+07
 -1      1468-4.41711E+06 1.17836E+06 3.76434E+06-1.41615E+08-2.23087E+06-1.06978E+07
 -1      1469-4.75201E+07-1.48373E+07-8.81827E+06-1.66467E+08 9.88171E+06-8.64338E+06
 -1      1470-2.88476E+07-8.60151E+07 2.69732E+06-1.16083E+08 2.84387E+07-1.28900E+07
 -1      1471 8.53897E+07 8.13581E+07 4.95418E+07-9.85182E+07-4.47770E+07 4.64719E+07
 -1      1472 9.11156E+07 2.84224E+07-3.45436E+06-1.15686E+08 1.25603E+07 2.82457E+07
 -1      1473 8.27229E+07 1.35083E+07 4.66797E+06-1.06453E+08-1.55449E+07 2.06557E+07
 -1      1474 1.38556E+07-3.22593E+06 5.55937E+05-8.17516E+07-3.68457E+06 2.63967E+07
 -1      1475-1.69854E+06-1.05256E+06-2.05950E+06-8.25263E+07 3.73774E+06 1.47884E+07
 -1      1476-2.43610E+06-4.94628E+04-5.82587E+04-8.25609E+07-8.40747E+03 1.99075E+07
 -1      1477-2.94197E+06 1.01711E+06 2.13406E+06-8.25067E+07-3.79910E+06 1.47460E+07
 -1      1478-1.78305E+07 3.30555E+06-5.43817E+05-8.17827E+07 3.72318E+06 2.64569E+07
 -1      1479-8.71818E+07-1.39258E+07-4.89418E+06-1.06987E+08 1.55352E+07 2.07563E+07
 -1      1480-9.50595E+07-2.89098E+07 3.70334E+06-1.16552E+08-1.25120E+07 2.83655E+07
 -1      1481-8.79534E+07-8.03700E+07-5.00218E+07-9.93691E+07 4.44670E+07 4.77334E+07
 -3
    1PSTEP                        15           1           1          
    1PGM                1.000000E+00                                  
    1PGK                1.235845E+12                                  
    1PHID                         -1                                  
    1PSUBC                         0                                  
    1PMODE                         4                                  
  100CL  104 176930.2766        1481                     2    4MODAL      1
 -4  TOSTRAIN    6    1
 -5  EXX         1    4    1    1
 -5  EYY         1    4    2    2
 -5  EZZ         1    4    3    3
 -5  EXY         1    4    1    2
 -5  EYZ         1    4    2    3
 -5  EZX         1    4    3    1
 -1         1 4.20920E+02 1.54111E+02 1.78452E+01 7.85766E+02-3.15075E+02-4.29377E+02
 -1         2 6.45288E+02-1.25473E+00-2.76829E+02 9.18448E+02 9.30479E+01-2.19536E+02
 -1         3 5.70726E+02-7.93218E+01-1.60230E+02 8.32151E+02-1.18496E+02-1.54636E+02
 -1         4 1.36219E+02-6.00131E+01-2.74326E+01 6.20822E+02-3.02227E+01-2.08477E+02
 -1         5 3.95593E+01-1.37961E+01-2.38043E+01 6.26291E+02 3.09151E+01-1.04901E+02
 -1         6 3.19807E+01-8.20953E+00-5.26644E+00 6.27533E+02 4.12020E-01-1.50807E+02
 -1         7 1.80633E+01-4.15201E+00 2.47333E+00 6.29565E+02-2.85348E+01-1.14919E+02
 -1         8-7.61584E+01 3.62343E+01 1.13714E+01 6.25463E+02 2.91924E+01-1.99142E+02
 -1         9-4.07275E+02 5.98178E+01 1.25135E+02 8.03480E+02 1.33005E+02-1.63060E+02
 -1        10-3.76365E+02-5.82535E+01 1.72045E+02 8.81573E+02-1.06494E+02-2.17564E+02
 -1        11-1.41170E+02-4.17481E+02-1.75268E+01 7.63152E+02 4.20344E+02-3.02059E+02
 -1        12 5.73680E+01 4.01683E+02-1.82232E+02 9.04902E+02-2.22842E+02 1.08196E+02
 -1        13 2.81775E+02-1.07760E+01-6.20401E+01 1.28711E+03-7.16087E+01 5.97036E+01
 -1        14 5.34604E+01-1.40231E+01-3.50174E+01 1.07745E+03 1.75969E+01 8.57802E+01
 -1        15 7.20619E+00-7.27345E+00 1.57921E+01 1.07678E+03-1.78512E+01 7.89781E+01
 -1        16-2.10949E+02-1.25599E+01 4.71296E+01 1.25696E+03 8.63737E+01 7.48158E+01
 -1        17 2.65956E+00-6.30054E+02 2.70330E+02 8.95628E+02 2.14198E+02 9.10234E+01
 -1        18-6.59185E+01 4.37037E+02-1.33765E+02 8.20735E+02-1.67875E+02-1.36675E+02
 -1        19 1.26723E+01 2.30829E+02-5.38235E+01 1.27985E+03 7.49208E+01-8.77811E+01
 -1        20 9.30998E+01 4.95558E+01-8.53809E+01 1.57945E+03-5.96748E+01-5.17461E+01
 -1        21 7.43230E+01 1.36750E+01-4.95797E+01 1.42120E+03-1.68845E+01-4.45925E+01
 -1        22 4.72892E+01-5.69382E+00-2.77118E+00 1.40753E+03 1.30045E+01-6.01777E+01
 -1        23 2.73907E+01-1.15853E+01-6.47342E+00 1.39846E+03 1.30806E+00-4.79110E+01
 -1        24 7.85495E+00-1.83494E+01-6.76933E+00 1.40379E+03-1.07671E+01-5.48352E+01
 -1        25-1.36773E+01-4.56992E+01 3.72797E+01 1.40981E+03 1.27127E+01-5.17472E+01
 -1        26-3.90035E+01-8.56409E+01 7.74972E+01 1.55456E+03 5.01209E+01-5.80131E+01
 -1        27 1.27272E+01-2.66099E+02 5.62440E+01 1.26427E+03-5.87224E+01-6.95311E+01
 -1        28 7.42874E+01-5.48405E+02 1.53700E+02 8.15143E+02 1.50490E+02-1.13999E+02
 -1        29-4.33986E+01 1.00206E+02-1.80446E+01 6.33778E+02-2.01217E+02-3.09061E+01
 -1        30 4.99019E+01 3.01623E+01-4.59463E+01 1.42661E+03-5.17952E+01-1.38178E+01
 -1        31 3.52624E+01-2.95724E+00-6.44353E+00 1.30574E+03 1.12868E+01-1.15509E+01
 -1        32 1.58163E+01-2.26094E+01-2.85107E+00 1.30045E+03-1.03138E+01-9.01635E+00
 -1        33-7.53550E+00-6.32979E+01 4.24689E+01 1.40230E+03 4.40509E+01-1.58601E+01
 -1        34 5.48772E+01-1.20125E+02 2.31158E+01 6.11165E+02 2.05320E+02-2.88387E+01
 -1        35-2.94056E+00 8.25585E+00-1.30371E+01 6.35439E+02-1.15875E+02 2.82314E+01
 -1        36 4.13335E+00 1.88446E+01-2.54484E+01 1.08617E+03 7.92654E+01 1.84784E+01
 -1        37 2.00409E+01 1.38703E+01-1.75210E+00 1.41515E+03-5.64664E+01 9.90999E+00
 -1        38 2.86349E+01 5.77399E-01-5.64517E+00 1.30862E+03-9.82892E+00 1.04806E+01
 -1        39 2.70507E+01-8.90714E+00-1.29349E+01 1.31379E+03 1.09939E+01 1.20973E+01
 -1        40 2.34420E+01-1.31607E+01-3.80658E+00 1.30597E+03-6.87908E-01 6.88192E+00
 -1        41 2.02705E+01-1.74455E+01 4.57166E+00 1.30750E+03-1.19667E+01 1.11881E+01
 -1        42 9.80445E+00-2.35954E+01-5.01882E-01 1.29523E+03 1.10739E+01 1.10192E+01
 -1        43 8.00625E+00-3.35392E+01-3.18291E+00 1.39153E+03 5.87719E+01 1.36554E+01
 -1        44 1.26509E+01-3.83887E+01 2.93327E+01 1.06411E+03-8.46129E+01 1.68310E+01
 -1        45 9.52319E+00-2.48379E+01 1.82684E+01 6.18104E+02 1.03663E+02 3.04651E+01
 -1        46-1.14667E+00 3.82665E+00-1.90190E+00 6.31703E+02-1.52351E+02-3.82344E-01
 -1        47 1.18249E+01-1.47565E+00-3.89149E+00 1.40299E+03-4.76176E+01-1.09009E+00
 -1        48 2.05948E+01-8.49787E+00-4.83825E+00 1.30691E+03 6.97641E+00 1.56909E-01
 -1        49 1.96385E+01-1.25037E+01-2.88432E+00 1.30141E+03-6.86631E+00 1.60021E-02
 -1        50 1.08131E+01-1.33697E+01 1.17064E+00 1.38443E+03 4.80004E+01 1.26435E+00
 -1        51 3.58320E+00-1.49434E+01 1.57773E+00 6.19641E+02 1.49016E+02 6.68858E-01
 -1        52 1.39969E+00-9.40773E-01 1.02285E+01 6.28458E+02-1.14738E+02-2.90101E+01
 -1        53 5.67955E+00-1.39911E+01 1.99218E+01 1.07680E+03 8.02439E+01-1.69717E+01
 -1        54 4.46953E+00-1.66090E+01-6.78324E+00 1.40479E+03-5.75193E+01-1.22212E+01
 -1        55 6.41271E+00-1.14158E+01-3.44332E+00 1.30198E+03-1.06763E+01-1.01253E+01
 -1        56 1.50001E+01-8.48725E+00 2.96245E+00 1.30924E+03 1.11966E+01-1.19754E+01
 -1        57 1.76416E+01-8.35884E+00-3.59183E+00 1.30220E+03-1.20352E-01-6.98676E+00
 -1        58 1.95324E+01-7.71689E+00-9.86980E+00 1.30469E+03-1.14949E+01-1.09478E+01
 -1        59 2.16175E+01-2.80781E+00-1.97978E+00 1.29358E+03 9.63623E+00-1.08889E+01
 -1        60 1.43968E+01 6.16925E+00 3.17428E+00 1.39159E+03 5.56234E+01-1.14613E+01
 -1        61 2.20080E+00 1.03303E+01-2.12737E+01 1.06551E+03-7.97547E+01-1.71363E+01
 -1        62-1.10134E+00 1.82608E-01-7.25887E+00 6.20971E+02 1.12041E+02-2.79686E+01
 -1        63 4.30490E+01-8.99658E+01 1.55916E+01 6.20666E+02-1.98367E+02 2.68985E+01
 -1        64-1.82404E+01-3.77183E+01 3.55779E+01 1.40784E+03-4.86735E+01 1.36433E+01
 -1        65 7.70756E+00-1.25080E+01-3.41794E+00 1.29714E+03 1.08995E+01 9.97979E+00
 -1        66 2.31676E+01 3.33064E-02-3.56090E+00 1.29411E+03-1.05993E+01 1.07873E+01
 -1        67 3.54576E+01 3.06422E+01-3.96835E+01 1.39997E+03 4.85653E+01 1.44560E+01
 -1        68-4.34091E+01 9.05026E+01-1.54152E+01 6.16883E+02 1.98332E+02 2.84445E+01
 -1        69 6.45368E+01-4.46722E+02 1.29323E+02 8.02329E+02-1.57972E+02 1.18771E+02
 -1        70 3.10470E+00-2.22024E+02 4.54990E+01 1.25244E+03 6.78951E+01 7.70150E+01
 -1        71-5.40429E+01-5.81672E+01 7.20579E+01 1.54818E+03-5.52018E+01 5.36597E+01
 -1        72-2.88952E+01-2.64937E+01 3.55387E+01 1.40242E+03-1.45147E+01 4.75533E+01
 -1        73-2.23973E+00-8.30857E+00-7.47992E+00 1.39417E+03 1.18831E+01 5.66127E+01
 -1        74 1.46641E+01-5.00911E+00-3.72065E+00 1.38639E+03-2.39937E-01 4.79374E+01
 -1        75 3.10870E+01-1.11147E+00 1.94331E-01 1.39267E+03-1.24044E+01 5.71983E+01
 -1        76 5.26536E+01 1.89564E+01-4.19965E+01 1.40032E+03 1.46638E+01 4.69445E+01
 -1        77 7.06502E+01 5.38777E+01-7.72368E+01 1.54606E+03 5.55666E+01 5.45745E+01
 -1        78 3.54537E+00 2.23446E+02-4.80707E+01 1.25114E+03-6.88815E+01 7.77657E+01
 -1        79-6.53079E+01 4.47335E+02-1.30195E+02 8.01884E+02 1.57629E+02 1.21270E+02
 -1        80-2.92539E+01-4.69233E+02 2.06985E+02 8.70449E+02-2.13280E+02-9.65983E+01
 -1        81-2.21734E+02 1.03348E+00 4.56928E+01 1.25189E+03-7.48633E+01-6.66113E+01
 -1        82-6.06389E+00-3.10470E-01 1.94999E+01 1.06695E+03 1.68480E+01-8.04403E+01
 -1        83 3.41239E+01-8.00666E+00-2.74776E+01 1.06628E+03-1.67971E+01-8.05482E+01
 -1        84 2.40568E+02-5.51451E+00-5.08340E+01 1.25340E+03 7.44035E+01-6.50796E+01
 -1        85 3.24625E+01 4.62900E+02-2.05052E+02 8.74039E+02 2.14127E+02-9.70545E+01
 -1        86-2.86693E+02-2.56337E+02-1.67787E+01 7.41784E+02-3.37144E+02 3.49906E+02
 -1        87-4.94850E+02-2.28076E+01 2.17206E+02 8.71048E+02 9.45719E+01 2.12673E+02
 -1        88-4.56668E+02 6.44772E+01 1.31040E+02 8.01526E+02-1.17044E+02 1.55525E+02
 -1        89-8.59010E+01 4.27126E+01 1.42374E+01 6.15542E+02-2.77427E+01 1.98752E+02
 -1        90 4.86570E+00 1.80684E-03 7.58347E+00 6.21374E+02 2.81430E+01 1.11348E+02
 -1        91 1.41526E+01-3.81740E+00-3.75117E+00 6.21635E+02-6.33033E-02 1.49892E+02
 -1        92 2.24959E+01-7.31365E+00-1.57237E+01 6.21227E+02-2.86050E+01 1.11029E+02
 -1        93 1.09434E+02-4.97079E+01-2.07245E+01 6.15776E+02 2.80333E+01 1.99205E+02
 -1        94 4.81836E+02-6.97382E+01-1.37741E+02 8.05550E+02 1.16971E+02 1.56283E+02
 -1        95 5.17657E+02 1.95886E+01-2.25969E+02 8.77568E+02-9.42082E+01 2.13575E+02
 -1        96 3.02610E+02 2.45511E+02 1.70076E+01 7.48191E+02 3.34810E+02 3.59405E+02
 -1        97 4.77898E+02 1.66723E+02 9.91360E+01 6.98724E+02-7.35747E+02-9.07105E+02
 -1        98 4.64446E+02-7.19091E+01-1.59962E+02 5.72900E+02-2.48290E+01-2.74015E+02
 -1        99 4.52605E+01-7.94058E+00-1.75816E+01 4.32674E+02 2.28193E+00-3.23970E+02
 -1       100 4.54749E+00-7.26414E+00-6.47549E-01 4.35600E+02 2.17638E+00-3.26187E+02
 -1       101-3.30362E+02 5.91423E+01 1.28400E+02 5.44601E+02 3.46658E+01-3.16324E+02
 -1       102-1.52726E+02-4.74944E+02-9.61067E+01 6.78646E+02 8.85640E+02-7.07981E+02
 -1       103-6.43669E+01 3.54085E+02-1.36170E+02 5.56643E+02-3.22645E+02-3.59151E+01
 -1       104 9.02158E+01 5.03560E+01-6.74887E+01 1.27834E+03-1.72287E+01-1.92802E+01
 -1       105 3.50681E+01-6.85557E+00-3.42686E+00 1.13359E+03 2.15321E+00-2.25467E+01
 -1       106 7.35252E+00-1.18103E+01-3.32391E+00 1.13064E+03 8.66982E-02-2.03673E+01
 -1       107-4.13919E+01-8.39596E+01 6.12492E+01 1.25825E+03 1.80726E+01-1.51749E+01
 -1       108 6.74141E+01-4.46987E+02 1.54035E+02 5.61473E+02 2.67221E+02-2.31554E+01
 -1       109 1.29646E+00 1.70982E+01-7.78716E+00 4.39009E+02-3.31529E+02-3.36953E+00
 -1       110 1.29537E+01 9.96963E+00-3.50386E+00 1.14000E+03-2.16804E+01-6.94151E-01
 -1       111 2.23297E+01-6.74880E+00-9.40070E+00 1.05767E+03 2.26888E+00 2.59044E+00
 -1       112 1.59799E+01-1.45959E+01 2.69862E+00 1.05268E+03-2.26699E+00 3.13931E+00
 -1       113 8.53749E+00-2.40729E+01-1.46627E+00 1.12073E+03 2.21185E+01 3.11873E+00
 -1       114 4.58420E+00-3.29768E+01 1.31646E+01 4.27194E+02 3.19266E+02 3.21002E+00
 -1       115-2.34190E+00-1.20727E+01 6.02262E+00 4.35023E+02-3.30140E+02-3.63624E-01
 -1       116 6.07994E+00-1.17863E+01-3.64030E+00 1.13127E+03-2.21468E+01-2.14579E+00
 -1       117 1.15368E+01-7.13549E+00 1.44285E+00 1.05405E+03 1.96868E+00-2.40768E+00
 -1       118 1.61033E+01-5.81584E+00-6.94148E+00 1.05044E+03-2.49923E+00-1.25577E+00
 -1       119 9.24403E+00 3.45440E+00 8.54970E-01 1.12064E+03 2.10579E+01 1.84912E-01
 -1       120 2.48391E+00 9.89445E+00-3.30997E+00 4.29994E+02 3.22752E+02 5.86542E-01
 -1       121 6.00559E+01-3.65222E+02 1.33161E+02 5.49711E+02-2.98260E+02 2.67099E+01
 -1       122-5.53523E+01-5.80084E+01 5.69600E+01 1.25283E+03-1.79382E+01 1.72476E+01
 -1       123-2.05911E-02-4.41867E+00-4.43291E+00 1.12279E+03 1.02550E+00 2.15906E+01
 -1       124 2.30840E+01-3.12740E+00-1.31526E+00 1.12160E+03-1.60173E+00 2.23590E+01
 -1       125 6.89949E+01 5.44776E+01-6.11783E+01 1.25122E+03 1.75155E+01 1.92383E+01
 -1       126-6.11180E+01 3.64731E+02-1.33678E+02 5.48617E+02 2.99130E+02 2.87483E+01
 -1       127-3.16181E+02-2.80914E+02-9.78550E+01 6.48317E+02-7.53024E+02 7.72187E+02
 -1       128-3.73226E+02 5.97702E+01 1.34736E+02 5.50016E+02-2.61544E+01 2.90987E+02
 -1       129-6.74180E+00-3.14177E+00 3.86088E+00 4.30054E+02 3.35823E-01 3.24275E+02
 -1       130 2.88958E+01-2.72825E+00-1.03662E+01 4.29852E+02-8.09024E-01 3.24714E+02
 -1       131 3.93418E+02-6.39056E+01-1.40382E+02 5.53095E+02 2.58836E+01 2.90928E+02
 -1       132 3.34086E+02 2.67436E+02 9.91197E+01 6.54092E+02 7.51580E+02 7.88673E+02
 -1       133 5.81564E+02 2.14775E+02 7.59700E+02 6.90046E+02-2.01227E+03-2.45357E+03
 -1       134 6.52262E+02 1.34036E+00-2.76301E+02 5.68008E+02-1.25874E+02-7.80505E+02
 -1       135 3.75338E+02-7.02421E+01-8.84424E+01 3.41541E+02-5.59630E+01-6.02909E+02
 -1       136 5.24207E+01-5.08982E+01-9.72635E+01 2.48083E+02 3.82052E+01-5.90168E+02
 -1       137 4.54136E+01-3.33971E-02 8.49983E+01 2.56732E+02-3.66942E+01-6.50681E+02
 -1       138 1.89393E+01-5.47871E+00-7.80044E-01 2.72925E+02 4.71697E+00-6.46598E+02
 -1       139-4.88275E+00-1.28521E+01-8.09302E+01 2.58086E+02 5.74196E+01-6.31178E+02
 -1       140-2.64585E+01 3.96751E+01 7.06824E+01 2.59055E+02-6.17328E+01-6.09966E+02
 -1       141-2.66811E+02 6.68666E+01 9.87269E+01 3.17624E+02 7.21188E+01-6.46863E+02
 -1       142-3.56275E+02-6.81152E+01 1.25786E+02 5.35915E+02 1.60170E+02-7.81013E+02
 -1       143-1.97931E+02-5.77735E+02-7.37947E+02 6.70172E+02 2.39540E+03-1.93745E+03
 -1       144 6.72131E+01 3.78694E+02-1.34638E+02 5.51108E+02-8.00647E+02-1.65411E+02
 -1       145 1.49807E+02-1.41626E+01 8.01668E+01 7.24294E+02-9.31426E+01-1.52527E+02
 -1       146 4.80840E+01-2.81716E+00-4.08671E+01 6.03342E+02 1.45695E+01-4.81276E+01
 -1       147-5.97619E+00-1.03467E+01 3.19510E+01 6.04366E+02-1.19727E+01-5.64681E+01
 -1       148-1.27147E+02-3.90543E+00-6.75837E+01 6.93879E+02 1.43872E+02-1.13982E+02
 -1       149 3.28476E-01-6.40497E+02 2.72706E+02 5.53528E+02 7.60398E+02-1.19128E+02
 -1       150-7.14712E+01 2.85193E+02-1.02008E+02 3.25008E+02-6.59916E+02-7.41745E+01
 -1       151 3.81222E+00 1.38445E+02 6.67538E+01 7.06597E+02-1.20659E+02-1.46457E+02
 -1       152 8.30976E+01 4.74080E+01-1.85906E+02 9.88128E+02 1.04550E+02 1.23896E+02
 -1       153 4.63584E+01 1.22007E+01-4.21985E+01 8.85959E+02 2.20263E+01 3.03132E+01
 -1       154 2.26887E+01-6.66841E+00 1.80253E+01 8.66392E+02-2.27977E+01-2.29683E+01
 -1       155 1.71646E+01-6.29039E+00-3.69692E+00 8.59302E+02 3.07359E+00-2.61969E+01
 -1       156 7.52422E+00-6.71847E+00-2.54275E+01 8.64393E+02 2.75775E+01-1.63527E+01
 -1       157-1.23565E+01-3.53655E+01 4.03295E+01 8.74021E+02-2.30929E+01 2.23649E+01
 -1       158-4.02079E+01-7.81397E+01 1.77633E+02 9.72635E+02-1.22260E+02 1.02765E+02
 -1       159 1.53168E+01-1.40439E+02-8.07999E+01 7.12134E+02 1.48418E+02-8.80817E+01
 -1       160 6.58383E+01-3.62107E+02 8.41990E+01 3.34959E+02 5.89105E+02-5.31186E+01
 -1       161-4.48751E+01 3.94175E+01-7.80798E+01 2.61992E+02-6.18940E+02 6.08282E+01
 -1       162 3.78487E+01 2.25977E+01-4.61185E+01 8.84647E+02 2.23973E+01 2.28008E+01
 -1       163 1.97368E+01-3.73722E+00-7.57689E+00 7.94477E+02-2.22972E+00 9.23114E+00
 -1       164 9.97344E+00-1.17376E+01 1.95871E+00 7.90272E+02 3.94233E+00 1.15897E+01
 -1       165-8.34133E+00-3.96951E+01 3.73899E+01 8.74207E+02-2.92242E+01 2.35584E+01
 -1       166 4.69994E+01-4.39649E+01 9.26545E+01 2.44214E+02 5.80066E+02 3.81797E+01
 -1       167 8.19018E+00 2.22910E+01 7.54151E+01 2.59344E+02-6.43474E+02-6.11787E+01
 -1       168 8.18701E+00 2.25668E+01-3.64980E+01 6.09378E+02-5.74290E+01 1.26713E+01
 -1       169 7.39718E+00 5.24592E+00 1.95048E+01 8.71844E+02-2.03621E+01-2.84592E+01
 -1       170 1.53853E+01-1.20985E-01-7.39898E+00 7.95178E+02 9.76503E+00-3.35317E+00
 -1       171 1.79217E+01-4.30554E+00-3.46046E+00 7.99422E+02-4.09142E-01-4.90441E-01
 -1       172 1.39085E+01-8.21972E+00-2.27678E+00 7.93828E+02 5.63632E-02 3.43261E-01
 -1       173 1.14479E+01-1.20092E+01-1.31814E+00 7.95741E+02 1.00891E+00 7.40172E-01
 -1       174 7.81006E+00-1.26445E+01 3.04021E+00 7.88064E+02-8.83043E+00-1.48295E+00
 -1       175 7.77739E+00-1.45043E+01-2.11000E+01 8.56558E+02 2.24573E+01-1.97277E+01
 -1       176 2.23554E+00-3.85454E+01 3.73844E+01 5.96069E+02 4.79051E+01 1.34691E+01
 -1       177-2.23464E+00-3.53806E+01-8.63846E+01 2.53627E+02 6.40516E+02-3.28466E+01
 -1       178-3.15180E-01 7.79118E-01-1.20488E-01 2.73729E+02-6.49338E+02-4.42892E+00
 -1       179 6.64080E+00-1.06859E+00-1.60772E+00 8.62354E+02-2.56075E+01-3.68430E+00
 -1       180 1.26327E+01-4.99056E+00-2.80796E+00 7.94301E+02-1.10574E-01 3.99475E-01
 -1       181 1.20963E+01-7.50210E+00-1.70489E+00 7.91180E+02 9.02428E-01 1.51373E+00
 -1       182 6.21830E+00-8.52012E+00 3.20642E-01 8.50581E+02 2.69824E+01 3.05054E+00
 -1       183 2.12308E+00-8.73816E+00-9.52389E-01 2.70214E+02 6.40267E+02 3.28370E+00
 -1       184-8.37151E+00-1.85717E+01-7.71567E+01 2.58857E+02-6.42974E+02 4.43483E+01
 -1       185-1.95739E+00-2.00706E+01 3.18353E+01 6.04046E+02-5.62834E+01-1.33829E+01
 -1       186 6.37242E+00-6.49006E+00-2.35560E+01 8.64586E+02-2.02536E+01 2.27797E+01
 -1       187 5.45691E+00-6.13282E+00 1.58451E+00 7.91575E+02 8.64289E+00 3.62556E+00
 -1       188 7.90242E+00-6.08125E+00-2.02954E+00 7.96772E+02-1.26271E+00 7.08692E-01
 -1       189 1.06027E+01-5.01806E+00-2.19839E+00 7.91596E+02-2.68684E-01 1.38056E+00
 -1       190 1.29598E+01-3.68728E+00-2.25375E+00 7.94090E+02 6.61156E-01 2.52779E+00
 -1       191 1.12283E+01-2.38679E+00-4.37365E+00 7.86480E+02-9.90829E+00 4.04507E+00
 -1       192 5.36366E+00 3.51056E-01 2.20229E+01 8.56419E+02 1.76684E+01 2.54254E+01
 -1       193 7.10997E+00 1.73407E+01-3.41653E+01 5.97818E+02 5.52025E+01-1.05409E+01
 -1       194 8.04968E+00 1.50518E+01 8.06593E+01 2.55636E+02 6.29088E+02 4.49997E+01
 -1       195 4.01635E+01-3.35987E+01 7.69152E+01 2.54145E+02-6.00656E+02-4.81201E+01
 -1       196-1.62600E+01-2.57281E+01 3.60053E+01 8.74083E+02 2.20635E+01-2.19125E+01
 -1       197 5.55930E+00-5.84800E+00 1.17886E+00 7.88759E+02-2.87080E+00-9.05293E+00
 -1       198 1.30564E+01-1.70547E+00-5.39926E+00 7.86926E+02 3.00950E+00-7.61006E+00
 -1       199 2.71419E+01 2.13195E+01-3.88669E+01 8.69248E+02-2.26339E+01-1.93219E+01
 -1       200-4.11213E+01 3.32354E+01-7.54309E+01 2.52713E+02 5.95871E+02-4.92093E+01
 -1       201 6.22553E+01-2.97104E+02 8.87892E+01 3.26431E+02-6.18048E+02 5.55805E+01
 -1       202 6.66256E+00-1.27211E+02-7.10744E+01 6.99885E+02-1.22699E+02 1.09740E+02
 -1       203-5.29421E+01-5.42635E+01 1.67253E+02 9.68376E+02 1.00235E+02-1.04112E+02
 -1       204-2.00849E+01-2.09192E+01 3.52888E+01 8.71354E+02 2.07027E+01-2.31760E+01
 -1       205 2.59024E+00-1.78171E+00-2.35723E+01 8.58119E+02-2.27136E+01 1.98908E+01
 -1       206 8.80447E+00-3.00292E+00-2.09847E+00 8.51931E+02-3.87694E-01 2.68117E+01
 -1       207 1.47689E+01-3.86968E+00 1.92163E+01 8.57234E+02 2.18653E+01 2.13714E+01
 -1       208 3.42694E+01 1.62711E+01-3.91378E+01 8.70422E+02-2.11113E+01-2.30896E+01
 -1       209 6.35627E+01 5.14204E+01-1.71607E+02 9.67245E+02-1.00394E+02-1.02954E+02
 -1       210-2.46045E+00 1.28671E+02 6.99641E+01 6.98219E+02 1.20655E+02 1.13695E+02
 -1       211-6.38382E+01 2.95984E+02-9.14673E+01 3.25079E+02 6.20269E+02 6.01425E+01
 -1       212-3.31005E+01-4.56850E+02 1.79039E+02 5.23085E+02-7.62898E+02 1.35182E+02
 -1       213-1.24726E+02 5.83806E+00-7.31869E+01 7.01171E+02-1.03625E+02 1.24585E+02
 -1       214-1.55832E+01-5.59963E+00 3.18425E+01 5.98467E+02 1.14324E+01 5.43568E+01
 -1       215 3.30067E+01 5.00237E-01-3.64660E+01 5.97964E+02-1.15406E+01 5.47975E+01
 -1       216 1.34991E+02-8.78804E+00 7.19312E+01 7.02398E+02 1.01747E+02 1.29810E+02
 -1       217 3.62581E+01 4.47338E+02-1.73759E+02 5.25426E+02 7.67375E+02 1.40991E+02
 -1       218-3.83070E+02-3.41506E+02-7.22491E+02 6.28021E+02-2.02305E+03 2.07272E+03
 -1       219-4.86378E+02-2.56474E+01 1.94681E+02 5.24666E+02-1.31563E+02 7.59244E+02
 -1       220-3.03745E+02 6.13976E+01 8.65810E+01 3.27318E+02-5.55468E+01 6.09272E+02
 -1       221-2.97937E+01 3.98571E+01 7.72764E+01 2.50913E+02 4.54762E+01 5.92554E+02
 -1       222-1.35565E+01-8.27376E+00-8.10821E+01 2.55678E+02-4.11557E+01 6.34864E+02
 -1       223 8.39769E+00-2.26868E+00-1.98358E+00 2.70591E+02-2.03239E-01 6.41757E+02
 -1       224 3.05185E+01 3.84380E+00 7.75184E+01 2.55465E+02 4.01321E+01 6.37163E+02
 -1       225 4.30464E+01-4.40266E+01-8.23638E+01 2.50435E+02-4.46037E+01 5.92600E+02
 -1       226 3.19362E+02-6.42884E+01-8.87929E+01 3.29392E+02 5.50551E+01 6.10897E+02
 -1       227 5.07751E+02 2.19598E+01-2.04574E+02 5.29359E+02 1.31888E+02 7.64168E+02
 -1       228 4.03952E+02 3.25403E+02 7.30206E+02 6.33760E+02 2.01855E+03 2.11415E+03
 -1       229 1.86210E+03 1.17864E+03 9.73006E+02 1.82313E+03-3.47091E+03-4.18744E+03
 -1       230 1.13116E+02-1.83035E+02 8.96178E+01 3.72940E+01-7.53877E+00-7.13178E+02
 -1       231-3.10752E+00 7.03949E+01 1.47493E+02 1.67699E+02-1.21048E+02-8.64956E+02
 -1       232 1.94952E+01-9.50924E+01-1.22189E+02 1.47263E+02 1.53325E+02-8.30379E+02
 -1       233-7.92033E+01 2.28386E+02-3.69302E+01 3.20249E+01 2.93022E+01-7.66185E+02
 -1       234-1.12236E+03-1.83095E+03-9.45975E+02 1.76995E+03 4.08811E+03-3.34391E+03
 -1       235-2.35418E+02 8.69004E+01 4.06521E+01 3.10387E+01-7.80482E+02-3.06869E+01
 -1       236 1.71060E+02 1.15195E+02-3.25172E+02 7.51007E+02 1.42055E+02 1.87589E+02
 -1       237 5.07670E+00-2.32344E+01 4.93617E+01 5.80997E+02-2.08580E+01-4.18343E+01
 -1       238 1.31493E+01 1.74062E+01-5.72178E+01 5.82841E+02 2.83420E+01-2.84558E+01
 -1       239-1.06801E+02-1.65376E+02 3.14318E+02 7.37967E+02-1.84734E+02 1.38170E+02
 -1       240 1.73792E+02-1.07552E+02-8.90182E+01 3.85568E+01 6.97197E+02-5.89353E+00
 -1       241 9.44137E+01-8.23999E+00 1.19398E+02 1.50123E+02-8.48822E+02-1.58542E+02
 -1       242-1.77730E+01-3.79950E+00 5.21481E+01 5.87142E+02-3.46621E+01-2.99416E+01
 -1       243 1.06706E+01-4.51075E+00-1.28580E+00 5.39518E+02 8.69001E-01 1.19885E+00
 -1       244 9.27589E+00-6.62525E+00-1.70036E+00 5.37186E+02-3.10513E-01 2.15771E+00
 -1       245 2.23043E+01 3.79687E-01-5.02268E+01 5.74349E+02 4.05954E+01-1.64943E+01
 -1       246-6.67609E+01 9.90528E+00-1.47778E+02 1.65569E+02 8.51336E+02-1.13372E+02
 -1       247-8.12189E+01 1.27892E+01-1.24627E+02 1.58482E+02-8.44949E+02 1.27760E+02
 -1       248 2.43105E+01 3.49693E+00-5.23815E+01 5.81953E+02-3.63350E+01 2.28528E+01
 -1       249 6.64447E+00-2.65021E+00-2.14931E+00 5.38037E+02 3.12595E-01-1.00819E+00
 -1       250 7.29641E+00-3.88814E+00-9.80602E-01 5.36283E+02-7.84950E-01 1.59385E+00
 -1       251-1.47181E+01-8.39642E+00 5.20917E+01 5.76691E+02 3.15430E+01 2.46481E+01
 -1       252 7.76878E+01-1.61153E+01 1.28855E+02 1.53454E+02 8.27182E+02 1.29476E+02
 -1       253 1.88903E+02-9.63176E+01-5.04615E+01 4.78063E+01-7.35151E+02 1.41321E+01
 -1       254-1.26088E+02-1.22876E+02 2.95342E+02 7.28904E+02 1.42706E+02-1.49965E+02
 -1       255 1.01597E+01 1.65064E+01-5.14366E+01 5.77106E+02-2.14629E+01 3.56145E+01
 -1       256 1.47977E+00-2.02659E+01 4.84134E+01 5.76297E+02 2.02752E+01 3.76313E+01
 -1       257 1.35133E+02 1.20274E+02-2.99966E+02 7.28681E+02-1.41724E+02-1.49561E+02
 -1       258-1.92251E+02 9.65166E+01 4.61462E+01 4.66242E+01 7.37760E+02 1.97831E+01
 -1       259-1.39926E+03-1.32130E+03-9.56002E+02 1.64061E+03-3.45191E+03 3.53285E+03
 -1       260-9.68043E+01 1.81048E+02-5.57977E+01 4.84505E+01-1.48231E+01 7.24654E+02
 -1       261 1.83514E+01-7.45667E+01-1.31318E+02 1.57775E+02-1.21902E+02 8.36239E+02
 -1       262-7.63098E+00 7.11047E+01 1.30388E+02 1.58743E+02 1.20718E+02 8.40044E+02
 -1       263 1.04842E+02-1.81694E+02 5.75246E+01 4.81658E+01 1.35977E+01 7.26194E+02
 -1       264 1.44423E+03 1.29739E+03 9.66557E+02 1.65440E+03 3.44539E+03 3.60094E+03
 -1       265-2.09668E-03 1.00536E+04 3.20047E-03-2.32183E+01 3.17219E+03-2.60545E-03
 -1       266-1.60017E-03 8.08063E+03 3.19062E-03-1.30574E+02 2.17009E+03 1.27701E-03
 -1       267-9.94176E-04 6.30886E+03 2.42163E-03-2.01415E+02 1.85099E+03-5.99998E-04
 -1       268-1.07079E-03 4.92718E+03 2.65552E-03-1.34202E+02 8.80734E+02 2.67670E-03
 -1       269 1.60765E-04 3.70624E+03 2.42804E-03-8.06731E+01 6.26816E+02-1.25516E-03
 -1       270 9.31921E-04 2.51035E+03 1.79522E-03-7.89837E+01 3.75581E+02 9.25769E-04
 -1       271-3.61557E-04 1.22590E+03-1.95495E-04-1.24841E+02-3.19812E+02-2.27046E-04
 -1       272 7.79378E-06-8.99909E+01-2.22222E-05-1.59923E+02-3.14471E+01 3.19572E-03
 -1       273 4.11960E-04-1.39684E+03 3.35004E-04-1.20260E+02 2.55651E+02-7.41966E-04
 -1       274-7.69141E-04-2.75629E+03-1.71000E-03-9.73087E+01-4.86704E+02 2.19743E-03
 -1       275 5.28846E-05-4.04403E+03-2.32295E-03-1.16199E+02-8.61079E+02-1.54485E-03
 -1       276 7.20856E-04-5.26636E+03-2.38836E-03-1.16025E+02-1.20691E+03 1.47129E-03
 -1       277 1.70105E-04-6.57636E+03-2.27566E-03-1.69024E+02-1.94511E+03-3.17393E-04
 -1       278 1.37466E-03-8.23690E+03-2.94118E-03-1.16317E+02-2.25077E+03 1.28168E-03
 -1       279 2.40697E-03-9.98213E+03-2.82242E-03 1.23114E+01-3.14356E+03-1.86815E-03
 -1       280-3.60081E+01 7.88477E+03-8.60884E+02-1.84362E+03-1.94199E+02-6.15484E+02
 -1       281 1.58809E+02 5.10738E+03-8.63780E+02-1.35459E+03-1.76252E+02 2.28580E+02
 -1       282 6.52690E+01 3.20539E+03-5.71640E+02-9.14314E+02-4.13657E+01 2.66811E+02
 -1       283-1.79869E+02 1.53851E+03-3.98750E+02-1.27378E+03 4.71713E+01 1.02445E+02
 -1       284 1.55650E+02-1.65799E+03 4.10762E+02-1.27732E+03-5.68869E+01 7.94547E+01
 -1       285-2.15908E+00-3.35235E+03 5.13564E+02-9.85447E+02 1.08005E+02 2.77493E+02
 -1       286-1.87290E+02-5.22111E+03 7.77446E+02-1.28240E+03 1.93685E+02 2.47694E+02
 -1       287 1.38334E+02-7.81192E+03 8.12384E+02-1.63208E+03 9.19432E+01-6.85405E+02
 -1       288 3.58431E+02 1.33512E+03-1.72177E+03-3.47678E+03 3.24414E+03-4.37274E+01
 -1       289 5.04498E+02 1.36162E+03-1.72467E+03-2.93380E+03 2.09758E+03 7.18708E+01
 -1       290 5.92284E+02 1.23188E+03-1.72756E+03-2.31081E+03 1.11781E+03-1.15004E+02
 -1       291 4.79254E+02 1.52032E+03-1.43542E+03-1.92234E+03 9.89698E+02-2.97956E+01
 -1       292 1.16777E+02 1.65215E+03-1.14328E+03-1.59116E+03 3.96753E+02 5.67306E+01
 -1       293-3.81143E+02 1.98513E+03-9.70391E+02-1.65974E+03 2.25974E+02-3.88900E+01
 -1       294-4.80643E+02 2.18345E+03-7.97500E+02-2.08140E+03 1.25271E+02-1.21749E+02
 -1       295-2.65790E-01-3.85334E+01 1.20120E+01-2.76615E+03-2.53643E+01-8.40168E+02
 -1       296 4.08124E+02-2.02227E+03 8.21524E+02-2.13784E+03-4.06668E+01-1.57173E+02
 -1       297 2.95449E+02-1.71469E+03 9.24327E+02-1.70754E+03-4.60245E+02 3.88320E+01
 -1       298 1.74673E+01-1.33543E+03 1.02713E+03-1.60627E+03-8.94696E+02 1.02680E+02
 -1       299-3.05834E+02-1.08827E+03 1.29101E+03-1.91438E+03-1.04726E+03-1.62235E+02
 -1       300-6.19475E+02-9.95835E+02 1.55490E+03-2.24521E+03-1.47144E+03-2.25334E+01
 -1       301-4.16726E+02-1.19662E+03 1.58984E+03-2.70013E+03-2.14903E+03 1.80831E+02
 -1       302-1.13031E+02-1.28204E+03 1.62477E+03-3.10212E+03-3.20378E+03-2.25927E+02
 -1       303 9.84035E+02-5.82974E+03 6.70682E+02-1.75658E+03 3.43335E+02-2.04847E+02
 -1       304 1.15442E+03-2.22428E+03 1.21352E+02-9.35311E+02 1.19111E+02-1.35128E+02
 -1       305 1.80436E+02 5.33859E+02-5.31527E+02-7.73609E+02 8.12868E+01 6.33777E+01
 -1       306-3.06951E+02 2.04101E+03-5.34391E+02-7.14650E+02-1.87590E+02-4.78434E+01
 -1       307 3.55587E+02-1.77469E+03 5.22190E+02-5.36642E+02-1.33706E+01-2.55589E+01
 -1       308-2.78722E+02 6.93267E+02 4.72900E+01-4.79195E+02 2.19914E+02-8.30753E+01
 -1       309-7.81649E+02 2.64052E+03-2.88428E+02-1.35675E+03 1.09931E+02-2.11078E+02
 -1       310-9.30245E+02 5.80285E+03-7.20732E+02-1.70631E+03-1.17071E+02 1.76916E+02
 -1       311-3.32547E+02-4.35187E+02-2.60561E+01 5.79478E+03-1.22186E+03-9.24848E+02
 -1       312-7.67376E+02-2.76682E+03 1.51854E+03 4.56809E+03 9.45892E+02-1.58990E+03
 -1       313 6.08735E+02-6.67059E+03 3.06313E+03 2.07792E+03 4.15818E+02-5.48466E+02
 -1       314 1.85120E+03-6.21747E+03 2.51670E+03 6.50502E+02 5.99793E+02 1.29446E+02
 -1       315 1.74206E+03-4.79949E+03 1.97027E+03 3.23586E+02 4.94644E+02-2.22959E+02
 -1       316 5.13136E+02-1.03224E+03 1.02525E+03 6.91989E+02-9.13802E+01 9.19016E+00
 -1       317-4.21721E+01 4.67966E+02 8.02323E+01 7.32931E+01 3.02192E+02 2.58062E+02
 -1       318-2.88110E+02 7.75158E+02-9.55254E+01-1.26093E+02 5.48520E+02-1.05010E+02
 -1       319-3.15399E+02 1.23390E+03-2.71281E+02-1.55896E+02 6.04527E+02 2.31126E+02
 -1       320 2.47793E+02-1.32083E+03 2.22853E+02 6.28612E+02-4.45167E+02 1.35692E+02
 -1       321 2.37911E+02 5.37072E+01-3.54849E+02 6.34471E+02-4.77587E+02 1.78860E+02
 -1       322-8.13653E+02 2.43736E+03-9.32550E+02 5.22517E+02-1.42081E+01-6.43395E+00
 -1       323-1.04654E+03 3.72788E+03-1.53215E+03 1.21539E+02-4.67106E+02 1.95984E+02
 -1       324-8.33318E+02 4.69473E+03-2.13175E+03-1.74268E+02-7.44550E+02-2.54692E+01
 -1       325-1.23920E+03 5.92167E+03-2.59899E+03 4.45315E+02-5.78910E+02-1.04312E+02
 -1       326-7.92755E+02 6.91611E+03-3.06623E+03 1.81482E+03-3.94351E+02-1.41509E+02
 -1       327 5.91670E+02 2.96500E+03-1.52310E+03 4.50561E+03-8.60628E+02-1.54923E+03
 -1       328 4.20899E+02 3.65195E+02 2.00175E+01 5.66295E+03 8.84453E+02-1.18996E+03
 -1       329-2.98440E+03-6.22135E+02 1.54331E+03 4.57369E+03-1.58403E+03 8.59377E+02
 -1       330-1.06756E+03-5.11268E+03 2.43726E+03 1.01570E+03-4.24480E+02-1.56908E+02
 -1       331-6.56227E+01-7.59028E+03 1.89229E+03-1.73515E+03-5.98864E+02 2.64848E+02
 -1       332-9.24010E+02 3.20442E+03-6.82207E+02 1.53144E+03-9.91391E+02 5.26208E+02
 -1       333-1.30538E+03 6.62482E+03-1.70053E+03 3.68116E+02 2.49578E+01 4.60883E+01
 -1       334 1.00497E+03 5.12187E+03-2.41565E+03 9.86635E+02 2.89130E+01-4.31165E+02
 -1       335 2.66375E+03 8.24270E+02-1.49451E+03 4.46371E+03 1.56226E+03 9.14296E+02
 -1       336 1.01552E+04-2.44346E-03 2.87084E-03 1.21306E+01-1.91660E-03 3.19886E+03
 -1       337 7.94741E+03-1.40683E+02-8.27531E+02-1.66389E+03-6.96424E+02-9.11516E+01
 -1       338 1.31265E+03 1.15494E+02-1.65507E+03-3.15973E+03-2.28505E+02 3.25647E+03
 -1       339-5.87856E+03 9.35991E+02 7.28815E+02-1.74566E+03 1.76949E+02 1.21204E+02
 -1       340-6.99680E+03 7.81705E+02 3.11269E+03 1.81598E+03-1.37953E+02 4.07718E+02
 -1       341-5.17529E+03-1.05427E+03 2.46204E+03 9.48190E+02-4.46571E+02-3.76637E+01
 -1       342-2.29847E+03-2.29989E+03 1.81140E+03-6.36764E+02-1.95424E+01 1.52403E+02
 -1       343-1.10837E+03-3.54731E+03 1.81285E+03-2.02370E+03-2.02453E+03-8.44785E+02
 -1       344-1.79657E+03-3.30419E+03 1.81431E+03-2.82267E+03-1.11870E+03-1.20078E+03
 -1       345-1.28685E+03 1.89020E+03-4.31866E+02 3.26554E+03 3.94185E+02 9.07957E+02
 -1       346-2.58795E+03 4.27109E+03-8.50589E+02 2.99776E+03 1.26777E+03 7.11332E+02
 -1       347-2.22670E+03 6.11437E+03-1.26931E+03-3.34548E+02 1.11560E+03-6.46880E+02
 -1       348-6.55720E+02 4.57327E+03-1.51719E+03-1.27400E+03 1.85699E+03-1.83647E+02
 -1       349 2.22127E+03 2.28347E+03-1.76507E+03-5.51174E+02-1.39994E+02-1.88341E+01
 -1       350 4.91810E+03 1.11282E+03-2.38706E+03 1.04047E+03 1.51769E+02-4.09802E+02
 -1       351 6.46292E+03-4.95175E+02-3.00905E+03 2.05929E+03 4.81519E+02 3.98398E+02
 -1       352 5.72191E+03-8.49874E+02-6.61113E+02-1.77551E+03 2.04364E+02 3.37027E+02
 -1       353-1.27928E+03-2.72523E+02 1.68683E+03-3.51635E+03 1.04270E+01 3.23483E+03
 -1       354-7.70191E+03 3.80706E+01 8.43412E+02-1.86887E+03 5.08187E+02-1.78154E+02
 -1       355-9.83475E+03 1.52972E-03-2.64849E-03-3.82876E+01 1.96765E-03 3.08935E+03
 -1       356 8.37552E+03-1.39765E-03 2.99454E-03-1.18966E+02 1.31642E-03 2.28868E+03
 -1       357 1.22225E+03 4.23159E+02-1.61868E+03-2.75455E+03 1.82977E+02 2.18231E+03
 -1       358-6.00731E+03 1.25055E+03 2.63939E+03 4.26603E+02-1.02568E+02 5.86024E+02
 -1       359-4.65093E+03 6.75819E+02 1.54411E+03-1.36330E+03-1.98592E+02-1.88932E+03
 -1       360 1.80677E+03 3.17912E+03-6.91477E+02 1.65896E+03-5.14917E+02-1.12924E+03
 -1       361-2.03203E+03-2.10117E+03 9.12446E+02 1.00162E+03 5.61886E+02-2.61490E+02
 -1       362 3.44058E+03 1.09800E+03-1.77245E+03-1.86961E+03 8.30692E+02-1.94543E+03
 -1       363 5.95275E+03-1.69592E+03-2.45265E+03 7.07173E+02-9.01847E+01 5.71281E+02
 -1       364-1.31133E+03-3.64996E+02 1.59689E+03-3.06629E+03-5.99653E+01 2.00720E+03
 -1       365-7.80506E+03 1.21539E-03-2.95423E-03-1.32929E+02-6.88486E-04 2.10486E+03
 -1       366 6.68025E+03-1.82455E-04 2.31665E-03-1.73148E+02-3.24667E-04 1.97444E+03
 -1       367 5.30434E+03 1.91641E+02-7.91142E+02-1.31027E+03 2.52172E+02-1.96523E+02
 -1       368 1.01330E+03 6.32182E+02-1.58229E+03-2.29418E+03-2.43913E+01 1.49393E+03
 -1       369-2.68039E+03 8.00343E+02 2.91900E+02-1.39864E+03-2.18101E+02-1.12023E+02
 -1       370-4.77235E+03 8.54674E+02 2.16609E+03-2.07600E+02-3.76706E+01 7.62175E+02
 -1       371-6.74005E+03 1.34168E+03 1.72145E+03 3.38295E+02 4.72335E+01-3.14692E+01
 -1       372-6.22073E+03 2.28650E+03 1.27682E+03-3.83373E+02-6.75830E+02-1.13699E+03
 -1       373 2.14307E+03 2.14720E+03-9.60223E+02 1.02394E+03-2.56992E+02-5.73078E+02
 -1       374 4.86953E+03 3.53433E+03-1.92915E+03 4.27116E+03-3.23603E+03-3.98661E+03
 -1       375 1.45458E+03 4.57943E+02-9.33003E+02 1.01851E+03-9.41981E+01-6.45724E+02
 -1       376-1.22288E+02-3.19081E+02 4.47305E+02-2.58306E+02 1.31875E+02-8.94896E+02
 -1       377-4.94073E+01-1.65358E+02 6.19712E+01-5.66790E+01-1.36700E+01-9.20000E+02
 -1       378-6.53359E+01 1.49122E+02-6.76965E+01 8.64630E+01-1.42772E+01-8.63642E+02
 -1       379 1.87446E+01-1.39986E+01 3.13465E-01 1.61694E+02-1.09214E+00-9.20985E+02
 -1       380 5.57500E+01-1.85724E+02 7.93506E+01 4.34577E+01 7.10233E-01-8.84466E+02
 -1       381 3.14226E+01 2.17568E+02-8.63018E+01-2.00595E+01 2.64541E+01-9.07299E+02
 -1       382 8.46496E+01 4.15144E+02-4.27953E+02-2.41288E+02-1.39014E+02-9.07090E+02
 -1       383-9.48935E+02-6.46961E+02 7.98151E+02 1.01962E+03 1.51673E+02-8.62753E+02
 -1       384-3.36009E+03-4.77970E+03 1.86587E+03 4.15199E+03 3.89066E+03-3.12162E+03
 -1       385-2.97858E+03-1.78657E+03 6.57186E+02 1.68439E+03 1.12114E+03-4.83151E+02
 -1       386 3.22610E+03 1.76267E+03-1.77983E+03-2.60457E+03 1.18433E+03-1.03737E+03
 -1       387 7.30402E+03 1.43026E+02-1.83803E+03-1.55753E+03-2.65284E+02-5.55890E+02
 -1       388 4.42451E+03-1.58131E+03-1.89624E+03 4.78713E+02 1.36005E+02 4.28502E+02
 -1       389 1.94596E+03-8.78390E+02-1.94648E+02-9.34885E+02 1.86027E+02 1.90047E+02
 -1       390-1.19855E+03-3.58122E+02 1.50694E+03-2.58170E+03 4.87053E+01 1.05934E+03
 -1       391-4.80477E+03-7.99628E+01 7.53470E+02-1.53398E+03-2.80056E+02-2.35742E+02
 -1       392-5.93505E+03 5.50736E-04-2.73423E-03-2.04453E+02 1.01124E-03 1.61743E+03
 -1       393 5.34296E+03-7.45054E-04 2.42952E-03-1.17154E+02 1.50010E-03 1.22175E+03
 -1       394 1.10291E+03 3.18200E+02-1.31326E+03-1.95084E+03-1.63461E+02 1.06432E+03
 -1       395-3.79770E+03 1.08598E+03 1.55224E+03 9.92775E+01 2.02447E+02 4.75559E+02
 -1       396-4.34896E+03 2.66897E+03 8.54229E+02 3.02730E+03 7.15350E+02-1.28667E+03
 -1       397 6.59260E+02 9.94343E+02-8.28478E+02 1.04830E+03-8.76877E+02-1.56640E+02
 -1       398-2.23995E+02 5.30540E+01 2.80659E+02 1.63360E+02 1.02944E+02 1.07291E+02
 -1       399 3.87929E+01 2.65905E+01-8.69138E+01 2.07830E+02-2.59543E+01-1.23358E+02
 -1       400-2.21827E+01-3.99664E+01 8.60086E+01 2.05077E+02 2.89567E+01-1.17092E+02
 -1       401 1.42253E+02-8.16700E+01-2.66902E+02 1.06539E+02-1.36017E+02 5.06551E+01
 -1       402-4.38739E+02-1.42676E+03 9.08347E+02 9.88297E+02 6.23506E+02-8.66272E+01
 -1       403 5.20383E+02-4.18196E+02-6.83692E+02 1.14089E+03-7.82979E+01 1.89210E+02
 -1       404-1.81100E+03-1.91666E+02 1.39658E+03-2.38345E+03 8.25763E+01 8.03147E+02
 -1       405-4.15273E+03 4.28522E-04-2.58366E-03-1.72013E+02-3.87065E-03 7.87148E+02
 -1       406 4.09872E+03-1.17223E-04 2.37403E-03-1.14994E+02-1.64552E-03 8.80200E+02
 -1       407 3.40023E+03 5.32811E+00-5.22117E+02-9.99474E+02 2.73803E+02-1.07198E+02
 -1       408 1.35131E+03-1.92002E+00-1.04424E+03-1.63124E+03 1.08514E+02 9.04160E+02
 -1       409-7.20132E+02 3.08276E+02-5.29249E+01-4.92032E+02-8.73446E+01-2.27069E+02
 -1       410-2.49415E+03 8.62957E+02 9.38387E+02 5.14532E+02-5.46946E+00 1.58903E+01
 -1       411-3.26173E+03 9.61983E+02 6.85008E+02 1.54034E+03 5.44788E+02 1.00194E+03
 -1       412-1.92328E+03 1.32857E+03 4.31633E+02 3.31137E+03 9.33168E+02-4.08652E+02
 -1       413-4.25197E+02-8.68507E+01 4.40827E+02-2.50520E+02-9.27373E+02 1.40512E+02
 -1       414 8.32383E+01-1.46137E+02 2.73298E+02 1.08598E+02 5.17406E+01 1.38524E+02
 -1       415 2.49776E+02 1.74352E+02-2.59904E+02 5.10997E+02-1.18773E+02-1.54694E+02
 -1       416-5.96620E+01 3.89082E+01-5.70107E+01 3.19606E+02-4.48805E+00-2.84771E+01
 -1       417-9.00250E+00-3.68387E+01 5.68975E+01 3.00448E+02 2.47597E+01 2.05992E+00
 -1       418 1.01717E+01 2.55396E+00-5.22170E-01 3.01944E+02 5.54670E-01-1.59702E+01
 -1       419 1.58135E+01 3.85664E+01-5.96534E+01 3.06240E+02-2.09692E+01-2.91245E+00
 -1       420 4.74491E+01-6.34587E+01 5.91893E+01 2.96328E+02 1.97858E+01-1.17906E+01
 -1       421-1.65025E+02-2.43588E+02 2.51492E+02 5.00571E+02 1.50045E+02-1.10734E+02
 -1       422-5.01679E+01 2.21975E+02-2.72257E+02 1.63167E+02-1.06599E+02 9.94607E+01
 -1       423 3.04124E+02 1.21013E+02-4.31928E+02-2.49505E+02 8.75015E+02 1.29826E+02
 -1       424-1.17374E+03-1.07253E+02 5.28855E+02 8.72510E+02-5.56147E+02 1.00192E+03
 -1       425-1.67162E+03-1.24899E+02 9.07535E+02-6.87495E+02-6.31137E+01 2.77578E+01
 -1       426-2.31776E+03-2.23472E+02 1.28621E+03-2.33976E+03 1.22565E+02 9.17467E+01
 -1       427-2.43840E+03-9.96975E+01 6.43104E+02-1.35067E+03-1.51214E+02-1.18446E+01
 -1       428-2.48491E+03 7.50369E-04-1.11369E-03-1.56349E+02 1.54581E-03 2.21805E+02
 -1       429 2.80793E+03 6.92260E-04 1.74583E-03-9.88578E+01 2.32567E-03 4.99835E+02
 -1       430 1.72408E+03-2.68600E+02-9.43694E+02-1.71888E+03 3.34832E+01 4.75080E+02
 -1       431-7.00134E+01-2.07944E+02 3.58642E+02 6.43759E+02 1.73242E+02 4.75169E+02
 -1       432-2.23192E+02-3.08739E+01 8.91768E+01-2.15332E+01-9.22132E+02-2.81028E+01
 -1       433 6.50104E+01-4.70880E+01-6.36733E+01 2.99734E+02-1.33573E+01-2.12693E+01
 -1       434 8.79602E+00 4.64089E+00 7.92241E+00 2.88576E+02 2.92644E+00 9.53001E+00
 -1       435 1.73886E+00-1.12355E+01-9.50019E+00 2.84524E+02-1.31325E+00 9.48096E+00
 -1       436-3.66764E+01 6.02197E+01 5.45620E+01 3.16516E+02 2.87817E+01-1.28745E+00
 -1       437 1.59779E+02 5.04871E+01-6.20210E+01-5.52090E+01 9.05628E+02-1.16819E+01
 -1       438-1.09799E+03-4.04308E+02 6.93563E+02-2.20512E+03 4.61674E+02 2.99563E+02
 -1       439-1.17261E+03 9.01862E-04-1.28309E-03-1.02818E+02-1.50060E-03-1.04718E+02
 -1       440 1.45425E+03-5.67521E-04-1.26076E-04-1.23196E+02-7.69986E-04-2.19925E+02
 -1       441 1.69524E+03-1.39083E+02-4.21576E+02-1.26580E+03 6.86455E+01 4.80268E+01
 -1       442 2.02881E+03-3.60046E+02-8.43152E+02-2.12227E+03-1.57077E+02 3.47224E+01
 -1       443 1.76725E+03-3.37829E+02-5.32128E+02-5.42024E+02-1.57007E+01 1.22267E+01
 -1       444 1.32052E+03-2.31553E+02-2.21103E+02 6.39521E+02 1.41380E+02 4.50034E+02
 -1       445 1.89045E+02-5.04639E+01-7.75519E+01 4.80564E+01-8.95098E+02-1.28501E+00
 -1       446 3.98975E+01 2.64970E+01-8.56994E+01 2.06915E+02-1.23011E+02-2.97975E+01
 -1       447-3.99493E+01-9.94572E+00 5.60156E+01 3.07571E+02-4.44518E+00 2.04291E+01
 -1       448 1.28974E+01 2.13012E+00 6.77520E+00 2.87012E+02 7.19149E+00 2.84069E+00
 -1       449 2.25192E+00-5.86799E+00-9.92504E+00 2.78450E+02 5.68445E+00 4.69613E+00
 -1       450 4.53212E+00-3.31946E+00-9.18422E-01 2.80832E+02 1.18834E+00 2.71178E+00
 -1       451 8.25379E+00-7.01853E-02 8.23821E+00 2.77505E+02-3.97980E+00 7.62366E+00
 -1       452-2.41240E+00-6.01060E+00-8.68635E+00 2.85835E+02-8.81768E+00 3.33786E+00
 -1       453 3.39693E+01 1.18320E+01-5.53053E+01 2.96909E+02-1.62145E+00 2.57056E+01
 -1       454-2.54767E+01-3.54294E+01 8.13416E+01 2.06128E+02 1.21077E+02-2.35728E+01
 -1       455-1.39223E+02 6.86033E+01 5.75246E+01 8.51862E+01 8.52581E+02-1.43540E+01
 -1       456-2.60097E+01-2.14529E+02 1.00917E+02-1.79470E+03 3.72663E+02-3.62687E+01
 -1       457-5.41183E+01-5.59414E+01 5.04582E+01-9.28021E+02-1.61585E+02-4.31221E+00
 -1       458-8.22270E+01 7.15016E-04-4.15573E-04-5.35341E+01-4.83681E-04 1.09118E+02
 -1       459 1.71987E+02-2.20421E-04 1.85480E-04-1.55520E+02 2.98148E-03-8.98036E+00
 -1       460 1.34378E+02 9.16884E+01-1.00260E+02-2.64105E+03-7.99405E+02 5.53342E+01
 -1       461 1.04957E+01-1.63737E+00-1.06631E+01 1.57922E+02-9.29805E+02-1.62073E+00
 -1       462-1.43952E+00-8.68599E-01 2.53067E+00 3.05295E+02-1.91629E+01-1.10609E+00
 -1       463 4.53916E+00-1.53060E+00-1.83881E+00 2.80760E+02 2.19455E+00-1.11137E-02
 -1       464 4.43695E+00-2.60354E+00 2.33730E-01 2.80133E+02-8.72737E-01 2.88738E+00
 -1       465 8.97510E-02-6.01984E+00-2.60860E+00 2.97398E+02 1.64783E+01 2.78680E+00
 -1       466 5.69745E+00-1.21335E+01 6.85831E+00 1.57785E+02 9.07716E+02 5.58384E-01
 -1       467 8.69841E+02-8.53773E+01-4.04524E+02-1.74078E+03 3.72268E+02-1.60477E+02
 -1       468 8.57667E+02 3.22088E-04 7.48367E-04-9.06217E+01-1.01143E-03 3.06225E+01
 -1       469-1.07330E+03 2.70013E-04 4.59551E-04-1.10142E+02-4.88789E-04 3.13461E+02
 -1       470-1.35189E+03 1.76351E+02 3.21316E+02-1.17490E+03 7.37892E+01-5.18703E+01
 -1       471-1.75895E+03 4.62994E+02 6.42632E+02-1.94087E+03-1.54180E+02-3.06428E+01
 -1       472-1.59470E+03 3.59944E+02 4.36318E+02-4.70066E+02-3.23926E+01-1.12154E+01
 -1       473-1.17353E+03 2.36144E+02 2.30001E+02 5.31127E+02 8.90930E+01-3.70594E+02
 -1       474-1.61826E+02 5.59663E+01 5.42276E+01 6.56364E+01-8.79862E+02 4.33821E+00
 -1       475-3.03013E+01-2.50390E+01 7.44991E+01 2.05072E+02-1.22927E+02 2.58108E+01
 -1       476 3.95031E+01 1.05441E+01-5.14139E+01 3.03984E+02-5.07623E+00-2.43157E+01
 -1       477-4.98484E+00-4.09554E+00-7.30275E+00 2.86003E+02 7.49800E+00-1.97662E+00
 -1       478 6.53174E+00 1.86242E+00 6.52136E+00 2.78240E+02 4.21304E+00-4.18471E+00
 -1       479 3.97329E+00-1.64659E+00-8.11062E-01 2.80089E+02-5.31587E-01-1.15387E-01
 -1       480 5.49876E-01-5.19784E+00-8.16815E+00 2.77400E+02-5.02718E+00-2.38665E+00
 -1       481 9.82038E+00 6.84548E-01 6.74629E+00 2.83483E+02-8.25736E+00 1.92758E-01
 -1       482-3.20548E+01-1.41675E+01 5.15447E+01 3.01614E+02 3.36443E+00-1.86065E+01
 -1       483 3.26111E+01 2.61125E+01-7.58962E+01 2.04016E+02 1.17707E+02 2.59927E+01
 -1       484 1.55001E+02-5.90467E+01-5.15555E+01 5.84921E+01 8.68846E+02 8.91344E+00
 -1       485 1.02753E+03-1.92468E+02-6.66562E+01 5.75259E+02-1.10676E+02-3.89063E+02
 -1       486 1.35312E+03-2.26584E+02-4.88312E+02-3.88149E+02-1.56268E+00-5.85040E+00
 -1       487 1.77324E+03-1.75031E+02-9.09966E+02-1.44842E+03 1.41807E+02-1.56999E+02
 -1       488 1.83645E+03-5.20186E+01-4.54982E+02-8.67382E+02-1.18285E+02 3.02588E+01
 -1       489 1.85239E+03 3.09142E-05 4.13292E-04-1.16800E+02 3.64567E-04-3.33298E+01
 -1       490-2.29416E+03-8.53306E-04-1.40129E-03-8.61022E+01 1.87975E-03-4.03822E+02
 -1       491-1.49153E+03 3.29311E+02 7.57456E+02-1.49919E+03 3.90367E+01-3.68337E+02
 -1       492 1.69115E+00 2.55972E+02-2.90586E+02 5.06442E+02 1.70743E+02-4.37151E+02
 -1       493 1.72199E+02 3.66109E+01-4.47728E+01-2.67053E+01-9.09261E+02 1.39577E+01
 -1       494-4.39759E+01 4.81671E+01 4.69417E+01 3.04703E+02-1.88268E+01 9.62951E+00
 -1       495 2.59131E-01-7.87418E+00-6.99392E+00 2.84953E+02 1.62809E+00-7.61723E+00
 -1       496 6.26710E+00 5.07082E+00 5.53059E+00 2.84254E+02-1.50854E+00-6.08788E+00
 -1       497 5.03197E+01-4.84390E+01-4.85525E+01 3.03091E+02 1.78480E+01 1.52988E+01
 -1       498-1.80818E+02-3.41678E+01 4.85910E+01-2.71610E+01 9.02285E+02 1.85064E+01
 -1       499-1.07679E+02-1.53322E+02 3.86847E+02 6.28113E+02-1.30265E+02-3.69912E+02
 -1       500 1.52655E+03-1.03075E+02-9.31468E+02-1.24458E+03 1.45332E+00-4.99063E+02
 -1       501 2.77587E+03 2.10867E-04 1.72321E-03-8.56739E+01-2.35259E-03-5.07741E+02
 -1       502-3.43365E+03-1.04611E-04-1.89060E-03-1.03042E+02-1.26668E-03-7.13042E+02
 -1       503-2.84202E+03 1.07516E+01 4.36139E+02-8.47265E+02 2.51376E+02 9.61775E+01
 -1       504-1.15394E+03 6.06838E+01 8.72281E+02-1.38059E+03 8.72551E+01-7.68606E+02
 -1       505 5.24956E+02-1.72831E+02 3.05535E+01-4.31897E+02-6.88190E+01 1.88635E+02
 -1       506 1.97766E+03-6.03686E+02-8.11174E+02 4.31329E+02-1.80130E+01-2.08621E+01
 -1       507 2.65268E+03-7.57028E+02-5.48977E+02 1.29330E+03 4.26297E+02-8.47564E+02
 -1       508 1.58716E+03-1.07492E+03-2.86783E+02 2.70079E+03 7.97515E+02 2.89649E+02
 -1       509 3.37535E+02 8.20778E+01-3.40154E+02-2.20299E+02-8.89234E+02-1.30958E+02
 -1       510-6.21514E+01 1.59748E+02-2.31616E+02 1.39692E+02 6.48062E+01-1.09836E+02
 -1       511-1.91177E+02-1.83519E+02 2.19923E+02 4.87521E+02-1.22414E+02 1.24928E+02
 -1       512 5.25189E+01-4.47647E+01 4.69720E+01 3.06656E+02-1.03838E+01 2.06417E+01
 -1       513 1.47878E+01 3.21032E+01-4.96276E+01 3.00755E+02 2.10290E+01 3.31676E+00
 -1       514 3.31953E+00-9.54508E-01-5.61905E-01 2.99034E+02-3.80042E-01 1.87443E+01
 -1       515-8.80218E+00-3.39573E+01 4.82669E+01 3.00037E+02-2.20651E+01 4.45487E+00
 -1       516-4.88971E+01 4.27281E+01-4.86476E+01 3.07382E+02 9.04388E+00 2.22968E+01
 -1       517 1.98550E+02 1.81111E+02-2.23151E+02 4.88118E+02 1.20844E+02 1.31451E+02
 -1       518 6.58441E+01-1.57293E+02 2.33155E+02 1.35796E+02-6.41481E+01-1.11017E+02
 -1       519-3.42987E+02-8.02611E+01 3.42102E+02-2.21088E+02 8.88254E+02-1.31039E+02
 -1       520-1.70116E+03 1.14101E+03 3.10707E+02 2.72713E+03-8.44131E+02 3.21958E+02
 -1       521-2.83620E+03 8.47922E+02 5.75526E+02 1.33787E+03-4.56982E+02-8.75630E+02
 -1       522-2.18500E+03 7.49483E+02 8.40349E+02 5.50482E+02-1.38160E+01-6.53333E+01
 -1       523-6.21038E+02 2.87159E+02-5.63109E+01-2.67869E+02 8.99249E+01 2.24415E+02
 -1       524 1.26420E+03 3.73920E+01-9.52972E+02-1.20263E+03-1.15284E+02-7.80194E+02
 -1       525 3.07417E+03 3.35099E+00-4.76484E+02-7.42965E+02-1.82312E+02 6.66779E+01
 -1       526 3.66975E+03-3.61168E-04 2.22812E-03-7.82879E+01 1.60656E-03-8.21776E+02
 -1       527-4.46775E+03 5.55560E-04-2.02131E-03-9.81963E+01 1.17512E-03-1.03004E+03
 -1       528-9.48508E+02-2.33986E+02 1.09261E+03-1.61427E+03-1.43550E+02-8.72067E+02
 -1       529 3.07146E+03-7.87333E+02-1.28056E+03 9.26263E+01 1.45283E+02-3.76450E+02
 -1       530 3.52345E+03-2.18125E+03-7.15873E+02 2.47038E+03 5.71725E+02 1.06339E+03
 -1       531-5.05156E+02-1.07431E+03 7.05762E+02 9.36358E+02-7.62064E+02 1.25260E+02
 -1       532 1.69782E+02-6.02176E+01-2.31572E+02 1.45793E+02 1.04907E+02-7.30837E+01
 -1       533-2.44816E+01-3.01728E+01 7.12315E+01 2.04739E+02-2.43294E+01 1.20316E+02
 -1       534 3.08018E+01 2.81475E+01-7.30164E+01 2.04836E+02 2.43179E+01 1.22227E+02
 -1       535-1.72354E+02 5.82905E+01 2.33249E+02 1.47549E+02-1.04174E+02-7.32972E+01
 -1       536 5.20170E+02 1.05965E+03-7.07904E+02 9.45268E+02 7.75810E+02 1.32505E+02
 -1       537-3.65272E+03 2.31328E+03 7.23068E+02 2.51760E+03-5.81600E+02 1.11581E+03
 -1       538-3.21693E+03 9.00224E+02 1.30414E+03 1.79973E+02-1.74675E+02-3.99647E+02
 -1       539 1.00964E+03 2.70996E+02-1.15170E+03-1.47201E+03 1.29673E+02-9.09622E+02
 -1       540 4.63155E+03-6.16610E-04 2.13063E-03-8.53220E+01-9.18984E-04-1.06044E+03
 -1       541-5.55939E+03 1.36627E-04-1.95532E-03-1.40841E+02-2.41621E-04-1.63837E+03
 -1       542-4.41659E+03-1.49464E+02 6.56463E+02-1.06753E+03 2.19476E+02 1.58051E+02
 -1       543-8.75254E+02-5.01551E+02 1.31293E+03-1.86697E+03-4.56271E-01-1.23785E+03
 -1       544 2.15078E+03-6.43790E+02-2.18506E+02-1.11275E+03-1.95496E+02 1.01455E+02
 -1       545 3.88385E+03-6.90034E+02-1.74994E+03-1.53316E+02-8.45627E+01-5.71226E+02
 -1       546 5.48171E+03-9.63122E+02-1.44745E+03 2.40752E+02 1.45183E+02-5.48847E+01
 -1       547 4.96429E+03-1.46949E+03-1.14496E+03-3.86948E+02-3.53463E+02 8.31406E+02
 -1       548-1.56326E+03-1.95975E+03 6.61129E+02 4.15085E+02-8.58416E+02 9.16084E+02
 -1       549-3.68002E+03-3.48717E+03 1.42948E+03 3.32435E+03-3.35555E+03 3.42525E+03
 -1       550-1.12584E+03-4.82894E+02 7.18546E+02 9.32413E+02-1.19103E+02 7.33942E+02
 -1       551 8.74419E+01 3.22314E+02-3.38715E+02-2.20358E+02 1.29195E+02 8.80726E+02
 -1       552 3.97195E+01 1.68871E+02-4.56945E+01-3.09740E+01-1.46188E+01 9.03254E+02
 -1       553 6.20582E+01-1.48331E+02 4.31990E+01 6.72878E+01-9.52569E+00 8.67867E+02
 -1       554 3.76815E+00-1.10654E+00-9.34405E-01 1.54405E+02-1.23668E-03 9.12008E+02
 -1       555-5.76660E+01 1.45869E+02-4.43454E+01 6.94681E+01 9.85933E+00 8.68201E+02
 -1       556-3.69854E+01-1.68904E+02 4.41175E+01-3.35028E+01 1.42200E+01 9.06068E+02
 -1       557-8.66290E+01-3.20751E+02 3.42040E+02-2.23143E+02-1.29691E+02 8.85751E+02
 -1       558 1.15962E+03 4.77020E+02-7.31515E+02 9.38776E+02 1.18158E+02 7.27739E+02
 -1       559 3.79706E+03 3.43515E+03-1.44481E+03 3.32788E+03 3.35480E+03 3.48937E+03
 -1       560 1.63506E+03 1.97595E+03-6.79388E+02 3.05318E+02 8.29073E+02 9.58794E+02
 -1       561-5.10941E+03 1.63200E+03 1.13543E+03-4.37302E+02 3.37097E+02 8.62663E+02
 -1       562-5.64333E+03 1.08295E+03 1.45167E+03 2.73848E+02-1.36214E+02-5.37662E+01
 -1       563-3.97997E+03 7.66421E+02 1.76792E+03-7.46150E+01 9.49099E+01-5.78555E+02
 -1       564-2.19061E+03 7.02622E+02 2.08750E+02-1.01840E+03 1.94842E+02 1.03684E+02
 -1       565 8.94317E+02 5.26875E+02-1.35042E+03-1.76557E+03 1.74640E+01-1.25771E+03
 -1       566 4.50597E+03 1.61044E+02-6.75210E+02-1.01428E+03-2.11892E+02 1.74353E+02
 -1       567 5.67340E+03-1.74128E-04 2.03320E-03-1.39380E+02 5.05454E-05-1.65656E+03
 -1       568-6.93933E+03 1.14900E-03-2.50269E-03-9.37130E+01 9.37299E-04-1.88342E+03
 -1       569-1.04025E+03-3.48044E+02 1.35281E+03-2.25735E+03 1.37862E+02-1.79911E+03
 -1       570 4.88045E+03-1.02308E+03-2.18298E+03 4.18683E+02-3.25149E+01-5.24689E+02
 -1       571 3.58238E+03-4.02869E+02-1.22211E+03-1.11984E+03-5.60637E+02 1.62993E+03
 -1       572-2.04605E+03-1.45222E+03 6.61689E+02 5.15064E+02-8.81256E+02 9.06553E+02
 -1       573 2.12063E+03 1.43977E+03-6.85605E+02 5.08185E+02 8.96299E+02 9.27846E+02
 -1       574-3.64506E+03 5.08277E+02 1.20804E+03-1.18724E+03 5.48065E+02 1.66148E+03
 -1       575-4.94544E+03 1.08837E+03 2.19051E+03 4.71322E+02 3.70328E+01-5.42401E+02
 -1       576 1.05287E+03 3.56842E+02-1.37195E+03-2.17762E+03-1.38266E+02-1.81496E+03
 -1       577 6.98789E+03-1.17940E-03 2.53809E-03-9.07318E+01-8.72690E-04-1.88080E+03
 -1       578-8.38797E+03 1.93457E-03-2.36712E-03 1.11898E+01-1.53664E-03-2.61726E+03
 -1       579-6.57988E+03 1.04558E+02 6.96345E+02-1.35942E+03-5.63114E+02 7.58481E+01
 -1       580-1.11365E+03-1.16938E+02 1.39269E+03-2.58544E+03-1.66050E+02-2.68793E+03
 -1       581 4.83952E+03-7.35351E+02-6.11664E+02-1.39964E+03 1.05430E+02-8.81442E+01
 -1       582 5.73263E+03-5.22313E+02-2.61602E+03 1.51529E+03-1.99371E+02-3.02875E+02
 -1       583 4.23321E+03 7.94108E+02-1.95763E+03 8.97502E+02-2.91187E+02 2.68250E+01
 -1       584 1.59965E+03 1.55676E+03-1.29925E+03-2.70328E+02-5.11244E+01 3.76469E+01
 -1       585-3.13838E+02 3.47644E+03-1.22155E+03-1.09714E+03-1.58783E+03 6.17635E+02
 -1       586-1.32356E+03 4.76997E+03-1.14384E+03-3.60366E+02-7.74871E+02 3.50084E+02
 -1       587-2.09583E+03 3.33950E+03-6.68879E+02 2.33932E+03-1.01209E+03-5.39401E+02
 -1       588-1.00544E+03 1.46958E+03-1.93916E+02 2.49002E+03-2.13379E+02-7.95080E+02
 -1       589 1.01082E+03-1.44586E+03 1.78352E+02 2.45410E+03 2.15608E+02-7.92437E+02
 -1       590 2.09884E+03-3.29832E+03 6.50673E+02 2.28875E+03 9.94758E+02-5.26012E+02
 -1       591 1.29402E+03-4.69692E+03 1.12299E+03-3.95046E+02 7.56259E+02 3.52744E+02
 -1       592 3.02067E+02-3.41605E+03 1.20183E+03-1.13688E+03 1.58307E+03 6.50987E+02
 -1       593-1.60451E+03-1.49498E+03 1.28066E+03-3.16306E+02 5.82127E+01 2.89706E+01
 -1       594-4.27688E+03-7.30959E+02 1.94688E+03 8.87000E+02 3.00343E+02 1.78438E+01
 -1       595-5.78172E+03 5.82165E+02 2.61310E+03 1.53977E+03 2.09189E+02-2.93444E+02
 -1       596-4.85568E+03 7.68299E+02 6.09815E+02-1.36478E+03-9.98971E+01-7.80539E+01
 -1       597 1.12861E+03 1.19032E+02-1.39348E+03-2.52891E+03 1.64428E+02-2.67316E+03
 -1       598 6.59207E+03-1.08069E+02-6.96736E+02-1.31921E+03 5.75678E+02 8.61218E+01
 -1       599 8.38428E+03-1.98776E-03 2.46492E-03 1.73674E+01 1.50854E-03-2.60112E+03
 -1       600 2.46946E+03 5.48925E+02-1.30922E+03 3.73826E+03-1.33405E+03-6.51773E+02
 -1       601 8.56130E+02 4.11170E+03-1.94368E+03 8.67738E+02-4.41521E+01 2.88199E+02
 -1       602-8.98551E+02 5.30283E+03-1.39034E+03 1.72141E+02 2.98282E+01-1.34679E+02
 -1       603-8.03933E+02 2.43584E+03-4.64729E+02 1.10420E+03 7.44754E+02-4.02837E+02
 -1       604 8.05444E+02-2.39635E+03 4.50307E+02 1.07475E+03-7.30241E+02-4.05266E+02
 -1       605 8.88615E+02-5.23660E+03 1.37015E+03 1.29424E+02-2.75491E+01-1.41828E+02
 -1       606-8.65166E+02-4.04610E+03 1.92147E+03 8.20653E+02 4.39539E+01 2.84951E+02
 -1       607-2.48528E+03-5.21648E+02 1.30323E+03 3.74423E+03 1.31697E+03-6.50359E+02
 -1       608 2.62128E+02 2.70107E+02-2.42698E+00 4.83333E+03-6.97943E+02 6.64628E+02
 -1       609 5.86614E+02 2.39796E+03-1.29527E+03 3.68458E+03 6.43966E+02 1.35066E+03
 -1       610-4.41162E+02 5.59822E+03-2.58812E+03 1.46696E+03 3.45161E+02 1.91420E+02
 -1       611-9.75592E+02 4.69904E+03-2.11248E+03 3.74013E+02 4.78346E+02 2.48320E+01
 -1       612-6.88176E+02 3.62433E+03-1.63684E+03-2.55436E+02 4.70028E+02 1.62148E+02
 -1       613-8.59589E+02 3.04495E+03-1.18619E+03-6.30907E+01 5.12471E+02-2.03760E+02
 -1       614-1.17672E+03 2.62778E+03-7.35544E+02 2.14927E+02 1.55617E+02 8.72615E+01
 -1       615 1.16763E+03-2.59086E+03 7.22265E+02 1.81401E+02-1.47150E+02 8.65327E+01
 -1       616 8.54076E+02-3.00915E+03 1.16979E+03-9.61266E+01-5.02743E+02-1.98993E+02
 -1       617 6.87008E+02-3.58305E+03 1.61731E+03-2.90569E+02-4.67449E+02 1.70672E+02
 -1       618 9.60598E+02-4.64059E+03 2.08980E+03 3.40968E+02-4.69911E+02 1.91795E+01
 -1       619 4.19445E+02-5.52085E+03 2.56229E+03 1.42516E+03-3.37290E+02 1.89298E+02
 -1       620-5.81789E+02-2.35332E+03 1.27782E+03 3.64001E+03-6.37299E+02 1.34618E+03
 -1       621-2.46503E+02-2.63714E+02-6.64313E+00 4.81070E+03 7.23556E+02 6.58431E+02
 -1       622-6.83380E+02 4.73308E+03-5.83876E+02-1.49121E+03 6.85809E+01-9.87534E+01
 -1       623-6.19164E+02 1.99500E+03-2.44042E+02-1.16425E+03 5.45243E+01 1.66823E+02
 -1       624-5.98064E+02 4.10121E+02 1.89587E+02-3.10234E+02-3.89573E+02 2.13223E+02
 -1       625 6.00716E+02-4.18494E+02-1.86224E+02-3.37395E+02 3.93357E+02 2.10769E+02
 -1       626 6.17509E+02-1.97272E+03 2.40238E+02-1.18105E+03-5.13807E+01 1.68901E+02
 -1       627 6.69509E+02-4.67580E+03 5.75722E+02-1.49587E+03-7.32819E+01-9.37652E+01
 -1       628-9.25084E+01-1.15049E+03 1.42037E+03-2.65138E+03 2.71551E+03 1.46608E+02
 -1       629-2.96868E+02-9.96003E+02 1.28456E+03-2.35236E+03 1.72734E+03-1.38391E+02
 -1       630-3.80162E+02-7.45357E+02 1.14876E+03-1.99526E+03 1.11880E+03 2.23939E+01
 -1       631-4.77393E+01-1.15388E+03 1.13174E+03-1.72555E+03 8.82287E+02 1.47575E+02
 -1       632 9.26568E+00-1.91632E+03 1.11472E+03-1.71301E+03 6.58507E+02 5.90730E+01
 -1       633-4.39769E+02-1.23476E+03 8.21634E+02-1.75953E+03 4.64719E+02 4.63681E+02
 -1       634-3.80106E+02-3.49856E+02 5.28552E+02-1.22743E+03 1.44116E+02 3.02621E+02
 -1       635-1.11583E+01-5.46107E+00 8.33614E+00-1.09576E+03 5.82817E+00 8.78325E+01
 -1       636 3.64051E+02 3.35369E+02-5.11879E+02-1.20644E+03-1.40956E+02 3.00918E+02
 -1       637 4.41351E+02 1.20370E+03-8.03296E+02-1.73287E+03-4.55255E+02 4.52640E+02
 -1       638 6.71146E+00 1.87072E+03-1.09471E+03-1.70481E+03-6.42196E+02 5.64449E+01
 -1       639 5.91780E+01 1.12840E+03-1.11577E+03-1.72765E+03-8.70269E+02 1.47351E+02
 -1       640 3.79980E+02 7.36592E+02-1.13683E+03-1.99851E+03-1.10441E+03 2.13188E+01
 -1       641 2.95329E+02 9.88932E+02-1.27384E+03-2.35131E+03-1.70908E+03-1.36059E+02
 -1       642 9.51837E+01 1.14445E+03-1.41084E+03-2.64462E+03-2.69351E+03 1.44420E+02
 -1       643 1.05730E+02-6.48677E+03 7.10182E+02-1.38177E+03-5.39843E+01 5.29535E+02
 -1       644-1.08433E+02-4.24169E+03 5.74377E+02-1.16469E+03-2.06770E+02-2.43165E+02
 -1       645 4.13333E+00-2.51551E+03 5.57357E+02-1.10905E+03-3.26208E+01-1.11019E+02
 -1       646-1.56294E+02-5.48895E+02 2.64276E+02-6.66014E+02-7.14085E+01-1.59076E+02
 -1       647 1.50204E+02 5.28005E+02-2.55939E+02-6.55626E+02 6.97192E+01-1.63280E+02
 -1       648 1.86165E+00 2.46225E+03-5.47355E+02-1.09850E+03 3.03924E+01-1.11535E+02
 -1       649 1.08187E+02 4.18941E+03-5.68415E+02-1.16608E+03 2.02023E+02-2.40480E+02
 -1       650-1.02909E+02 6.43368E+03-7.05421E+02-1.38132E+03 5.09559E+01 5.23093E+02
 -1       651 1.71476E-03-8.27184E+03-1.91480E-03 3.31893E+00 2.61744E+03 1.60626E-03
 -1       652 1.02011E-03-6.80488E+03-2.37643E-03-9.99916E+01 1.86328E+03-9.93051E-04
 -1       653-1.34808E-04-5.39091E+03-2.43695E-03-1.52214E+02 1.53368E+03 5.24392E-04
 -1       654 1.23375E-04-4.00459E+03-2.09371E-03-1.25174E+02 9.24392E+02-1.97614E-03
 -1       655 1.16668E-03-2.67314E+03-1.33767E-03-1.50974E+02 4.01526E+02 8.81556E-04
 -1       656 1.01454E-03-1.59143E+03-1.52002E-03-1.23434E+02 5.28953E+01-1.72927E-03
 -1       657-3.95224E-06-7.47935E+02-3.81686E-04-6.08118E+01 2.89987E+02-7.73822E-04
 -1       658 2.88735E-05-1.18650E+01-1.54218E-05-3.95610E+01-7.29816E-02 3.96738E-04
 -1       659 9.80121E-06 7.20640E+02 3.46470E-04-6.05457E+01-2.77964E+02-7.88195E-04
 -1       660-1.02192E-03 1.55145E+03 1.48609E-03-1.20702E+02-4.61317E+01-1.69344E-03
 -1       661-1.15412E-03 2.61738E+03 1.31564E-03-1.48620E+02-3.98260E+02 9.10729E-04
 -1       662-1.50090E-04 3.94175E+03 2.06417E-03-1.24644E+02-9.06984E+02-1.99093E-03
 -1       663 1.07728E-04 5.32290E+03 2.40744E-03-1.51994E+02-1.51605E+03 5.48806E-04
 -1       664-1.01267E-03 6.73974E+03 2.35659E-03-1.00343E+02-1.84747E+03-1.00858E-03
 -1       665-1.69300E-03 8.20759E+03 1.89089E-03 1.34218E+00-2.60202E+03 1.61676E-03
 -1       666 1.11555E-12 1.20963E-10 9.82681E-11 9.10916E-11 3.13513E+03-1.55364E-03
 -1       667-1.81188E-13 2.19131E-10 2.77751E-11-2.63611E-12 1.81379E+03 2.60190E-03
 -1       668-1.50990E-13 4.97806E-11 2.72706E-11-1.44667E-11 6.02182E+02 3.19415E-03
 -1       669-1.59872E-14-3.13136E-11-2.17604E-11-2.31495E-11-3.37004E+02 1.34474E-03
 -1       670-5.59552E-14-8.17124E-11 4.45830E-11-1.69322E-11 2.73359E+02 1.99631E-03
 -1       671-2.16716E-13 7.85860E-12 1.03000E-10-1.93126E-11-8.38954E+02 3.55010E-03
 -1       672-2.97096E-13 1.75277E-10 8.75815E-11-6.97185E-11-1.91164E+03 1.76137E-03
 -1       673-5.41789E-13 1.92415E-10-8.26361E-11-8.99831E-11-3.10860E+03-2.02095E-03
 -1       674 1.16710E-10 2.16147E-10-4.15994E-10 4.28435E-12 3.27722E+03-4.38581E+01
 -1       675 6.30083E-11 5.53122E-11 8.73599E-11 3.93807E-12 1.13909E+03-1.08769E+02
 -1       676-4.45999E-11 1.31381E-10-1.04323E-10-6.13376E-12 3.97634E+02 6.67599E+01
 -1       677-3.69020E-11 7.75913E-12 1.76534E-11 1.69903E-11 1.17596E+02-1.05141E+02
 -1       678-5.89052E-11-9.33890E-11 1.95565E-10-9.04047E-12-3.31694E+01-1.42579E+02
 -1       679-7.85683E-11 1.60419E-10 7.54294E-11-6.84910E-11-9.04771E+02 1.10589E+02
 -1       680-1.09722E-10 1.41853E-10 2.62663E-10-1.33392E-10-1.49447E+03-1.60908E+01
 -1       681 1.76197E-11 3.61069E-10-7.73056E-10-7.62430E-11-3.23690E+03-2.24425E+02
 -1       682 3.95062E-11-7.35952E-10 4.27812E-09-2.26978E-10-1.15419E+03-8.58247E+02
 -1       683 4.43137E-10-5.39065E-11-4.19741E-10 1.64129E-10 4.32223E+02-5.41983E+02
 -1       684 1.50179E-10 4.01859E-11-1.38744E-09 1.00975E-10 5.46696E+02-2.52260E+02
 -1       685 1.54596E-11 5.67972E-11-7.31553E-10 1.78542E-11 3.28588E+02 2.33895E+02
 -1       686-1.82666E-10 1.06525E-10 1.36907E-10-5.05622E-11 6.15886E+02 2.23546E+02
 -1       687 6.87024E-11-1.38712E-10 3.70456E-10-1.25397E-10-4.58090E+02 1.10776E+02
 -1       688 1.39157E-10 2.46246E-10-4.33777E-10 7.14285E-11-3.87896E+01-3.19730E+01
 -1       689-2.08462E-10 2.11188E-10 6.76774E-10-4.91971E-11-7.75015E+02-4.84742E+01
 -1       690-1.75787E-10 5.17701E-11 1.59109E-09 4.95011E-13-4.09377E+02-1.32770E+02
 -1       691 1.50067E-10 6.71747E-11-2.50196E-09 1.49441E-10 8.19148E+02-1.12342E+03
 -1       692 3.78122E-10 2.70006E-13 3.23013E-11 1.22355E-10-2.03961E-03 3.16325E+03
 -1       693 2.81233E-10 1.77991E-11-9.44560E-10-5.54827E-11-2.26940E+02 3.29009E+03
 -1       694-5.66539E-11-4.87788E-10 1.05773E-09 6.67959E-11-1.29011E+02 4.23293E+02
 -1       695-1.27049E-10 1.81846E-10-7.85672E-10 5.59179E-11-3.88293E+01 1.38376E+02
 -1       696 2.40732E-10 9.94476E-11-1.38489E-09-7.82734E-11-1.17445E+03-1.20077E+03
 -1       697-2.80352E-10-4.30873E-10 2.27789E-09-4.18652E-11 4.04992E+02 8.89913E+02
 -1       698 1.15215E-10 5.26957E-10-9.59517E-11 4.75945E-11 1.15939E+03-6.60046E+02
 -1       699-7.86142E-11-1.40041E-10 3.10784E-10 1.76572E-10-1.26097E+02-3.76178E+01
 -1       700-2.80428E-12-2.20948E-10-4.13256E-10 7.72099E-11 4.75753E+02 4.14275E+02
 -1       701 2.84913E-10-1.04397E-10-4.87113E-10-2.28866E-11 6.55365E+00 3.26733E+03
 -1       702 1.76101E-10-3.61267E-12 1.50651E-09 9.52838E-12 1.43723E-03 3.05304E+03
 -1       703 1.37106E-10 5.68434E-13-6.67271E-11-1.12266E-12 1.80703E-03 1.94037E+03
 -1       704 2.86200E-10-1.06859E-10-4.62787E-10 8.65397E-11-1.78066E+01 1.51733E+03
 -1       705 1.64711E-10-2.30074E-10 7.35298E-10 2.31566E-11-6.11137E+01 7.93016E+02
 -1       706 4.39021E-11 1.75750E-10-8.09185E-10-1.01418E-10-6.89611E+02-1.18196E+03
 -1       707 2.87734E-10-6.58611E-11-1.06170E-09 1.00783E-10-2.83651E+03-3.56762E+03
 -1       708 3.96184E-11-1.48237E-12-7.07441E-10 3.04183E-11 8.24565E+01-1.14918E+03
 -1       709 1.51526E-11 1.97549E-11 1.47316E-11-7.49978E-12 1.71643E+02-7.59197E+02
 -1       710 7.89646E-13-6.30678E-11-1.17814E-10 5.24913E-12-2.28367E+02-8.36777E+02
 -1       711-5.18396E-11 1.64606E-11-2.61262E-11-1.59499E-11-1.12687E+02-1.08008E+03
 -1       712-6.22933E-10 1.09701E-10 4.31150E-10 2.51727E-10 3.48178E+03-2.73793E+03
 -1       713-4.77063E-10 6.34017E-11 1.34155E-09 1.86798E-10 1.18406E+03-1.09121E+03
 -1       714 1.07264E-10-2.31446E-10-1.36041E-09-1.27343E-10 1.69439E+02 4.76604E+02
 -1       715-1.09353E-11-5.18319E-11 3.98298E-10 1.01780E-10 4.43874E+01 1.07983E+03
 -1       716 1.33369E-10-2.77556E-13 8.07042E-10 3.66747E-11-2.94262E-03 1.58498E+03
 -1       717 1.46059E-10 2.62901E-13-3.33955E-11-8.31335E-12 3.56369E-03 8.57707E+02
 -1       718 3.96483E-12-1.19593E-10 6.37868E-10 5.76010E-11 1.16485E+02 9.14299E+02
 -1       719 3.85967E-11 2.03357E-11-4.25414E-11 2.11150E-12-3.14474E+01 4.07580E+01
 -1       720-1.51431E-10 1.59105E-10 2.85837E-10-3.34239E-11 9.14957E+02-4.19590E+02
 -1       721-3.29217E-11-8.44269E-11 5.49430E-10-4.90008E-11-1.10941E+03 1.12673E+02
 -1       722 1.51208E-11-9.85864E-13 1.11637E-11 3.51257E-11-3.42794E+02-4.55453E+02
 -1       723-1.34740E-11-1.45239E-11 2.88209E-10 3.34213E-11 5.62190E+01 2.85437E+01
 -1       724 2.80600E-11 1.94530E-11 2.94613E-10 2.55440E-11-5.62266E+01 6.04704E+00
 -1       725 4.16353E-11 2.03773E-11 5.10703E-11 1.52274E-11 4.44370E+02-3.24655E+02
 -1       726-6.23575E-11-4.61586E-11 4.17446E-10-7.06546E-13 1.12395E+03 8.25657E+01
 -1       727-4.03020E-11-7.55556E-11-8.71410E-10-6.58531E-11-5.03854E+02 1.01828E+03
 -1       728-2.88232E-11 4.49484E-11 7.25316E-11 2.87793E-11 1.10870E+02 7.87152E+01
 -1       729 5.72626E-11-6.23834E-13 3.07988E-10-9.61187E-12-2.76776E-03 1.94083E+02
 -1       730-5.18980E-11 3.65930E-13-4.33644E-11-3.82698E-11 1.85995E-03-2.38099E+02
 -1       731-4.77674E-11-9.62501E-11 1.23598E-10 3.15422E-11-1.43507E+02 2.70820E+01
 -1       732-6.29825E-11 2.14619E-10-2.70433E-10-6.23857E-12 1.16376E+02 4.63461E+02
 -1       733 3.01443E-11-2.18322E-11-2.37645E-10 3.18323E-12-8.36644E+02 2.32066E+02
 -1       734-2.41238E-11-3.72260E-11 4.03745E-11 2.76037E-11 8.49629E+00 5.68883E+01
 -1       735 1.19112E-11 1.56995E-11-1.63289E-10 2.89155E-11 1.49800E+01 1.26692E+01
 -1       736-4.90552E-12-4.19697E-12 6.35499E-11 3.20561E-11-1.24143E+01 1.71366E+01
 -1       737 5.99765E-12-5.42303E-11 2.48959E-10 1.85112E-11-2.67824E+01 5.41133E+01
 -1       738 2.95231E-12 4.45910E-12-6.80673E-11-1.58629E-11 7.52342E+02 1.61143E+02
 -1       739-2.87557E-11 1.47716E-10-6.22935E-11 4.46150E-11 3.48985E+02-3.84445E+01
 -1       740 7.10827E-11-2.23155E-14-1.25353E-11-1.01444E-10-1.13833E-03 1.06942E+02
 -1       741-7.66818E-11 4.69846E-13-1.62146E-11-3.70406E-11 1.76302E-03 3.27313E+02
 -1       742-1.32519E-10-5.73526E-11 1.08315E-10-7.38112E-11-1.40199E+02-2.43778E+01
 -1       743-1.38080E-10 2.12758E-10 2.71626E-10 3.33031E-11 6.66408E+01-3.79503E+02
 -1       744-6.77236E-12-6.17702E-11 2.44364E-10-1.57030E-12-8.12375E+02-1.90565E+02
 -1       745 6.96670E-12-2.77226E-11-3.85281E-11 2.39977E-11 1.00793E+01-5.82075E+01
 -1       746-6.97682E-12-5.22415E-13 1.35047E-10 2.60858E-11 1.23945E+01-1.18737E+01
 -1       747-6.82732E-13 6.26177E-12-2.74761E-11 3.52083E-11-1.35071E+01-1.10839E+01
 -1       748 2.69438E-11 2.03833E-11-9.73226E-11 6.47749E-12-8.86379E+00-4.88917E+01
 -1       749-3.01394E-11-1.58836E-11-8.75673E-11 3.09930E-12 8.10340E+02-1.84278E+02
 -1       750-1.27127E-10 2.35101E-12-8.46185E-11 8.34177E-12-9.11164E+01-4.07259E+02
 -1       751 1.74307E-10 2.64081E-10-1.78861E-10-2.56283E-10 1.33922E+02-1.49988E+02
 -1       752 1.52966E-10-1.91729E-13-3.68061E-10-1.08201E-10-2.27800E-03-1.37163E+01
 -1       753-1.76215E-12 2.68230E-13-1.07647E-11-4.99085E-11 3.17156E-03-6.94253E+02
 -1       754 1.09948E-10-2.11058E-11-1.04009E-10-7.32117E-11 9.44836E+01-7.77370E+02
 -1       755-1.53449E-10 1.15226E-11 8.24656E-10-7.35033E-11-3.89880E+01-4.13013E+01
 -1       756-4.04100E-10 2.09042E-10 2.27166E-09-7.20206E-11 7.79022E+02 3.00965E+02
 -1       757 9.44249E-11-3.05667E-12-4.55787E-11 2.04370E-12-1.08531E+03-1.01894E+02
 -1       758 2.10745E-11 1.46331E-11-1.92994E-10 1.64050E-11-3.52720E+02 3.64455E+02
 -1       759-2.50316E-11-2.22931E-11 2.50501E-10 2.45547E-11 5.07295E+01-1.27870E+01
 -1       760 1.98536E-11-9.37583E-12 5.09119E-11 2.13431E-11-5.15086E+01-1.25259E+01
 -1       761 1.45390E-11-1.55120E-11 9.17773E-11 2.49700E-11 3.48527E+02 3.76072E+02
 -1       762-2.07159E-11-4.39808E-11-3.90251E-10-4.26219E-11 1.08020E+03-1.05574E+02
 -1       763 5.13296E-11 2.06910E-11-9.18448E-10 7.78222E-11-8.26360E+02 3.33387E+02
 -1       764 1.31057E-10 1.60933E-10-3.48422E-10-8.29248E-11 6.03346E+00-8.73142E+01
 -1       765-1.81356E-10 6.82858E-11 9.14683E-10-1.86358E-10-1.20034E+02-7.89274E+02
 -1       766 2.83933E-11-1.15338E-13-6.27128E-10-1.16257E-10-2.59037E-03-8.01249E+02
 -1       767 5.17559E-11 2.89990E-13 1.22753E-10-5.80798E-11 1.46863E-03-1.61011E+03
 -1       768 1.16088E-10-9.38361E-12-1.68974E-10-2.20024E-11 5.15367E+00-1.25676E+03
 -1       769 1.59901E-10-4.80203E-11-6.48690E-10-9.35036E-11-1.04023E+02-5.97738E+02
 -1       770 5.55123E-11 2.75460E-10 1.05068E-09-7.30527E-12-3.61874E+02 8.66096E+02
 -1       771-3.42884E-10-4.95161E-10 6.01492E-11 3.05624E-10-3.03281E+03 3.09338E+03
 -1       772 7.00457E-11 1.33258E-11-7.04267E-10 4.87144E-12 1.00586E+02 1.08368E+03
 -1       773-2.34042E-11 2.33369E-11-2.38730E-10 1.36016E-11 1.73674E+02 7.98312E+02
 -1       774-2.13038E-11-1.23190E-11-1.05619E-10-8.04956E-12-1.72233E+02 7.94843E+02
 -1       775 9.91260E-11 2.24532E-11-3.87743E-11 1.74607E-11-9.95426E+01 1.09460E+03
 -1       776 6.14399E-10-2.69791E-10 3.55918E-10 1.39835E-10 3.03373E+03 3.15112E+03
 -1       777-1.32675E-10-2.03671E-10-1.52814E-11 5.06537E-10 3.45137E+02 8.97875E+02
 -1       778-3.67081E-10 3.40652E-10 1.21852E-09-1.24618E-10 1.14024E+02-6.05369E+02
 -1       779-2.80146E-10 1.19185E-10 1.70817E-09-2.85182E-10 1.27158E+01-1.27681E+03
 -1       780-1.18689E-10-2.06057E-13-9.73107E-10-1.68791E-10-1.34863E-03-1.62748E+03
 -1       781 3.51633E-10 6.78568E-13 3.60956E-11-1.02801E-10-1.71686E-03-2.58728E+03
 -1       782 1.47054E-10-1.55699E-10 5.85501E-10-4.54863E-11-1.64333E+02-2.71618E+03
 -1       783 1.65869E-10 1.18463E-10-1.29331E-09 5.88984E-11-1.93044E+02-3.12769E+02
 -1       784-1.90129E-10 8.22560E-11 1.31751E-09 2.05175E-10-6.67083E+01 5.35443E+01
 -1       785 4.26309E-10 3.93356E-11-1.43939E-09 1.72679E-10-8.07942E+02 3.59172E+02
 -1       786-2.21263E-11 5.22959E-11-6.69999E-10-5.97176E-11-2.25065E+02-7.74608E+02
 -1       787 2.44533E-10 2.81943E-10-1.19162E-09-1.71987E-11 2.27344E+02-7.72079E+02
 -1       788-2.10617E-10-6.88493E-10 1.86489E-09-5.50671E-13 7.89393E+02 3.61827E+02
 -1       789 2.42125E-10-3.25649E-10 4.72141E-10 1.69333E-10 7.36209E+01 4.50618E+01
 -1       790 2.13111E-10 7.71319E-10-7.62398E-10-3.77440E-11 2.02518E+02-3.03098E+02
 -1       791-5.00165E-10 2.53790E-10 1.18638E-09 6.77485E-11 1.63504E+02-2.70138E+03
 -1       792-9.49285E-10 4.36984E-13-4.95611E-10-2.37151E-10 1.87835E-03-2.57113E+03
 -1       793 2.31594E-10 3.91424E-10-4.46579E-09-2.95728E-10-6.41595E+02 6.08882E+02
 -1       794-1.29939E-10-1.36017E-10 2.46096E-09 9.06607E-11 3.55455E+02 1.86518E+02
 -1       795-2.98437E-10 1.39242E-10 1.46020E-09-1.38805E-10 4.94760E+02 1.82123E+02
 -1       796-2.49001E-12 2.90363E-11 1.21588E-10-9.89075E-12 1.69735E+02 1.06691E+02
 -1       797-2.38405E-11 2.19828E-10-1.22632E-09 1.02084E-10-1.60885E+02 1.05827E+02
 -1       798-7.78577E-11 6.05986E-11-5.91573E-10 6.09113E-11-4.91827E+02 1.90512E+02
 -1       799-9.04888E-11-6.20145E-10 6.81534E-10 6.15046E-11-3.47433E+02 1.84426E+02
 -1       800-1.54984E-10 5.37966E-10 4.96044E-10 1.81899E-10 6.67075E+02 6.03046E+02
 -1       801 2.33003E-11 4.57376E-10-4.11151E-10 9.86304E-11 2.74346E+03 1.40755E+02
 -1       802-4.87069E-11 2.15350E-10-1.90687E-10-8.26521E-11 1.13648E+03 1.90993E+01
 -1       803-1.25006E-10 8.02819E-11 1.58259E-10-3.60825E-11 6.55800E+02 5.43692E+01
 -1       804-1.71130E-11-5.00222E-12-1.98820E-10-3.03313E-12 1.32722E+02 2.85084E+02
 -1       805-1.19600E-11 1.45235E-11-1.17379E-11-6.91891E-12-1.29921E+02 2.83417E+02
 -1       806-1.13894E-10 1.93206E-10-4.20285E-10 4.07449E-11-6.39538E+02 5.16489E+01
 -1       807 3.29900E-11-7.03082E-11-2.42241E-10 2.53370E-10-1.12188E+03 1.79111E+01
 -1       808 1.45790E-10-3.64366E-10 6.65309E-10 2.67519E-11-2.72119E+03 1.38515E+02
 -1       809 1.76226E-12 2.21291E-10 6.47365E-10-1.00137E-10 2.58687E+03 1.37939E-03
 -1       810-6.13953E-14 5.52092E-11-9.24167E-11 2.05258E-11 1.50895E+03-2.18701E-03
 -1       811 2.83995E-13 6.25278E-11-1.51702E-10 1.35092E-11 3.77505E+02-1.68248E-03
 -1       812 2.95319E-13 2.84928E-12-8.13927E-11 6.92957E-12 2.78593E+02-1.16377E-03
 -1       813 4.10338E-13-1.88578E-11-2.01434E-10 3.08926E-11-2.66930E+02-1.22638E-03
 -1       814 5.01155E-13 3.63798E-12-7.38343E-11 2.47304E-11-3.74670E+02-1.68427E-03
 -1       815 6.87450E-13 3.79714E-11-1.86501E-10 5.87335E-11-1.49157E+03-2.17693E-03
 -1       816-1.19549E-12 8.02629E-11 1.06449E-09 5.84777E-11-2.57165E+03 1.32667E-03
 -1       817 2.09668E-03-1.00536E+04-3.20047E-03 2.32183E+01 3.17219E+03-2.60545E-03
 -1       818 1.60017E-03-8.08063E+03-3.19062E-03 1.30574E+02 2.17009E+03 1.27701E-03
 -1       819 9.94176E-04-6.30886E+03-2.42163E-03 2.01415E+02 1.85099E+03-5.99998E-04
 -1       820 1.07079E-03-4.92718E+03-2.65552E-03 1.34202E+02 8.80734E+02 2.67670E-03
 -1       821-1.60765E-04-3.70624E+03-2.42804E-03 8.06731E+01 6.26816E+02-1.25516E-03
 -1       822-9.31921E-04-2.51035E+03-1.79522E-03 7.89837E+01 3.75581E+02 9.25769E-04
 -1       823 3.61557E-04-1.22590E+03 1.95495E-04 1.24841E+02-3.19812E+02-2.27046E-04
 -1       824-7.79378E-06 8.99909E+01 2.22222E-05 1.59923E+02-3.14471E+01 3.19572E-03
 -1       825-4.11960E-04 1.39684E+03-3.35004E-04 1.20260E+02 2.55651E+02-7.41966E-04
 -1       826 7.69141E-04 2.75629E+03 1.71000E-03 9.73087E+01-4.86704E+02 2.19743E-03
 -1       827-5.28846E-05 4.04403E+03 2.32295E-03 1.16199E+02-8.61079E+02-1.54485E-03
 -1       828-7.20856E-04 5.26636E+03 2.38836E-03 1.16025E+02-1.20691E+03 1.47129E-03
 -1       829-1.70105E-04 6.57636E+03 2.27566E-03 1.69024E+02-1.94511E+03-3.17393E-04
 -1       830-1.37466E-03 8.23690E+03 2.94118E-03 1.16317E+02-2.25077E+03 1.28168E-03
 -1       831-2.40697E-03 9.98213E+03 2.82242E-03-1.23114E+01-3.14356E+03-1.86815E-03
 -1       832 3.60081E+01-7.88477E+03 8.60884E+02 1.84362E+03-1.94199E+02-6.15484E+02
 -1       833-1.58809E+02-5.10738E+03 8.63780E+02 1.35459E+03-1.76252E+02 2.28580E+02
 -1       834-6.52690E+01-3.20539E+03 5.71640E+02 9.14314E+02-4.13657E+01 2.66811E+02
 -1       835 1.79869E+02-1.53851E+03 3.98750E+02 1.27378E+03 4.71713E+01 1.02445E+02
 -1       836-1.55650E+02 1.65799E+03-4.10762E+02 1.27732E+03-5.68869E+01 7.94547E+01
 -1       837 2.15908E+00 3.35235E+03-5.13564E+02 9.85447E+02 1.08005E+02 2.77493E+02
 -1       838 1.87290E+02 5.22111E+03-7.77446E+02 1.28240E+03 1.93685E+02 2.47694E+02
 -1       839-1.38334E+02 7.81192E+03-8.12384E+02 1.63208E+03 9.19432E+01-6.85405E+02
 -1       840-3.58431E+02-1.33512E+03 1.72177E+03 3.47678E+03 3.24414E+03-4.37274E+01
 -1       841-5.04498E+02-1.36162E+03 1.72467E+03 2.93380E+03 2.09758E+03 7.18708E+01
 -1       842-5.92284E+02-1.23188E+03 1.72756E+03 2.31081E+03 1.11781E+03-1.15004E+02
 -1       843-4.79254E+02-1.52032E+03 1.43542E+03 1.92234E+03 9.89698E+02-2.97956E+01
 -1       844-1.16777E+02-1.65215E+03 1.14328E+03 1.59116E+03 3.96753E+02 5.67306E+01
 -1       845 3.81143E+02-1.98513E+03 9.70391E+02 1.65974E+03 2.25974E+02-3.88900E+01
 -1       846 4.80643E+02-2.18345E+03 7.97500E+02 2.08140E+03 1.25271E+02-1.21749E+02
 -1       847 2.65790E-01 3.85334E+01-1.20120E+01 2.76615E+03-2.53643E+01-8.40168E+02
 -1       848-4.08124E+02 2.02227E+03-8.21524E+02 2.13784E+03-4.06668E+01-1.57173E+02
 -1       849-2.95449E+02 1.71469E+03-9.24327E+02 1.70754E+03-4.60245E+02 3.88320E+01
 -1       850-1.74673E+01 1.33543E+03-1.02713E+03 1.60627E+03-8.94696E+02 1.02680E+02
 -1       851 3.05834E+02 1.08827E+03-1.29101E+03 1.91438E+03-1.04726E+03-1.62235E+02
 -1       852 6.19475E+02 9.95835E+02-1.55490E+03 2.24521E+03-1.47144E+03-2.25334E+01
 -1       853 4.16726E+02 1.19662E+03-1.58984E+03 2.70013E+03-2.14903E+03 1.80831E+02
 -1       854 1.13031E+02 1.28204E+03-1.62477E+03 3.10212E+03-3.20378E+03-2.25927E+02
 -1       855-9.84035E+02 5.82974E+03-6.70682E+02 1.75658E+03 3.43335E+02-2.04847E+02
 -1       856-1.15442E+03 2.22428E+03-1.21352E+02 9.35311E+02 1.19111E+02-1.35128E+02
 -1       857-1.80436E+02-5.33859E+02 5.31527E+02 7.73609E+02 8.12868E+01 6.33777E+01
 -1       858 3.06951E+02-2.04101E+03 5.34391E+02 7.14650E+02-1.87590E+02-4.78434E+01
 -1       859-3.55587E+02 1.77469E+03-5.22190E+02 5.36642E+02-1.33706E+01-2.55589E+01
 -1       860 2.78722E+02-6.93267E+02-4.72900E+01 4.79195E+02 2.19914E+02-8.30753E+01
 -1       861 7.81649E+02-2.64052E+03 2.88428E+02 1.35675E+03 1.09931E+02-2.11078E+02
 -1       862 9.30245E+02-5.80285E+03 7.20732E+02 1.70631E+03-1.17071E+02 1.76916E+02
 -1       863 3.32547E+02 4.35187E+02 2.60561E+01-5.79478E+03-1.22186E+03-9.24848E+02
 -1       864 7.67376E+02 2.76682E+03-1.51854E+03-4.56809E+03 9.45892E+02-1.58990E+03
 -1       865-6.08735E+02 6.67059E+03-3.06313E+03-2.07792E+03 4.15818E+02-5.48466E+02
 -1       866-1.85120E+03 6.21747E+03-2.51670E+03-6.50502E+02 5.99793E+02 1.29446E+02
 -1       867-1.74206E+03 4.79949E+03-1.97027E+03-3.23586E+02 4.94644E+02-2.22959E+02
 -1       868-5.13136E+02 1.03224E+03-1.02525E+03-6.91989E+02-9.13802E+01 9.19016E+00
 -1       869 4.21721E+01-4.67966E+02-8.02323E+01-7.32931E+01 3.02192E+02 2.58062E+02
 -1       870 2.88110E+02-7.75158E+02 9.55254E+01 1.26093E+02 5.48520E+02-1.05010E+02
 -1       871 3.15399E+02-1.23390E+03 2.71281E+02 1.55896E+02 6.04527E+02 2.31126E+02
 -1       872-2.47793E+02 1.32083E+03-2.22853E+02-6.28612E+02-4.45167E+02 1.35692E+02
 -1       873-2.37911E+02-5.37072E+01 3.54849E+02-6.34471E+02-4.77587E+02 1.78860E+02
 -1       874 8.13653E+02-2.43736E+03 9.32550E+02-5.22517E+02-1.42081E+01-6.43395E+00
 -1       875 1.04654E+03-3.72788E+03 1.53215E+03-1.21539E+02-4.67106E+02 1.95984E+02
 -1       876 8.33318E+02-4.69473E+03 2.13175E+03 1.74268E+02-7.44550E+02-2.54692E+01
 -1       877 1.23920E+03-5.92167E+03 2.59899E+03-4.45315E+02-5.78910E+02-1.04312E+02
 -1       878 7.92755E+02-6.91611E+03 3.06623E+03-1.81482E+03-3.94351E+02-1.41509E+02
 -1       879-5.91670E+02-2.96500E+03 1.52310E+03-4.50561E+03-8.60628E+02-1.54923E+03
 -1       880-4.20899E+02-3.65195E+02-2.00175E+01-5.66295E+03 8.84453E+02-1.18996E+03
 -1       881 2.98440E+03 6.22135E+02-1.54331E+03-4.57369E+03-1.58403E+03 8.59377E+02
 -1       882 1.06756E+03 5.11268E+03-2.43726E+03-1.01570E+03-4.24480E+02-1.56908E+02
 -1       883 6.56227E+01 7.59028E+03-1.89229E+03 1.73515E+03-5.98864E+02 2.64848E+02
 -1       884 9.24010E+02-3.20442E+03 6.82207E+02-1.53144E+03-9.91391E+02 5.26208E+02
 -1       885 1.30538E+03-6.62482E+03 1.70053E+03-3.68116E+02 2.49578E+01 4.60883E+01
 -1       886-1.00497E+03-5.12187E+03 2.41565E+03-9.86635E+02 2.89130E+01-4.31165E+02
 -1       887-2.66375E+03-8.24270E+02 1.49451E+03-4.46371E+03 1.56226E+03 9.14296E+02
 -1       888-1.01552E+04 2.44346E-03-2.87084E-03-1.21306E+01-1.91660E-03 3.19886E+03
 -1       889-7.94741E+03 1.40683E+02 8.27531E+02 1.66389E+03-6.96424E+02-9.11516E+01
 -1       890-1.31265E+03-1.15494E+02 1.65507E+03 3.15973E+03-2.28505E+02 3.25647E+03
 -1       891 5.87856E+03-9.35991E+02-7.28815E+02 1.74566E+03 1.76949E+02 1.21204E+02
 -1       892 6.99680E+03-7.81705E+02-3.11269E+03-1.81598E+03-1.37953E+02 4.07718E+02
 -1       893 5.17529E+03 1.05427E+03-2.46204E+03-9.48190E+02-4.46571E+02-3.76637E+01
 -1       894 2.29847E+03 2.29989E+03-1.81140E+03 6.36764E+02-1.95424E+01 1.52403E+02
 -1       895 1.10837E+03 3.54731E+03-1.81285E+03 2.02370E+03-2.02453E+03-8.44785E+02
 -1       896 1.79657E+03 3.30419E+03-1.81431E+03 2.82267E+03-1.11870E+03-1.20078E+03
 -1       897 1.28685E+03-1.89020E+03 4.31866E+02-3.26554E+03 3.94185E+02 9.07957E+02
 -1       898 2.58795E+03-4.27109E+03 8.50589E+02-2.99776E+03 1.26777E+03 7.11332E+02
 -1       899 2.22670E+03-6.11437E+03 1.26931E+03 3.34548E+02 1.11560E+03-6.46880E+02
 -1       900 6.55720E+02-4.57327E+03 1.51719E+03 1.27400E+03 1.85699E+03-1.83647E+02
 -1       901-2.22127E+03-2.28347E+03 1.76507E+03 5.51174E+02-1.39994E+02-1.88341E+01
 -1       902-4.91810E+03-1.11282E+03 2.38706E+03-1.04047E+03 1.51769E+02-4.09802E+02
 -1       903-6.46292E+03 4.95175E+02 3.00905E+03-2.05929E+03 4.81519E+02 3.98398E+02
 -1       904-5.72191E+03 8.49874E+02 6.61113E+02 1.77551E+03 2.04364E+02 3.37027E+02
 -1       905 1.27928E+03 2.72523E+02-1.68683E+03 3.51635E+03 1.04270E+01 3.23483E+03
 -1       906 7.70191E+03-3.80706E+01-8.43412E+02 1.86887E+03 5.08187E+02-1.78154E+02
 -1       907 9.83475E+03-1.52972E-03 2.64850E-03 3.82876E+01 1.96765E-03 3.08935E+03
 -1       908-8.37552E+03 1.39765E-03-2.99454E-03 1.18966E+02 1.31642E-03 2.28868E+03
 -1       909-1.22225E+03-4.23159E+02 1.61868E+03 2.75455E+03 1.82977E+02 2.18231E+03
 -1       910 6.00731E+03-1.25055E+03-2.63939E+03-4.26603E+02-1.02568E+02 5.86024E+02
 -1       911 4.65093E+03-6.75819E+02-1.54411E+03 1.36330E+03-1.98592E+02-1.88932E+03
 -1       912-1.80677E+03-3.17912E+03 6.91477E+02-1.65896E+03-5.14917E+02-1.12924E+03
 -1       913 2.03203E+03 2.10117E+03-9.12446E+02-1.00162E+03 5.61886E+02-2.61490E+02
 -1       914-3.44058E+03-1.09800E+03 1.77245E+03 1.86961E+03 8.30692E+02-1.94543E+03
 -1       915-5.95275E+03 1.69592E+03 2.45265E+03-7.07173E+02-9.01847E+01 5.71281E+02
 -1       916 1.31133E+03 3.64996E+02-1.59689E+03 3.06629E+03-5.99653E+01 2.00720E+03
 -1       917 7.80506E+03-1.21539E-03 2.95422E-03 1.32929E+02-6.88486E-04 2.10486E+03
 -1       918-6.68025E+03 1.82455E-04-2.31665E-03 1.73148E+02-3.24667E-04 1.97444E+03
 -1       919-5.30434E+03-1.91641E+02 7.91142E+02 1.31027E+03 2.52172E+02-1.96523E+02
 -1       920-1.01330E+03-6.32182E+02 1.58229E+03 2.29418E+03-2.43913E+01 1.49393E+03
 -1       921 2.68039E+03-8.00343E+02-2.91900E+02 1.39864E+03-2.18101E+02-1.12023E+02
 -1       922 4.77235E+03-8.54674E+02-2.16609E+03 2.07600E+02-3.76706E+01 7.62175E+02
 -1       923 6.74005E+03-1.34168E+03-1.72145E+03-3.38295E+02 4.72335E+01-3.14692E+01
 -1       924 6.22073E+03-2.28650E+03-1.27682E+03 3.83373E+02-6.75830E+02-1.13699E+03
 -1       925-2.14307E+03-2.14720E+03 9.60223E+02-1.02394E+03-2.56992E+02-5.73078E+02
 -1       926-4.86953E+03-3.53433E+03 1.92915E+03-4.27116E+03-3.23603E+03-3.98661E+03
 -1       927-1.45458E+03-4.57943E+02 9.33003E+02-1.01851E+03-9.41981E+01-6.45724E+02
 -1       928 1.22288E+02 3.19081E+02-4.47305E+02 2.58306E+02 1.31875E+02-8.94896E+02
 -1       929 4.94073E+01 1.65358E+02-6.19712E+01 5.66790E+01-1.36700E+01-9.20000E+02
 -1       930 6.53359E+01-1.49122E+02 6.76965E+01-8.64630E+01-1.42772E+01-8.63642E+02
 -1       931-1.87446E+01 1.39986E+01-3.13465E-01-1.61694E+02-1.09214E+00-9.20985E+02
 -1       932-5.57500E+01 1.85724E+02-7.93506E+01-4.34577E+01 7.10233E-01-8.84466E+02
 -1       933-3.14226E+01-2.17568E+02 8.63018E+01 2.00595E+01 2.64541E+01-9.07299E+02
 -1       934-8.46496E+01-4.15144E+02 4.27953E+02 2.41288E+02-1.39014E+02-9.07090E+02
 -1       935 9.48935E+02 6.46961E+02-7.98151E+02-1.01962E+03 1.51673E+02-8.62753E+02
 -1       936 3.36009E+03 4.77970E+03-1.86587E+03-4.15199E+03 3.89066E+03-3.12162E+03
 -1       937 2.97858E+03 1.78657E+03-6.57186E+02-1.68439E+03 1.12114E+03-4.83151E+02
 -1       938-3.22610E+03-1.76267E+03 1.77983E+03 2.60457E+03 1.18433E+03-1.03737E+03
 -1       939-7.30402E+03-1.43026E+02 1.83803E+03 1.55753E+03-2.65284E+02-5.55890E+02
 -1       940-4.42451E+03 1.58131E+03 1.89624E+03-4.78713E+02 1.36005E+02 4.28502E+02
 -1       941-1.94596E+03 8.78390E+02 1.94648E+02 9.34885E+02 1.86027E+02 1.90047E+02
 -1       942 1.19855E+03 3.58122E+02-1.50694E+03 2.58170E+03 4.87053E+01 1.05934E+03
 -1       943 4.80477E+03 7.99628E+01-7.53470E+02 1.53398E+03-2.80056E+02-2.35742E+02
 -1       944 5.93505E+03-5.50736E-04 2.73423E-03 2.04453E+02 1.01124E-03 1.61743E+03
 -1       945-5.34296E+03 7.45054E-04-2.42952E-03 1.17154E+02 1.50010E-03 1.22175E+03
 -1       946-1.10291E+03-3.18200E+02 1.31326E+03 1.95084E+03-1.63461E+02 1.06432E+03
 -1       947 3.79770E+03-1.08598E+03-1.55224E+03-9.92775E+01 2.02447E+02 4.75559E+02
 -1       948 4.34896E+03-2.66897E+03-8.54229E+02-3.02730E+03 7.15350E+02-1.28667E+03
 -1       949-6.59260E+02-9.94343E+02 8.28478E+02-1.04830E+03-8.76877E+02-1.56640E+02
 -1       950 2.23995E+02-5.30540E+01-2.80659E+02-1.63360E+02 1.02944E+02 1.07291E+02
 -1       951-3.87929E+01-2.65905E+01 8.69138E+01-2.07830E+02-2.59543E+01-1.23358E+02
 -1       952 2.21827E+01 3.99664E+01-8.60086E+01-2.05077E+02 2.89567E+01-1.17092E+02
 -1       953-1.42253E+02 8.16700E+01 2.66902E+02-1.06539E+02-1.36017E+02 5.06551E+01
 -1       954 4.38739E+02 1.42676E+03-9.08347E+02-9.88297E+02 6.23506E+02-8.66272E+01
 -1       955-5.20383E+02 4.18196E+02 6.83692E+02-1.14089E+03-7.82979E+01 1.89210E+02
 -1       956 1.81100E+03 1.91666E+02-1.39658E+03 2.38345E+03 8.25763E+01 8.03147E+02
 -1       957 4.15273E+03-4.28522E-04 2.58366E-03 1.72013E+02-3.87065E-03 7.87148E+02
 -1       958-4.09872E+03 1.17223E-04-2.37403E-03 1.14994E+02-1.64552E-03 8.80200E+02
 -1       959-3.40023E+03-5.32811E+00 5.22117E+02 9.99474E+02 2.73803E+02-1.07198E+02
 -1       960-1.35131E+03 1.92002E+00 1.04424E+03 1.63124E+03 1.08514E+02 9.04160E+02
 -1       961 7.20132E+02-3.08276E+02 5.29249E+01 4.92032E+02-8.73446E+01-2.27069E+02
 -1       962 2.49415E+03-8.62957E+02-9.38387E+02-5.14532E+02-5.46946E+00 1.58903E+01
 -1       963 3.26173E+03-9.61983E+02-6.85008E+02-1.54034E+03 5.44788E+02 1.00194E+03
 -1       964 1.92328E+03-1.32857E+03-4.31633E+02-3.31137E+03 9.33168E+02-4.08652E+02
 -1       965 4.25197E+02 8.68507E+01-4.40827E+02 2.50520E+02-9.27373E+02 1.40512E+02
 -1       966-8.32383E+01 1.46137E+02-2.73298E+02-1.08598E+02 5.17406E+01 1.38524E+02
 -1       967-2.49776E+02-1.74352E+02 2.59904E+02-5.10997E+02-1.18773E+02-1.54694E+02
 -1       968 5.96620E+01-3.89082E+01 5.70107E+01-3.19606E+02-4.48805E+00-2.84771E+01
 -1       969 9.00250E+00 3.68387E+01-5.68975E+01-3.00448E+02 2.47597E+01 2.05992E+00
 -1       970-1.01717E+01-2.55396E+00 5.22170E-01-3.01944E+02 5.54670E-01-1.59702E+01
 -1       971-1.58135E+01-3.85664E+01 5.96534E+01-3.06240E+02-2.09692E+01-2.91245E+00
 -1       972-4.74491E+01 6.34587E+01-5.91893E+01-2.96328E+02 1.97858E+01-1.17906E+01
 -1       973 1.65025E+02 2.43588E+02-2.51492E+02-5.00571E+02 1.50045E+02-1.10734E+02
 -1       974 5.01679E+01-2.21975E+02 2.72257E+02-1.63167E+02-1.06599E+02 9.94607E+01
 -1       975-3.04124E+02-1.21013E+02 4.31928E+02 2.49505E+02 8.75015E+02 1.29826E+02
 -1       976 1.17374E+03 1.07253E+02-5.28855E+02-8.72510E+02-5.56147E+02 1.00192E+03
 -1       977 1.67162E+03 1.24899E+02-9.07535E+02 6.87495E+02-6.31137E+01 2.77578E+01
 -1       978 2.31776E+03 2.23472E+02-1.28621E+03 2.33976E+03 1.22565E+02 9.17467E+01
 -1       979 2.43840E+03 9.96975E+01-6.43104E+02 1.35067E+03-1.51214E+02-1.18446E+01
 -1       980 2.48491E+03-7.50369E-04 1.11369E-03 1.56349E+02 1.54581E-03 2.21805E+02
 -1       981-2.80793E+03-6.92260E-04-1.74583E-03 9.88578E+01 2.32567E-03 4.99835E+02
 -1       982-1.72408E+03 2.68600E+02 9.43694E+02 1.71888E+03 3.34832E+01 4.75080E+02
 -1       983 7.00134E+01 2.07944E+02-3.58642E+02-6.43759E+02 1.73242E+02 4.75169E+02
 -1       984 2.23192E+02 3.08739E+01-8.91768E+01 2.15332E+01-9.22132E+02-2.81028E+01
 -1       985-6.50104E+01 4.70880E+01 6.36733E+01-2.99734E+02-1.33573E+01-2.12693E+01
 -1       986-8.79602E+00-4.64089E+00-7.92241E+00-2.88576E+02 2.92644E+00 9.53001E+00
 -1       987-1.73886E+00 1.12355E+01 9.50019E+00-2.84524E+02-1.31325E+00 9.48096E+00
 -1       988 3.66764E+01-6.02197E+01-5.45620E+01-3.16516E+02 2.87817E+01-1.28745E+00
 -1       989-1.59779E+02-5.04871E+01 6.20210E+01 5.52090E+01 9.05628E+02-1.16819E+01
 -1       990 1.09799E+03 4.04308E+02-6.93563E+02 2.20512E+03 4.61674E+02 2.99563E+02
 -1       991 1.17261E+03-9.01862E-04 1.28309E-03 1.02818E+02-1.50060E-03-1.04718E+02
 -1       992-1.45425E+03 5.67521E-04 1.26075E-04 1.23196E+02-7.69986E-04-2.19925E+02
 -1       993-1.69524E+03 1.39083E+02 4.21576E+02 1.26580E+03 6.86455E+01 4.80268E+01
 -1       994-2.02881E+03 3.60046E+02 8.43152E+02 2.12227E+03-1.57077E+02 3.47224E+01
 -1       995-1.76725E+03 3.37829E+02 5.32128E+02 5.42024E+02-1.57007E+01 1.22267E+01
 -1       996-1.32052E+03 2.31553E+02 2.21103E+02-6.39521E+02 1.41380E+02 4.50034E+02
 -1       997-1.89045E+02 5.04639E+01 7.75519E+01-4.80564E+01-8.95098E+02-1.28501E+00
 -1       998-3.98975E+01-2.64970E+01 8.56994E+01-2.06915E+02-1.23011E+02-2.97975E+01
 -1       999 3.99493E+01 9.94572E+00-5.60156E+01-3.07571E+02-4.44518E+00 2.04291E+01
 -1      1000-1.28974E+01-2.13012E+00-6.77520E+00-2.87012E+02 7.19149E+00 2.84069E+00
 -1      1001-2.25192E+00 5.86799E+00 9.92504E+00-2.78450E+02 5.68445E+00 4.69613E+00
 -1      1002-4.53212E+00 3.31946E+00 9.18422E-01-2.80832E+02 1.18834E+00 2.71178E+00
 -1      1003-8.25379E+00 7.01853E-02-8.23821E+00-2.77505E+02-3.97980E+00 7.62366E+00
 -1      1004 2.41240E+00 6.01060E+00 8.68635E+00-2.85835E+02-8.81768E+00 3.33786E+00
 -1      1005-3.39693E+01-1.18320E+01 5.53053E+01-2.96909E+02-1.62145E+00 2.57056E+01
 -1      1006 2.54767E+01 3.54294E+01-8.13416E+01-2.06128E+02 1.21077E+02-2.35728E+01
 -1      1007 1.39223E+02-6.86033E+01-5.75246E+01-8.51862E+01 8.52581E+02-1.43540E+01
 -1      1008 2.60097E+01 2.14529E+02-1.00917E+02 1.79470E+03 3.72663E+02-3.62687E+01
 -1      1009 5.41183E+01 5.59414E+01-5.04582E+01 9.28021E+02-1.61585E+02-4.31221E+00
 -1      1010 8.22270E+01-7.15016E-04 4.15573E-04 5.35341E+01-4.83681E-04 1.09118E+02
 -1      1011-1.71987E+02 2.20421E-04-1.85480E-04 1.55520E+02 2.98148E-03-8.98036E+00
 -1      1012-1.34378E+02-9.16884E+01 1.00260E+02 2.64105E+03-7.99405E+02 5.53342E+01
 -1      1013-1.04957E+01 1.63737E+00 1.06631E+01-1.57922E+02-9.29805E+02-1.62073E+00
 -1      1014 1.43952E+00 8.68599E-01-2.53067E+00-3.05295E+02-1.91629E+01-1.10609E+00
 -1      1015-4.53916E+00 1.53060E+00 1.83881E+00-2.80760E+02 2.19455E+00-1.11137E-02
 -1      1016-4.43695E+00 2.60354E+00-2.33730E-01-2.80133E+02-8.72737E-01 2.88738E+00
 -1      1017-8.97510E-02 6.01984E+00 2.60860E+00-2.97398E+02 1.64783E+01 2.78680E+00
 -1      1018-5.69745E+00 1.21335E+01-6.85831E+00-1.57785E+02 9.07716E+02 5.58384E-01
 -1      1019-8.69841E+02 8.53773E+01 4.04524E+02 1.74078E+03 3.72268E+02-1.60477E+02
 -1      1020-8.57667E+02-3.22088E-04-7.48367E-04 9.06217E+01-1.01143E-03 3.06225E+01
 -1      1021 1.07330E+03-2.70013E-04-4.59551E-04 1.10142E+02-4.88789E-04 3.13461E+02
 -1      1022 1.35189E+03-1.76351E+02-3.21316E+02 1.17490E+03 7.37892E+01-5.18703E+01
 -1      1023 1.75895E+03-4.62994E+02-6.42632E+02 1.94087E+03-1.54180E+02-3.06428E+01
 -1      1024 1.59470E+03-3.59944E+02-4.36318E+02 4.70066E+02-3.23926E+01-1.12154E+01
 -1      1025 1.17353E+03-2.36144E+02-2.30001E+02-5.31127E+02 8.90930E+01-3.70594E+02
 -1      1026 1.61826E+02-5.59663E+01-5.42276E+01-6.56364E+01-8.79862E+02 4.33821E+00
 -1      1027 3.03013E+01 2.50390E+01-7.44991E+01-2.05072E+02-1.22927E+02 2.58108E+01
 -1      1028-3.95031E+01-1.05441E+01 5.14139E+01-3.03984E+02-5.07623E+00-2.43157E+01
 -1      1029 4.98484E+00 4.09554E+00 7.30275E+00-2.86003E+02 7.49800E+00-1.97662E+00
 -1      1030-6.53174E+00-1.86242E+00-6.52136E+00-2.78240E+02 4.21304E+00-4.18471E+00
 -1      1031-3.97329E+00 1.64659E+00 8.11062E-01-2.80089E+02-5.31587E-01-1.15387E-01
 -1      1032-5.49876E-01 5.19784E+00 8.16815E+00-2.77400E+02-5.02718E+00-2.38665E+00
 -1      1033-9.82038E+00-6.84548E-01-6.74629E+00-2.83483E+02-8.25736E+00 1.92758E-01
 -1      1034 3.20548E+01 1.41675E+01-5.15447E+01-3.01614E+02 3.36443E+00-1.86065E+01
 -1      1035-3.26111E+01-2.61125E+01 7.58962E+01-2.04016E+02 1.17707E+02 2.59927E+01
 -1      1036-1.55001E+02 5.90467E+01 5.15555E+01-5.84921E+01 8.68846E+02 8.91344E+00
 -1      1037-1.02753E+03 1.92468E+02 6.66562E+01-5.75259E+02-1.10676E+02-3.89063E+02
 -1      1038-1.35312E+03 2.26584E+02 4.88312E+02 3.88149E+02-1.56268E+00-5.85040E+00
 -1      1039-1.77324E+03 1.75031E+02 9.09966E+02 1.44842E+03 1.41807E+02-1.56999E+02
 -1      1040-1.83645E+03 5.20186E+01 4.54982E+02 8.67382E+02-1.18285E+02 3.02588E+01
 -1      1041-1.85239E+03-3.09142E-05-4.13292E-04 1.16800E+02 3.64567E-04-3.33298E+01
 -1      1042 2.29416E+03 8.53306E-04 1.40129E-03 8.61022E+01 1.87975E-03-4.03822E+02
 -1      1043 1.49153E+03-3.29311E+02-7.57456E+02 1.49919E+03 3.90367E+01-3.68337E+02
 -1      1044-1.69115E+00-2.55972E+02 2.90586E+02-5.06442E+02 1.70743E+02-4.37151E+02
 -1      1045-1.72199E+02-3.66109E+01 4.47728E+01 2.67053E+01-9.09261E+02 1.39577E+01
 -1      1046 4.39759E+01-4.81671E+01-4.69417E+01-3.04703E+02-1.88268E+01 9.62951E+00
 -1      1047-2.59131E-01 7.87418E+00 6.99392E+00-2.84953E+02 1.62809E+00-7.61723E+00
 -1      1048-6.26710E+00-5.07082E+00-5.53059E+00-2.84254E+02-1.50854E+00-6.08788E+00
 -1      1049-5.03197E+01 4.84390E+01 4.85525E+01-3.03091E+02 1.78480E+01 1.52988E+01
 -1      1050 1.80818E+02 3.41678E+01-4.85910E+01 2.71610E+01 9.02285E+02 1.85064E+01
 -1      1051 1.07679E+02 1.53322E+02-3.86847E+02-6.28113E+02-1.30265E+02-3.69912E+02
 -1      1052-1.52655E+03 1.03075E+02 9.31468E+02 1.24458E+03 1.45332E+00-4.99063E+02
 -1      1053-2.77587E+03-2.10867E-04-1.72321E-03 8.56739E+01-2.35259E-03-5.07741E+02
 -1      1054 3.43365E+03 1.04611E-04 1.89061E-03 1.03042E+02-1.26668E-03-7.13042E+02
 -1      1055 2.84202E+03-1.07516E+01-4.36139E+02 8.47265E+02 2.51376E+02 9.61775E+01
 -1      1056 1.15394E+03-6.06838E+01-8.72281E+02 1.38059E+03 8.72551E+01-7.68606E+02
 -1      1057-5.24956E+02 1.72831E+02-3.05535E+01 4.31897E+02-6.88190E+01 1.88635E+02
 -1      1058-1.97766E+03 6.03686E+02 8.11174E+02-4.31329E+02-1.80130E+01-2.08621E+01
 -1      1059-2.65268E+03 7.57028E+02 5.48977E+02-1.29330E+03 4.26297E+02-8.47564E+02
 -1      1060-1.58716E+03 1.07492E+03 2.86783E+02-2.70079E+03 7.97515E+02 2.89649E+02
 -1      1061-3.37535E+02-8.20778E+01 3.40154E+02 2.20299E+02-8.89234E+02-1.30958E+02
 -1      1062 6.21514E+01-1.59748E+02 2.31616E+02-1.39692E+02 6.48062E+01-1.09836E+02
 -1      1063 1.91177E+02 1.83519E+02-2.19923E+02-4.87521E+02-1.22414E+02 1.24928E+02
 -1      1064-5.25189E+01 4.47647E+01-4.69720E+01-3.06656E+02-1.03838E+01 2.06417E+01
 -1      1065-1.47878E+01-3.21032E+01 4.96276E+01-3.00755E+02 2.10290E+01 3.31676E+00
 -1      1066-3.31953E+00 9.54508E-01 5.61905E-01-2.99034E+02-3.80042E-01 1.87443E+01
 -1      1067 8.80218E+00 3.39573E+01-4.82669E+01-3.00037E+02-2.20651E+01 4.45487E+00
 -1      1068 4.88971E+01-4.27281E+01 4.86476E+01-3.07382E+02 9.04388E+00 2.22968E+01
 -1      1069-1.98550E+02-1.81111E+02 2.23151E+02-4.88118E+02 1.20844E+02 1.31451E+02
 -1      1070-6.58441E+01 1.57293E+02-2.33155E+02-1.35796E+02-6.41481E+01-1.11017E+02
 -1      1071 3.42987E+02 8.02611E+01-3.42102E+02 2.21088E+02 8.88254E+02-1.31039E+02
 -1      1072 1.70116E+03-1.14101E+03-3.10707E+02-2.72713E+03-8.44131E+02 3.21958E+02
 -1      1073 2.83620E+03-8.47922E+02-5.75526E+02-1.33787E+03-4.56982E+02-8.75630E+02
 -1      1074 2.18500E+03-7.49483E+02-8.40349E+02-5.50482E+02-1.38160E+01-6.53333E+01
 -1      1075 6.21038E+02-2.87159E+02 5.63109E+01 2.67869E+02 8.99249E+01 2.24415E+02
 -1      1076-1.26420E+03-3.73920E+01 9.52972E+02 1.20263E+03-1.15284E+02-7.80194E+02
 -1      1077-3.07417E+03-3.35099E+00 4.76484E+02 7.42965E+02-1.82312E+02 6.66779E+01
 -1      1078-3.66975E+03 3.61168E-04-2.22813E-03 7.82879E+01 1.60656E-03-8.21776E+02
 -1      1079 4.46775E+03-5.55560E-04 2.02131E-03 9.81963E+01 1.17512E-03-1.03004E+03
 -1      1080 9.48508E+02 2.33986E+02-1.09261E+03 1.61427E+03-1.43550E+02-8.72067E+02
 -1      1081-3.07146E+03 7.87333E+02 1.28056E+03-9.26263E+01 1.45283E+02-3.76450E+02
 -1      1082-3.52345E+03 2.18125E+03 7.15873E+02-2.47038E+03 5.71725E+02 1.06339E+03
 -1      1083 5.05156E+02 1.07431E+03-7.05762E+02-9.36358E+02-7.62064E+02 1.25260E+02
 -1      1084-1.69782E+02 6.02176E+01 2.31572E+02-1.45793E+02 1.04907E+02-7.30837E+01
 -1      1085 2.44816E+01 3.01728E+01-7.12315E+01-2.04739E+02-2.43294E+01 1.20316E+02
 -1      1086-3.08018E+01-2.81475E+01 7.30164E+01-2.04836E+02 2.43179E+01 1.22227E+02
 -1      1087 1.72354E+02-5.82905E+01-2.33249E+02-1.47549E+02-1.04174E+02-7.32972E+01
 -1      1088-5.20170E+02-1.05965E+03 7.07904E+02-9.45268E+02 7.75810E+02 1.32505E+02
 -1      1089 3.65272E+03-2.31328E+03-7.23068E+02-2.51760E+03-5.81600E+02 1.11581E+03
 -1      1090 3.21693E+03-9.00224E+02-1.30414E+03-1.79973E+02-1.74675E+02-3.99647E+02
 -1      1091-1.00964E+03-2.70996E+02 1.15170E+03 1.47201E+03 1.29673E+02-9.09622E+02
 -1      1092-4.63155E+03 6.16610E-04-2.13063E-03 8.53220E+01-9.18984E-04-1.06044E+03
 -1      1093 5.55939E+03-1.36627E-04 1.95532E-03 1.40841E+02-2.41621E-04-1.63837E+03
 -1      1094 4.41659E+03 1.49464E+02-6.56463E+02 1.06753E+03 2.19476E+02 1.58051E+02
 -1      1095 8.75254E+02 5.01551E+02-1.31293E+03 1.86697E+03-4.56271E-01-1.23785E+03
 -1      1096-2.15078E+03 6.43790E+02 2.18506E+02 1.11275E+03-1.95496E+02 1.01455E+02
 -1      1097-3.88385E+03 6.90034E+02 1.74994E+03 1.53316E+02-8.45627E+01-5.71226E+02
 -1      1098-5.48171E+03 9.63122E+02 1.44745E+03-2.40752E+02 1.45183E+02-5.48847E+01
 -1      1099-4.96429E+03 1.46949E+03 1.14496E+03 3.86948E+02-3.53463E+02 8.31406E+02
 -1      1100 1.56326E+03 1.95975E+03-6.61129E+02-4.15085E+02-8.58416E+02 9.16084E+02
 -1      1101 3.68002E+03 3.48717E+03-1.42948E+03-3.32435E+03-3.35555E+03 3.42525E+03
 -1      1102 1.12584E+03 4.82894E+02-7.18546E+02-9.32413E+02-1.19103E+02 7.33942E+02
 -1      1103-8.74419E+01-3.22314E+02 3.38715E+02 2.20358E+02 1.29195E+02 8.80726E+02
 -1      1104-3.97195E+01-1.68871E+02 4.56945E+01 3.09740E+01-1.46188E+01 9.03254E+02
 -1      1105-6.20582E+01 1.48331E+02-4.31990E+01-6.72878E+01-9.52569E+00 8.67867E+02
 -1      1106-3.76815E+00 1.10654E+00 9.34405E-01-1.54405E+02-1.23668E-03 9.12008E+02
 -1      1107 5.76660E+01-1.45869E+02 4.43454E+01-6.94681E+01 9.85933E+00 8.68201E+02
 -1      1108 3.69854E+01 1.68904E+02-4.41175E+01 3.35028E+01 1.42200E+01 9.06068E+02
 -1      1109 8.66290E+01 3.20751E+02-3.42040E+02 2.23143E+02-1.29691E+02 8.85751E+02
 -1      1110-1.15962E+03-4.77020E+02 7.31515E+02-9.38776E+02 1.18158E+02 7.27739E+02
 -1      1111-3.79706E+03-3.43515E+03 1.44481E+03-3.32788E+03 3.35480E+03 3.48937E+03
 -1      1112-1.63506E+03-1.97595E+03 6.79388E+02-3.05318E+02 8.29073E+02 9.58794E+02
 -1      1113 5.10941E+03-1.63200E+03-1.13543E+03 4.37302E+02 3.37097E+02 8.62663E+02
 -1      1114 5.64333E+03-1.08295E+03-1.45167E+03-2.73848E+02-1.36214E+02-5.37662E+01
 -1      1115 3.97997E+03-7.66421E+02-1.76792E+03 7.46150E+01 9.49099E+01-5.78555E+02
 -1      1116 2.19061E+03-7.02622E+02-2.08750E+02 1.01840E+03 1.94842E+02 1.03684E+02
 -1      1117-8.94317E+02-5.26875E+02 1.35042E+03 1.76557E+03 1.74640E+01-1.25771E+03
 -1      1118-4.50597E+03-1.61044E+02 6.75210E+02 1.01428E+03-2.11892E+02 1.74353E+02
 -1      1119-5.67340E+03 1.74128E-04-2.03320E-03 1.39380E+02 5.05455E-05-1.65656E+03
 -1      1120 6.93933E+03-1.14900E-03 2.50269E-03 9.37130E+01 9.37299E-04-1.88342E+03
 -1      1121 1.04025E+03 3.48044E+02-1.35281E+03 2.25735E+03 1.37862E+02-1.79911E+03
 -1      1122-4.88045E+03 1.02308E+03 2.18298E+03-4.18683E+02-3.25149E+01-5.24689E+02
 -1      1123-3.58238E+03 4.02869E+02 1.22211E+03 1.11984E+03-5.60637E+02 1.62993E+03
 -1      1124 2.04605E+03 1.45222E+03-6.61689E+02-5.15064E+02-8.81256E+02 9.06553E+02
 -1      1125-2.12063E+03-1.43977E+03 6.85605E+02-5.08185E+02 8.96299E+02 9.27846E+02
 -1      1126 3.64506E+03-5.08277E+02-1.20804E+03 1.18724E+03 5.48065E+02 1.66148E+03
 -1      1127 4.94544E+03-1.08837E+03-2.19051E+03-4.71322E+02 3.70328E+01-5.42401E+02
 -1      1128-1.05287E+03-3.56842E+02 1.37195E+03 2.17762E+03-1.38266E+02-1.81496E+03
 -1      1129-6.98789E+03 1.17940E-03-2.53809E-03 9.07318E+01-8.72690E-04-1.88080E+03
 -1      1130 8.38797E+03-1.93457E-03 2.36712E-03-1.11898E+01-1.53664E-03-2.61726E+03
 -1      1131 6.57988E+03-1.04558E+02-6.96345E+02 1.35942E+03-5.63114E+02 7.58481E+01
 -1      1132 1.11365E+03 1.16938E+02-1.39269E+03 2.58544E+03-1.66050E+02-2.68793E+03
 -1      1133-4.83952E+03 7.35351E+02 6.11664E+02 1.39964E+03 1.05430E+02-8.81442E+01
 -1      1134-5.73263E+03 5.22313E+02 2.61602E+03-1.51529E+03-1.99371E+02-3.02875E+02
 -1      1135-4.23321E+03-7.94108E+02 1.95763E+03-8.97502E+02-2.91187E+02 2.68250E+01
 -1      1136-1.59965E+03-1.55676E+03 1.29925E+03 2.70328E+02-5.11244E+01 3.76469E+01
 -1      1137 3.13838E+02-3.47644E+03 1.22155E+03 1.09714E+03-1.58783E+03 6.17635E+02
 -1      1138 1.32356E+03-4.76997E+03 1.14384E+03 3.60366E+02-7.74871E+02 3.50084E+02
 -1      1139 2.09583E+03-3.33950E+03 6.68879E+02-2.33932E+03-1.01209E+03-5.39401E+02
 -1      1140 1.00544E+03-1.46958E+03 1.93916E+02-2.49002E+03-2.13379E+02-7.95080E+02
 -1      1141-1.01082E+03 1.44586E+03-1.78352E+02-2.45410E+03 2.15608E+02-7.92437E+02
 -1      1142-2.09884E+03 3.29832E+03-6.50673E+02-2.28875E+03 9.94758E+02-5.26012E+02
 -1      1143-1.29402E+03 4.69692E+03-1.12299E+03 3.95046E+02 7.56259E+02 3.52744E+02
 -1      1144-3.02067E+02 3.41605E+03-1.20183E+03 1.13688E+03 1.58307E+03 6.50987E+02
 -1      1145 1.60451E+03 1.49498E+03-1.28066E+03 3.16306E+02 5.82127E+01 2.89706E+01
 -1      1146 4.27688E+03 7.30959E+02-1.94688E+03-8.87000E+02 3.00343E+02 1.78438E+01
 -1      1147 5.78172E+03-5.82165E+02-2.61310E+03-1.53977E+03 2.09189E+02-2.93444E+02
 -1      1148 4.85568E+03-7.68299E+02-6.09815E+02 1.36478E+03-9.98971E+01-7.80539E+01
 -1      1149-1.12861E+03-1.19032E+02 1.39348E+03 2.52891E+03 1.64428E+02-2.67316E+03
 -1      1150-6.59207E+03 1.08069E+02 6.96736E+02 1.31921E+03 5.75678E+02 8.61218E+01
 -1      1151-8.38428E+03 1.98776E-03-2.46492E-03-1.73674E+01 1.50854E-03-2.60112E+03
 -1      1152-2.46946E+03-5.48925E+02 1.30922E+03-3.73826E+03-1.33405E+03-6.51773E+02
 -1      1153-8.56130E+02-4.11170E+03 1.94368E+03-8.67738E+02-4.41521E+01 2.88199E+02
 -1      1154 8.98551E+02-5.30283E+03 1.39034E+03-1.72141E+02 2.98282E+01-1.34679E+02
 -1      1155 8.03933E+02-2.43584E+03 4.64729E+02-1.10420E+03 7.44754E+02-4.02837E+02
 -1      1156-8.05444E+02 2.39635E+03-4.50307E+02-1.07475E+03-7.30241E+02-4.05266E+02
 -1      1157-8.88615E+02 5.23660E+03-1.37015E+03-1.29424E+02-2.75491E+01-1.41828E+02
 -1      1158 8.65166E+02 4.04610E+03-1.92147E+03-8.20653E+02 4.39539E+01 2.84951E+02
 -1      1159 2.48528E+03 5.21648E+02-1.30323E+03-3.74423E+03 1.31697E+03-6.50359E+02
 -1      1160-2.62128E+02-2.70107E+02 2.42698E+00-4.83333E+03-6.97943E+02 6.64628E+02
 -1      1161-5.86614E+02-2.39796E+03 1.29527E+03-3.68458E+03 6.43966E+02 1.35066E+03
 -1      1162 4.41162E+02-5.59822E+03 2.58812E+03-1.46696E+03 3.45161E+02 1.91420E+02
 -1      1163 9.75592E+02-4.69904E+03 2.11248E+03-3.74013E+02 4.78346E+02 2.48320E+01
 -1      1164 6.88176E+02-3.62433E+03 1.63684E+03 2.55436E+02 4.70028E+02 1.62148E+02
 -1      1165 8.59589E+02-3.04495E+03 1.18619E+03 6.30907E+01 5.12471E+02-2.03760E+02
 -1      1166 1.17672E+03-2.62778E+03 7.35544E+02-2.14927E+02 1.55617E+02 8.72615E+01
 -1      1167-1.16763E+03 2.59086E+03-7.22265E+02-1.81401E+02-1.47150E+02 8.65327E+01
 -1      1168-8.54076E+02 3.00915E+03-1.16979E+03 9.61266E+01-5.02743E+02-1.98993E+02
 -1      1169-6.87008E+02 3.58305E+03-1.61731E+03 2.90569E+02-4.67449E+02 1.70672E+02
 -1      1170-9.60598E+02 4.64059E+03-2.08980E+03-3.40968E+02-4.69911E+02 1.91795E+01
 -1      1171-4.19445E+02 5.52085E+03-2.56229E+03-1.42516E+03-3.37290E+02 1.89298E+02
 -1      1172 5.81789E+02 2.35332E+03-1.27782E+03-3.64001E+03-6.37299E+02 1.34618E+03
 -1      1173 2.46503E+02 2.63714E+02 6.64313E+00-4.81070E+03 7.23556E+02 6.58431E+02
 -1      1174 6.83380E+02-4.73308E+03 5.83876E+02 1.49121E+03 6.85809E+01-9.87534E+01
 -1      1175 6.19164E+02-1.99500E+03 2.44042E+02 1.16425E+03 5.45243E+01 1.66823E+02
 -1      1176 5.98064E+02-4.10121E+02-1.89587E+02 3.10234E+02-3.89573E+02 2.13223E+02
 -1      1177-6.00716E+02 4.18494E+02 1.86224E+02 3.37395E+02 3.93357E+02 2.10769E+02
 -1      1178-6.17509E+02 1.97272E+03-2.40238E+02 1.18105E+03-5.13807E+01 1.68901E+02
 -1      1179-6.69509E+02 4.67580E+03-5.75722E+02 1.49587E+03-7.32819E+01-9.37652E+01
 -1      1180 9.25084E+01 1.15049E+03-1.42037E+03 2.65138E+03 2.71551E+03 1.46608E+02
 -1      1181 2.96868E+02 9.96003E+02-1.28456E+03 2.35236E+03 1.72734E+03-1.38391E+02
 -1      1182 3.80162E+02 7.45357E+02-1.14876E+03 1.99526E+03 1.11880E+03 2.23939E+01
 -1      1183 4.77393E+01 1.15388E+03-1.13174E+03 1.72555E+03 8.82287E+02 1.47575E+02
 -1      1184-9.26568E+00 1.91632E+03-1.11472E+03 1.71301E+03 6.58507E+02 5.90730E+01
 -1      1185 4.39769E+02 1.23476E+03-8.21634E+02 1.75953E+03 4.64719E+02 4.63681E+02
 -1      1186 3.80106E+02 3.49856E+02-5.28552E+02 1.22743E+03 1.44116E+02 3.02621E+02
 -1      1187 1.11583E+01 5.46107E+00-8.33614E+00 1.09576E+03 5.82817E+00 8.78325E+01
 -1      1188-3.64051E+02-3.35369E+02 5.11879E+02 1.20644E+03-1.40956E+02 3.00918E+02
 -1      1189-4.41351E+02-1.20370E+03 8.03296E+02 1.73287E+03-4.55255E+02 4.52640E+02
 -1      1190-6.71146E+00-1.87072E+03 1.09471E+03 1.70481E+03-6.42196E+02 5.64449E+01
 -1      1191-5.91780E+01-1.12840E+03 1.11577E+03 1.72765E+03-8.70269E+02 1.47351E+02
 -1      1192-3.79980E+02-7.36592E+02 1.13683E+03 1.99851E+03-1.10441E+03 2.13188E+01
 -1      1193-2.95329E+02-9.88932E+02 1.27384E+03 2.35131E+03-1.70908E+03-1.36059E+02
 -1      1194-9.51837E+01-1.14445E+03 1.41084E+03 2.64462E+03-2.69351E+03 1.44420E+02
 -1      1195-1.05730E+02 6.48677E+03-7.10182E+02 1.38177E+03-5.39843E+01 5.29535E+02
 -1      1196 1.08433E+02 4.24169E+03-5.74377E+02 1.16469E+03-2.06770E+02-2.43165E+02
 -1      1197-4.13333E+00 2.51551E+03-5.57357E+02 1.10905E+03-3.26208E+01-1.11019E+02
 -1      1198 1.56294E+02 5.48895E+02-2.64276E+02 6.66014E+02-7.14085E+01-1.59076E+02
 -1      1199-1.50204E+02-5.28005E+02 2.55939E+02 6.55626E+02 6.97192E+01-1.63280E+02
 -1      1200-1.86165E+00-2.46225E+03 5.47355E+02 1.09850E+03 3.03924E+01-1.11535E+02
 -1      1201-1.08187E+02-4.18941E+03 5.68415E+02 1.16608E+03 2.02023E+02-2.40480E+02
 -1      1202 1.02909E+02-6.43368E+03 7.05421E+02 1.38132E+03 5.09559E+01 5.23093E+02
 -1      1203-1.71476E-03 8.27184E+03 1.91481E-03-3.31893E+00 2.61744E+03 1.60626E-03
 -1      1204-1.02011E-03 6.80488E+03 2.37643E-03 9.99916E+01 1.86328E+03-9.93051E-04
 -1      1205 1.34808E-04 5.39091E+03 2.43695E-03 1.52214E+02 1.53368E+03 5.24392E-04
 -1      1206-1.23375E-04 4.00459E+03 2.09370E-03 1.25174E+02 9.24392E+02-1.97614E-03
 -1      1207-1.16668E-03 2.67314E+03 1.33767E-03 1.50974E+02 4.01526E+02 8.81556E-04
 -1      1208-1.01454E-03 1.59143E+03 1.52002E-03 1.23434E+02 5.28953E+01-1.72927E-03
 -1      1209 3.95224E-06 7.47935E+02 3.81686E-04 6.08118E+01 2.89987E+02-7.73822E-04
 -1      1210-2.88735E-05 1.18650E+01 1.54218E-05 3.95610E+01-7.29816E-02 3.96738E-04
 -1      1211-9.80121E-06-7.20640E+02-3.46470E-04 6.05457E+01-2.77964E+02-7.88195E-04
 -1      1212 1.02192E-03-1.55145E+03-1.48609E-03 1.20702E+02-4.61317E+01-1.69344E-03
 -1      1213 1.15412E-03-2.61738E+03-1.31564E-03 1.48620E+02-3.98260E+02 9.10729E-04
 -1      1214 1.50090E-04-3.94175E+03-2.06417E-03 1.24644E+02-9.06984E+02-1.99093E-03
 -1      1215-1.07728E-04-5.32290E+03-2.40744E-03 1.51994E+02-1.51605E+03 5.48806E-04
 -1      1216 1.01267E-03-6.73974E+03-2.35659E-03 1.00343E+02-1.84747E+03-1.00858E-03
 -1      1217 1.69300E-03-8.20759E+03-1.89089E-03-1.34218E+00-2.60202E+03 1.61676E-03
 -1      1218-1.86210E+03-1.17864E+03-9.73006E+02-1.82313E+03-3.47091E+03-4.18744E+03
 -1      1219-1.13116E+02 1.83035E+02-8.96178E+01-3.72940E+01-7.53877E+00-7.13178E+02
 -1      1220 3.10752E+00-7.03949E+01-1.47493E+02-1.67699E+02-1.21048E+02-8.64956E+02
 -1      1221-1.94952E+01 9.50924E+01 1.22189E+02-1.47263E+02 1.53325E+02-8.30379E+02
 -1      1222 7.92033E+01-2.28386E+02 3.69302E+01-3.20249E+01 2.93022E+01-7.66185E+02
 -1      1223 1.12236E+03 1.83095E+03 9.45975E+02-1.76995E+03 4.08811E+03-3.34391E+03
 -1      1224 2.35418E+02-8.69004E+01-4.06521E+01-3.10387E+01-7.80482E+02-3.06869E+01
 -1      1225-1.71060E+02-1.15195E+02 3.25172E+02-7.51007E+02 1.42055E+02 1.87589E+02
 -1      1226-5.07670E+00 2.32344E+01-4.93617E+01-5.80997E+02-2.08580E+01-4.18343E+01
 -1      1227-1.31493E+01-1.74062E+01 5.72178E+01-5.82841E+02 2.83420E+01-2.84558E+01
 -1      1228 1.06801E+02 1.65376E+02-3.14318E+02-7.37967E+02-1.84734E+02 1.38170E+02
 -1      1229-1.73792E+02 1.07552E+02 8.90182E+01-3.85568E+01 6.97197E+02-5.89353E+00
 -1      1230-9.44137E+01 8.23999E+00-1.19398E+02-1.50123E+02-8.48822E+02-1.58542E+02
 -1      1231 1.77730E+01 3.79950E+00-5.21481E+01-5.87142E+02-3.46621E+01-2.99416E+01
 -1      1232-1.06706E+01 4.51075E+00 1.28580E+00-5.39518E+02 8.69001E-01 1.19885E+00
 -1      1233-9.27589E+00 6.62525E+00 1.70036E+00-5.37186E+02-3.10513E-01 2.15771E+00
 -1      1234-2.23043E+01-3.79687E-01 5.02268E+01-5.74349E+02 4.05954E+01-1.64943E+01
 -1      1235 6.67609E+01-9.90528E+00 1.47778E+02-1.65569E+02 8.51336E+02-1.13372E+02
 -1      1236 8.12189E+01-1.27892E+01 1.24627E+02-1.58482E+02-8.44949E+02 1.27760E+02
 -1      1237-2.43105E+01-3.49693E+00 5.23815E+01-5.81953E+02-3.63350E+01 2.28528E+01
 -1      1238-6.64447E+00 2.65021E+00 2.14931E+00-5.38037E+02 3.12595E-01-1.00819E+00
 -1      1239-7.29641E+00 3.88814E+00 9.80602E-01-5.36283E+02-7.84950E-01 1.59385E+00
 -1      1240 1.47181E+01 8.39642E+00-5.20917E+01-5.76691E+02 3.15430E+01 2.46481E+01
 -1      1241-7.76878E+01 1.61153E+01-1.28855E+02-1.53454E+02 8.27182E+02 1.29476E+02
 -1      1242-1.88903E+02 9.63176E+01 5.04615E+01-4.78063E+01-7.35151E+02 1.41321E+01
 -1      1243 1.26088E+02 1.22876E+02-2.95342E+02-7.28904E+02 1.42706E+02-1.49965E+02
 -1      1244-1.01597E+01-1.65064E+01 5.14366E+01-5.77106E+02-2.14629E+01 3.56145E+01
 -1      1245-1.47977E+00 2.02659E+01-4.84134E+01-5.76297E+02 2.02752E+01 3.76313E+01
 -1      1246-1.35133E+02-1.20274E+02 2.99966E+02-7.28681E+02-1.41724E+02-1.49561E+02
 -1      1247 1.92251E+02-9.65166E+01-4.61462E+01-4.66242E+01 7.37760E+02 1.97831E+01
 -1      1248 1.39926E+03 1.32130E+03 9.56002E+02-1.64061E+03-3.45191E+03 3.53285E+03
 -1      1249 9.68043E+01-1.81048E+02 5.57977E+01-4.84505E+01-1.48231E+01 7.24654E+02
 -1      1250-1.83514E+01 7.45667E+01 1.31318E+02-1.57775E+02-1.21902E+02 8.36239E+02
 -1      1251 7.63098E+00-7.11047E+01-1.30388E+02-1.58743E+02 1.20718E+02 8.40044E+02
 -1      1252-1.04842E+02 1.81694E+02-5.75246E+01-4.81658E+01 1.35977E+01 7.26194E+02
 -1      1253-1.44423E+03-1.29739E+03-9.66557E+02-1.65440E+03 3.44539E+03 3.60094E+03
 -1      1254-5.81564E+02-2.14775E+02-7.59700E+02-6.90046E+02-2.01227E+03-2.45357E+03
 -1      1255-6.52262E+02-1.34036E+00 2.76301E+02-5.68008E+02-1.25874E+02-7.80505E+02
 -1      1256-3.75338E+02 7.02421E+01 8.84424E+01-3.41541E+02-5.59630E+01-6.02909E+02
 -1      1257-5.24207E+01 5.08982E+01 9.72635E+01-2.48083E+02 3.82052E+01-5.90168E+02
 -1      1258-4.54136E+01 3.33971E-02-8.49983E+01-2.56732E+02-3.66942E+01-6.50681E+02
 -1      1259-1.89393E+01 5.47871E+00 7.80044E-01-2.72925E+02 4.71697E+00-6.46598E+02
 -1      1260 4.88275E+00 1.28521E+01 8.09302E+01-2.58086E+02 5.74196E+01-6.31178E+02
 -1      1261 2.64585E+01-3.96751E+01-7.06824E+01-2.59055E+02-6.17328E+01-6.09966E+02
 -1      1262 2.66811E+02-6.68666E+01-9.87269E+01-3.17624E+02 7.21188E+01-6.46863E+02
 -1      1263 3.56275E+02 6.81152E+01-1.25786E+02-5.35915E+02 1.60170E+02-7.81013E+02
 -1      1264 1.97931E+02 5.77735E+02 7.37947E+02-6.70172E+02 2.39540E+03-1.93745E+03
 -1      1265-6.72131E+01-3.78694E+02 1.34638E+02-5.51108E+02-8.00647E+02-1.65411E+02
 -1      1266-1.49807E+02 1.41626E+01-8.01668E+01-7.24294E+02-9.31426E+01-1.52527E+02
 -1      1267-4.80840E+01 2.81716E+00 4.08671E+01-6.03342E+02 1.45695E+01-4.81276E+01
 -1      1268 5.97619E+00 1.03467E+01-3.19510E+01-6.04366E+02-1.19727E+01-5.64681E+01
 -1      1269 1.27147E+02 3.90543E+00 6.75837E+01-6.93879E+02 1.43872E+02-1.13982E+02
 -1      1270-3.28476E-01 6.40497E+02-2.72706E+02-5.53528E+02 7.60398E+02-1.19128E+02
 -1      1271 7.14712E+01-2.85193E+02 1.02008E+02-3.25008E+02-6.59916E+02-7.41745E+01
 -1      1272-3.81222E+00-1.38445E+02-6.67538E+01-7.06597E+02-1.20659E+02-1.46457E+02
 -1      1273-8.30976E+01-4.74080E+01 1.85906E+02-9.88128E+02 1.04550E+02 1.23896E+02
 -1      1274-4.63584E+01-1.22007E+01 4.21985E+01-8.85959E+02 2.20263E+01 3.03132E+01
 -1      1275-2.26887E+01 6.66841E+00-1.80253E+01-8.66392E+02-2.27977E+01-2.29683E+01
 -1      1276-1.71646E+01 6.29039E+00 3.69692E+00-8.59302E+02 3.07359E+00-2.61969E+01
 -1      1277-7.52422E+00 6.71847E+00 2.54275E+01-8.64393E+02 2.75775E+01-1.63527E+01
 -1      1278 1.23565E+01 3.53655E+01-4.03295E+01-8.74021E+02-2.30929E+01 2.23649E+01
 -1      1279 4.02079E+01 7.81397E+01-1.77633E+02-9.72635E+02-1.22260E+02 1.02765E+02
 -1      1280-1.53168E+01 1.40439E+02 8.07999E+01-7.12134E+02 1.48418E+02-8.80817E+01
 -1      1281-6.58383E+01 3.62107E+02-8.41990E+01-3.34959E+02 5.89105E+02-5.31186E+01
 -1      1282 4.48751E+01-3.94175E+01 7.80798E+01-2.61992E+02-6.18940E+02 6.08282E+01
 -1      1283-3.78487E+01-2.25977E+01 4.61185E+01-8.84647E+02 2.23973E+01 2.28008E+01
 -1      1284-1.97368E+01 3.73722E+00 7.57689E+00-7.94477E+02-2.22972E+00 9.23114E+00
 -1      1285-9.97344E+00 1.17376E+01-1.95871E+00-7.90272E+02 3.94233E+00 1.15897E+01
 -1      1286 8.34133E+00 3.96951E+01-3.73899E+01-8.74207E+02-2.92242E+01 2.35584E+01
 -1      1287-4.69994E+01 4.39649E+01-9.26545E+01-2.44214E+02 5.80066E+02 3.81797E+01
 -1      1288-8.19018E+00-2.22910E+01-7.54151E+01-2.59344E+02-6.43474E+02-6.11787E+01
 -1      1289-8.18701E+00-2.25668E+01 3.64980E+01-6.09378E+02-5.74290E+01 1.26713E+01
 -1      1290-7.39718E+00-5.24592E+00-1.95048E+01-8.71844E+02-2.03621E+01-2.84592E+01
 -1      1291-1.53853E+01 1.20985E-01 7.39898E+00-7.95178E+02 9.76503E+00-3.35317E+00
 -1      1292-1.79217E+01 4.30554E+00 3.46046E+00-7.99422E+02-4.09142E-01-4.90441E-01
 -1      1293-1.39085E+01 8.21972E+00 2.27678E+00-7.93828E+02 5.63632E-02 3.43261E-01
 -1      1294-1.14479E+01 1.20092E+01 1.31814E+00-7.95741E+02 1.00891E+00 7.40172E-01
 -1      1295-7.81006E+00 1.26445E+01-3.04021E+00-7.88064E+02-8.83043E+00-1.48295E+00
 -1      1296-7.77739E+00 1.45043E+01 2.11000E+01-8.56558E+02 2.24573E+01-1.97277E+01
 -1      1297-2.23554E+00 3.85454E+01-3.73844E+01-5.96069E+02 4.79051E+01 1.34691E+01
 -1      1298 2.23464E+00 3.53806E+01 8.63846E+01-2.53627E+02 6.40516E+02-3.28466E+01
 -1      1299 3.15180E-01-7.79118E-01 1.20488E-01-2.73729E+02-6.49338E+02-4.42892E+00
 -1      1300-6.64080E+00 1.06859E+00 1.60772E+00-8.62354E+02-2.56075E+01-3.68430E+00
 -1      1301-1.26327E+01 4.99056E+00 2.80796E+00-7.94301E+02-1.10574E-01 3.99475E-01
 -1      1302-1.20963E+01 7.50210E+00 1.70489E+00-7.91180E+02 9.02428E-01 1.51373E+00
 -1      1303-6.21830E+00 8.52012E+00-3.20642E-01-8.50581E+02 2.69824E+01 3.05054E+00
 -1      1304-2.12308E+00 8.73816E+00 9.52389E-01-2.70214E+02 6.40267E+02 3.28370E+00
 -1      1305 8.37151E+00 1.85717E+01 7.71567E+01-2.58857E+02-6.42974E+02 4.43483E+01
 -1      1306 1.95739E+00 2.00706E+01-3.18353E+01-6.04046E+02-5.62834E+01-1.33829E+01
 -1      1307-6.37242E+00 6.49006E+00 2.35560E+01-8.64586E+02-2.02536E+01 2.27797E+01
 -1      1308-5.45691E+00 6.13282E+00-1.58451E+00-7.91575E+02 8.64289E+00 3.62556E+00
 -1      1309-7.90242E+00 6.08125E+00 2.02954E+00-7.96772E+02-1.26271E+00 7.08692E-01
 -1      1310-1.06027E+01 5.01806E+00 2.19839E+00-7.91596E+02-2.68684E-01 1.38056E+00
 -1      1311-1.29598E+01 3.68728E+00 2.25375E+00-7.94090E+02 6.61156E-01 2.52779E+00
 -1      1312-1.12283E+01 2.38679E+00 4.37365E+00-7.86480E+02-9.90829E+00 4.04507E+00
 -1      1313-5.36366E+00-3.51056E-01-2.20229E+01-8.56419E+02 1.76684E+01 2.54254E+01
 -1      1314-7.10997E+00-1.73407E+01 3.41653E+01-5.97818E+02 5.52025E+01-1.05409E+01
 -1      1315-8.04968E+00-1.50518E+01-8.06593E+01-2.55636E+02 6.29088E+02 4.49997E+01
 -1      1316-4.01635E+01 3.35987E+01-7.69152E+01-2.54145E+02-6.00656E+02-4.81201E+01
 -1      1317 1.62600E+01 2.57281E+01-3.60053E+01-8.74083E+02 2.20635E+01-2.19125E+01
 -1      1318-5.55930E+00 5.84800E+00-1.17886E+00-7.88759E+02-2.87080E+00-9.05293E+00
 -1      1319-1.30564E+01 1.70547E+00 5.39926E+00-7.86926E+02 3.00950E+00-7.61006E+00
 -1      1320-2.71419E+01-2.13195E+01 3.88669E+01-8.69248E+02-2.26339E+01-1.93219E+01
 -1      1321 4.11213E+01-3.32354E+01 7.54309E+01-2.52713E+02 5.95871E+02-4.92093E+01
 -1      1322-6.22553E+01 2.97104E+02-8.87892E+01-3.26431E+02-6.18048E+02 5.55805E+01
 -1      1323-6.66256E+00 1.27211E+02 7.10744E+01-6.99885E+02-1.22699E+02 1.09740E+02
 -1      1324 5.29421E+01 5.42635E+01-1.67253E+02-9.68376E+02 1.00235E+02-1.04112E+02
 -1      1325 2.00849E+01 2.09192E+01-3.52888E+01-8.71354E+02 2.07027E+01-2.31760E+01
 -1      1326-2.59024E+00 1.78171E+00 2.35723E+01-8.58119E+02-2.27136E+01 1.98908E+01
 -1      1327-8.80447E+00 3.00292E+00 2.09847E+00-8.51931E+02-3.87694E-01 2.68117E+01
 -1      1328-1.47689E+01 3.86968E+00-1.92163E+01-8.57234E+02 2.18653E+01 2.13714E+01
 -1      1329-3.42694E+01-1.62711E+01 3.91378E+01-8.70422E+02-2.11113E+01-2.30896E+01
 -1      1330-6.35627E+01-5.14204E+01 1.71607E+02-9.67245E+02-1.00394E+02-1.02954E+02
 -1      1331 2.46045E+00-1.28671E+02-6.99641E+01-6.98219E+02 1.20655E+02 1.13695E+02
 -1      1332 6.38382E+01-2.95984E+02 9.14673E+01-3.25079E+02 6.20269E+02 6.01425E+01
 -1      1333 3.31005E+01 4.56850E+02-1.79039E+02-5.23085E+02-7.62898E+02 1.35182E+02
 -1      1334 1.24726E+02-5.83806E+00 7.31869E+01-7.01171E+02-1.03625E+02 1.24585E+02
 -1      1335 1.55832E+01 5.59963E+00-3.18425E+01-5.98467E+02 1.14324E+01 5.43568E+01
 -1      1336-3.30067E+01-5.00237E-01 3.64660E+01-5.97964E+02-1.15406E+01 5.47975E+01
 -1      1337-1.34991E+02 8.78804E+00-7.19312E+01-7.02398E+02 1.01747E+02 1.29810E+02
 -1      1338-3.62581E+01-4.47338E+02 1.73759E+02-5.25426E+02 7.67375E+02 1.40991E+02
 -1      1339 3.83070E+02 3.41506E+02 7.22491E+02-6.28021E+02-2.02305E+03 2.07272E+03
 -1      1340 4.86378E+02 2.56474E+01-1.94681E+02-5.24666E+02-1.31563E+02 7.59244E+02
 -1      1341 3.03745E+02-6.13976E+01-8.65810E+01-3.27318E+02-5.55468E+01 6.09272E+02
 -1      1342 2.97937E+01-3.98571E+01-7.72764E+01-2.50913E+02 4.54762E+01 5.92554E+02
 -1      1343 1.35565E+01 8.27376E+00 8.10821E+01-2.55678E+02-4.11557E+01 6.34864E+02
 -1      1344-8.39769E+00 2.26868E+00 1.98358E+00-2.70591E+02-2.03239E-01 6.41757E+02
 -1      1345-3.05185E+01-3.84380E+00-7.75184E+01-2.55465E+02 4.01321E+01 6.37163E+02
 -1      1346-4.30464E+01 4.40266E+01 8.23638E+01-2.50435E+02-4.46037E+01 5.92600E+02
 -1      1347-3.19362E+02 6.42884E+01 8.87929E+01-3.29392E+02 5.50551E+01 6.10897E+02
 -1      1348-5.07751E+02-2.19598E+01 2.04574E+02-5.29359E+02 1.31888E+02 7.64168E+02
 -1      1349-4.03952E+02-3.25403E+02-7.30206E+02-6.33760E+02 2.01855E+03 2.11415E+03
 -1      1350-4.77898E+02-1.66723E+02-9.91360E+01-6.98724E+02-7.35747E+02-9.07105E+02
 -1      1351-4.64446E+02 7.19091E+01 1.59962E+02-5.72900E+02-2.48290E+01-2.74015E+02
 -1      1352-4.52605E+01 7.94058E+00 1.75816E+01-4.32674E+02 2.28193E+00-3.23970E+02
 -1      1353-4.54749E+00 7.26414E+00 6.47549E-01-4.35600E+02 2.17638E+00-3.26187E+02
 -1      1354 3.30362E+02-5.91423E+01-1.28400E+02-5.44601E+02 3.46658E+01-3.16324E+02
 -1      1355 1.52726E+02 4.74944E+02 9.61067E+01-6.78646E+02 8.85640E+02-7.07981E+02
 -1      1356 6.43669E+01-3.54085E+02 1.36170E+02-5.56643E+02-3.22645E+02-3.59151E+01
 -1      1357-9.02158E+01-5.03560E+01 6.74887E+01-1.27834E+03-1.72287E+01-1.92802E+01
 -1      1358-3.50681E+01 6.85557E+00 3.42686E+00-1.13359E+03 2.15321E+00-2.25467E+01
 -1      1359-7.35252E+00 1.18103E+01 3.32391E+00-1.13064E+03 8.66982E-02-2.03673E+01
 -1      1360 4.13919E+01 8.39596E+01-6.12492E+01-1.25825E+03 1.80726E+01-1.51749E+01
 -1      1361-6.74141E+01 4.46987E+02-1.54035E+02-5.61473E+02 2.67221E+02-2.31554E+01
 -1      1362-1.29646E+00-1.70982E+01 7.78716E+00-4.39009E+02-3.31529E+02-3.36953E+00
 -1      1363-1.29537E+01-9.96963E+00 3.50386E+00-1.14000E+03-2.16804E+01-6.94151E-01
 -1      1364-2.23297E+01 6.74880E+00 9.40070E+00-1.05767E+03 2.26888E+00 2.59044E+00
 -1      1365-1.59799E+01 1.45959E+01-2.69862E+00-1.05268E+03-2.26699E+00 3.13931E+00
 -1      1366-8.53749E+00 2.40729E+01 1.46627E+00-1.12073E+03 2.21185E+01 3.11873E+00
 -1      1367-4.58420E+00 3.29768E+01-1.31646E+01-4.27194E+02 3.19266E+02 3.21002E+00
 -1      1368 2.34190E+00 1.20727E+01-6.02262E+00-4.35023E+02-3.30140E+02-3.63624E-01
 -1      1369-6.07994E+00 1.17863E+01 3.64030E+00-1.13127E+03-2.21468E+01-2.14579E+00
 -1      1370-1.15368E+01 7.13549E+00-1.44285E+00-1.05405E+03 1.96868E+00-2.40768E+00
 -1      1371-1.61033E+01 5.81584E+00 6.94148E+00-1.05044E+03-2.49923E+00-1.25577E+00
 -1      1372-9.24403E+00-3.45440E+00-8.54970E-01-1.12064E+03 2.10579E+01 1.84912E-01
 -1      1373-2.48391E+00-9.89445E+00 3.30997E+00-4.29994E+02 3.22752E+02 5.86542E-01
 -1      1374-6.00559E+01 3.65222E+02-1.33161E+02-5.49711E+02-2.98260E+02 2.67099E+01
 -1      1375 5.53523E+01 5.80084E+01-5.69600E+01-1.25283E+03-1.79382E+01 1.72476E+01
 -1      1376 2.05911E-02 4.41867E+00 4.43291E+00-1.12279E+03 1.02550E+00 2.15906E+01
 -1      1377-2.30840E+01 3.12740E+00 1.31526E+00-1.12160E+03-1.60173E+00 2.23590E+01
 -1      1378-6.89949E+01-5.44776E+01 6.11783E+01-1.25122E+03 1.75155E+01 1.92383E+01
 -1      1379 6.11180E+01-3.64731E+02 1.33678E+02-5.48617E+02 2.99130E+02 2.87483E+01
 -1      1380 3.16181E+02 2.80914E+02 9.78550E+01-6.48317E+02-7.53024E+02 7.72187E+02
 -1      1381 3.73226E+02-5.97702E+01-1.34736E+02-5.50016E+02-2.61544E+01 2.90987E+02
 -1      1382 6.74180E+00 3.14177E+00-3.86088E+00-4.30054E+02 3.35823E-01 3.24275E+02
 -1      1383-2.88958E+01 2.72825E+00 1.03662E+01-4.29852E+02-8.09024E-01 3.24714E+02
 -1      1384-3.93418E+02 6.39056E+01 1.40382E+02-5.53095E+02 2.58836E+01 2.90928E+02
 -1      1385-3.34086E+02-2.67436E+02-9.91197E+01-6.54092E+02 7.51580E+02 7.88673E+02
 -1      1386-4.20920E+02-1.54111E+02-1.78452E+01-7.85766E+02-3.15075E+02-4.29377E+02
 -1      1387-6.45288E+02 1.25473E+00 2.76829E+02-9.18448E+02 9.30479E+01-2.19536E+02
 -1      1388-5.70726E+02 7.93218E+01 1.60230E+02-8.32151E+02-1.18496E+02-1.54636E+02
 -1      1389-1.36219E+02 6.00131E+01 2.74326E+01-6.20822E+02-3.02227E+01-2.08477E+02
 -1      1390-3.95593E+01 1.37961E+01 2.38043E+01-6.26291E+02 3.09151E+01-1.04901E+02
 -1      1391-3.19807E+01 8.20953E+00 5.26644E+00-6.27533E+02 4.12020E-01-1.50807E+02
 -1      1392-1.80633E+01 4.15201E+00-2.47333E+00-6.29565E+02-2.85348E+01-1.14919E+02
 -1      1393 7.61584E+01-3.62343E+01-1.13714E+01-6.25463E+02 2.91924E+01-1.99142E+02
 -1      1394 4.07275E+02-5.98178E+01-1.25135E+02-8.03480E+02 1.33005E+02-1.63060E+02
 -1      1395 3.76365E+02 5.82535E+01-1.72045E+02-8.81573E+02-1.06494E+02-2.17564E+02
 -1      1396 1.41170E+02 4.17481E+02 1.75268E+01-7.63152E+02 4.20344E+02-3.02059E+02
 -1      1397-5.73680E+01-4.01683E+02 1.82232E+02-9.04902E+02-2.22842E+02 1.08196E+02
 -1      1398-2.81775E+02 1.07760E+01 6.20401E+01-1.28711E+03-7.16087E+01 5.97036E+01
 -1      1399-5.34604E+01 1.40231E+01 3.50174E+01-1.07745E+03 1.75969E+01 8.57802E+01
 -1      1400-7.20619E+00 7.27345E+00-1.57921E+01-1.07678E+03-1.78512E+01 7.89781E+01
 -1      1401 2.10949E+02 1.25599E+01-4.71296E+01-1.25696E+03 8.63737E+01 7.48158E+01
 -1      1402-2.65956E+00 6.30054E+02-2.70330E+02-8.95628E+02 2.14198E+02 9.10234E+01
 -1      1403 6.59185E+01-4.37037E+02 1.33765E+02-8.20735E+02-1.67875E+02-1.36675E+02
 -1      1404-1.26723E+01-2.30829E+02 5.38235E+01-1.27985E+03 7.49208E+01-8.77811E+01
 -1      1405-9.30998E+01-4.95558E+01 8.53809E+01-1.57945E+03-5.96748E+01-5.17461E+01
 -1      1406-7.43230E+01-1.36750E+01 4.95797E+01-1.42120E+03-1.68845E+01-4.45925E+01
 -1      1407-4.72892E+01 5.69382E+00 2.77118E+00-1.40753E+03 1.30045E+01-6.01777E+01
 -1      1408-2.73907E+01 1.15853E+01 6.47342E+00-1.39846E+03 1.30806E+00-4.79110E+01
 -1      1409-7.85495E+00 1.83494E+01 6.76933E+00-1.40379E+03-1.07671E+01-5.48352E+01
 -1      1410 1.36773E+01 4.56992E+01-3.72797E+01-1.40981E+03 1.27127E+01-5.17472E+01
 -1      1411 3.90035E+01 8.56409E+01-7.74972E+01-1.55456E+03 5.01209E+01-5.80131E+01
 -1      1412-1.27272E+01 2.66099E+02-5.62440E+01-1.26427E+03-5.87224E+01-6.95311E+01
 -1      1413-7.42874E+01 5.48405E+02-1.53700E+02-8.15143E+02 1.50490E+02-1.13999E+02
 -1      1414 4.33986E+01-1.00206E+02 1.80446E+01-6.33778E+02-2.01217E+02-3.09061E+01
 -1      1415-4.99019E+01-3.01623E+01 4.59463E+01-1.42661E+03-5.17952E+01-1.38178E+01
 -1      1416-3.52624E+01 2.95724E+00 6.44353E+00-1.30574E+03 1.12868E+01-1.15509E+01
 -1      1417-1.58163E+01 2.26094E+01 2.85107E+00-1.30045E+03-1.03138E+01-9.01635E+00
 -1      1418 7.53550E+00 6.32979E+01-4.24689E+01-1.40230E+03 4.40509E+01-1.58601E+01
 -1      1419-5.48772E+01 1.20125E+02-2.31158E+01-6.11165E+02 2.05320E+02-2.88387E+01
 -1      1420 2.94056E+00-8.25585E+00 1.30371E+01-6.35439E+02-1.15875E+02 2.82314E+01
 -1      1421-4.13335E+00-1.88446E+01 2.54484E+01-1.08617E+03 7.92654E+01 1.84784E+01
 -1      1422-2.00409E+01-1.38703E+01 1.75210E+00-1.41515E+03-5.64664E+01 9.90999E+00
 -1      1423-2.86349E+01-5.77399E-01 5.64517E+00-1.30862E+03-9.82892E+00 1.04806E+01
 -1      1424-2.70507E+01 8.90714E+00 1.29349E+01-1.31379E+03 1.09939E+01 1.20973E+01
 -1      1425-2.34420E+01 1.31607E+01 3.80658E+00-1.30597E+03-6.87908E-01 6.88192E+00
 -1      1426-2.02705E+01 1.74455E+01-4.57166E+00-1.30750E+03-1.19667E+01 1.11881E+01
 -1      1427-9.80445E+00 2.35954E+01 5.01882E-01-1.29523E+03 1.10739E+01 1.10192E+01
 -1      1428-8.00625E+00 3.35392E+01 3.18291E+00-1.39153E+03 5.87719E+01 1.36554E+01
 -1      1429-1.26509E+01 3.83887E+01-2.93327E+01-1.06411E+03-8.46129E+01 1.68310E+01
 -1      1430-9.52319E+00 2.48379E+01-1.82684E+01-6.18104E+02 1.03663E+02 3.04651E+01
 -1      1431 1.14667E+00-3.82665E+00 1.90190E+00-6.31703E+02-1.52351E+02-3.82344E-01
 -1      1432-1.18249E+01 1.47565E+00 3.89149E+00-1.40299E+03-4.76176E+01-1.09009E+00
 -1      1433-2.05948E+01 8.49787E+00 4.83825E+00-1.30691E+03 6.97641E+00 1.56909E-01
 -1      1434-1.96385E+01 1.25037E+01 2.88432E+00-1.30141E+03-6.86631E+00 1.60021E-02
 -1      1435-1.08131E+01 1.33697E+01-1.17064E+00-1.38443E+03 4.80004E+01 1.26435E+00
 -1      1436-3.58320E+00 1.49434E+01-1.57773E+00-6.19641E+02 1.49016E+02 6.68858E-01
 -1      1437-1.39969E+00 9.40773E-01-1.02285E+01-6.28458E+02-1.14738E+02-2.90101E+01
 -1      1438-5.67955E+00 1.39911E+01-1.99218E+01-1.07680E+03 8.02439E+01-1.69717E+01
 -1      1439-4.46953E+00 1.66090E+01 6.78324E+00-1.40479E+03-5.75193E+01-1.22212E+01
 -1      1440-6.41271E+00 1.14158E+01 3.44332E+00-1.30198E+03-1.06763E+01-1.01253E+01
 -1      1441-1.50001E+01 8.48725E+00-2.96245E+00-1.30924E+03 1.11966E+01-1.19754E+01
 -1      1442-1.76416E+01 8.35884E+00 3.59183E+00-1.30220E+03-1.20352E-01-6.98676E+00
 -1      1443-1.95324E+01 7.71689E+00 9.86980E+00-1.30469E+03-1.14949E+01-1.09478E+01
 -1      1444-2.16175E+01 2.80781E+00 1.97978E+00-1.29358E+03 9.63623E+00-1.08889E+01
 -1      1445-1.43968E+01-6.16925E+00-3.17428E+00-1.39159E+03 5.56234E+01-1.14613E+01
 -1      1446-2.20080E+00-1.03303E+01 2.12737E+01-1.06551E+03-7.97547E+01-1.71363E+01
 -1      1447 1.10134E+00-1.82608E-01 7.25887E+00-6.20971E+02 1.12041E+02-2.79686E+01
 -1      1448-4.30490E+01 8.99658E+01-1.55916E+01-6.20666E+02-1.98367E+02 2.68985E+01
 -1      1449 1.82404E+01 3.77183E+01-3.55779E+01-1.40784E+03-4.86735E+01 1.36433E+01
 -1      1450-7.70756E+00 1.25080E+01 3.41794E+00-1.29714E+03 1.08995E+01 9.97979E+00
 -1      1451-2.31676E+01-3.33064E-02 3.56090E+00-1.29411E+03-1.05993E+01 1.07873E+01
 -1      1452-3.54576E+01-3.06422E+01 3.96835E+01-1.39997E+03 4.85653E+01 1.44560E+01
 -1      1453 4.34091E+01-9.05026E+01 1.54152E+01-6.16883E+02 1.98332E+02 2.84445E+01
 -1      1454-6.45368E+01 4.46722E+02-1.29323E+02-8.02329E+02-1.57972E+02 1.18771E+02
 -1      1455-3.10470E+00 2.22024E+02-4.54990E+01-1.25244E+03 6.78951E+01 7.70150E+01
 -1      1456 5.40429E+01 5.81672E+01-7.20579E+01-1.54818E+03-5.52018E+01 5.36597E+01
 -1      1457 2.88952E+01 2.64937E+01-3.55387E+01-1.40242E+03-1.45147E+01 4.75533E+01
 -1      1458 2.23973E+00 8.30857E+00 7.47992E+00-1.39417E+03 1.18831E+01 5.66127E+01
 -1      1459-1.46641E+01 5.00911E+00 3.72065E+00-1.38639E+03-2.39937E-01 4.79374E+01
 -1      1460-3.10870E+01 1.11147E+00-1.94331E-01-1.39267E+03-1.24044E+01 5.71983E+01
 -1      1461-5.26536E+01-1.89564E+01 4.19965E+01-1.40032E+03 1.46638E+01 4.69445E+01
 -1      1462-7.06502E+01-5.38777E+01 7.72368E+01-1.54606E+03 5.55666E+01 5.45745E+01
 -1      1463-3.54537E+00-2.23446E+02 4.80707E+01-1.25114E+03-6.88815E+01 7.77657E+01
 -1      1464 6.53079E+01-4.47335E+02 1.30195E+02-8.01884E+02 1.57629E+02 1.21270E+02
 -1      1465 2.92539E+01 4.69233E+02-2.06985E+02-8.70449E+02-2.13280E+02-9.65983E+01
 -1      1466 2.21734E+02-1.03348E+00-4.56928E+01-1.25189E+03-7.48633E+01-6.66113E+01
 -1      1467 6.06389E+00 3.10470E-01-1.94999E+01-1.06695E+03 1.68480E+01-8.04403E+01
 -1      1468-3.41239E+01 8.00666E+00 2.74776E+01-1.06628E+03-1.67971E+01-8.05482E+01
 -1      1469-2.40568E+02 5.51451E+00 5.08340E+01-1.25340E+03 7.44035E+01-6.50796E+01
 -1      1470-3.24625E+01-4.62900E+02 2.05052E+02-8.74039E+02 2.14127E+02-9.70545E+01
 -1      1471 2.86693E+02 2.56337E+02 1.67787E+01-7.41784E+02-3.37144E+02 3.49906E+02
 -1      1472 4.94850E+02 2.28076E+01-2.17206E+02-8.71048E+02 9.45719E+01 2.12673E+02
 -1      1473 4.56668E+02-6.44772E+01-1.31040E+02-8.01526E+02-1.17044E+02 1.55525E+02
 -1      1474 8.59010E+01-4.27126E+01-1.42374E+01-6.15542E+02-2.77427E+01 1.98752E+02
 -1      1475-4.86570E+00-1.80684E-03-7.58347E+00-6.21374E+02 2.81430E+01 1.11348E+02
 -1      1476-1.41526E+01 3.81740E+00 3.75117E+00-6.21635E+02-6.33033E-02 1.49892E+02
 -1      1477-2.24959E+01 7.31365E+00 1.57237E+01-6.21227E+02-2.86050E+01 1.11029E+02
 -1      1478-1.09434E+02 4.97079E+01 2.07245E+01-6.15776E+02 2.80333E+01 1.99205E+02
 -1      1479-4.81836E+02 6.97382E+01 1.37741E+02-8.05550E+02 1.16971E+02 1.56283E+02
 -1      1480-5.17657E+02-1.95886E+01 2.25969E+02-8.77568E+02-9.42082E+01 2.13575E+02
 -1      1481-3.02610E+02-2.45511E+02-1.70076E+01-7.48191E+02 3.34810E+02 3.59405E+02
 -3
    1PSTEP                        16           1           1          
    1PGM                1.000000E+00                                  
    1PGK                1.235845E+12                                  
    1PHID                         -1                                  
    1PSUBC                         0                                  
    1PMODE                         4                                  
  100CL  104 176930.2766        1481                     2    4MODAL      1
 -4  ERROR       1    1
 -5  STR(%)      1    1    0    0
 -1         1 9.42247E+00
 -1         2 1.20622E+01
 -1         3 1.47018E+01
 -1         4 1.47018E+01
 -1         5 1.47018E+01
 -1         6 1.43459E+01
 -1         7 1.39899E+01
 -1         8 1.39899E+01
 -1         9 1.39899E+01
 -1        10 1.17087E+01
 -1        11 9.42743E+00
 -1        12 1.16830E+01
 -1        13 1.47018E+01
 -1        14 1.47018E+01
 -1        15 1.39899E+01
 -1        16 1.43735E+01
 -1        17 1.20923E+01
 -1        18 1.39435E+01
 -1        19 1.43226E+01
 -1        20 1.47018E+01
 -1        21 1.47018E+01
 -1        22 1.47018E+01
 -1        23 1.43459E+01
 -1        24 1.39899E+01
 -1        25 1.43735E+01
 -1        26 1.47571E+01
 -1        27 1.47571E+01
 -1        28 1.47571E+01
 -1        29 1.39435E+01
 -1        30 1.43226E+01
 -1        31 9.34649E+00
 -1        32 8.95086E+00
 -1        33 1.47571E+01
 -1        34 1.47571E+01
 -1        35 1.39435E+01
 -1        36 1.39435E+01
 -1        37 1.39435E+01
 -1        38 8.96730E+00
 -1        39 3.99114E+00
 -1        40 3.95148E+00
 -1        41 3.91181E+00
 -1        42 9.33447E+00
 -1        43 1.47571E+01
 -1        44 1.47571E+01
 -1        45 1.47571E+01
 -1        46 1.40305E+01
 -1        47 1.40305E+01
 -1        48 3.92361E+00
 -1        49 3.88801E+00
 -1        50 1.44473E+01
 -1        51 1.44473E+01
 -1        52 1.41176E+01
 -1        53 1.41176E+01
 -1        54 1.41176E+01
 -1        55 8.98683E+00
 -1        56 3.85607E+00
 -1        57 3.86015E+00
 -1        58 3.86422E+00
 -1        59 9.00084E+00
 -1        60 1.41375E+01
 -1        61 1.41375E+01
 -1        62 1.41375E+01
 -1        63 1.41176E+01
 -1        64 1.42038E+01
 -1        65 9.07304E+00
 -1        66 9.04161E+00
 -1        67 1.41782E+01
 -1        68 1.41375E+01
 -1        69 1.41176E+01
 -1        70 1.42038E+01
 -1        71 1.42900E+01
 -1        72 1.42900E+01
 -1        73 1.42900E+01
 -1        74 1.42545E+01
 -1        75 1.42190E+01
 -1        76 1.42190E+01
 -1        77 1.42190E+01
 -1        78 1.41782E+01
 -1        79 1.41375E+01
 -1        80 1.16232E+01
 -1        81 1.42900E+01
 -1        82 1.42900E+01
 -1        83 1.42190E+01
 -1        84 1.42190E+01
 -1        85 1.16374E+01
 -1        86 9.12884E+00
 -1        87 1.17094E+01
 -1        88 1.42900E+01
 -1        89 1.42900E+01
 -1        90 1.42900E+01
 -1        91 1.42545E+01
 -1        92 1.42190E+01
 -1        93 1.42190E+01
 -1        94 1.42190E+01
 -1        95 1.16782E+01
 -1        96 9.13743E+00
 -1        97 1.57989E+01
 -1        98 1.84386E+01
 -1        99 1.47018E+01
 -1       100 1.40248E+01
 -1       101 1.80810E+01
 -1       102 1.57998E+01
 -1       103 1.80594E+01
 -1       104 1.84386E+01
 -1       105 1.66090E+01
 -1       106 1.62059E+01
 -1       107 1.84646E+01
 -1       108 1.84646E+01
 -1       109 1.39435E+01
 -1       110 1.62298E+01
 -1       111 1.12536E+01
 -1       112 1.11669E+01
 -1       113 1.65895E+01
 -1       114 1.47571E+01
 -1       115 1.41176E+01
 -1       116 1.41176E+01
 -1       117 7.20185E+00
 -1       118 1.09214E+01
 -1       119 1.60580E+01
 -1       120 1.41375E+01
 -1       121 1.81003E+01
 -1       122 1.81865E+01
 -1       123 1.42900E+01
 -1       124 1.60988E+01
 -1       125 1.81566E+01
 -1       126 1.81158E+01
 -1       127 1.56060E+01
 -1       128 1.81865E+01
 -1       129 1.42900E+01
 -1       130 1.42190E+01
 -1       131 1.81566E+01
 -1       132 1.56158E+01
 -1       133 2.21753E+01
 -1       134 2.21753E+01
 -1       135 2.21753E+01
 -1       136 1.84386E+01
 -1       137 1.47018E+01
 -1       138 1.43807E+01
 -1       139 1.40596E+01
 -1       140 1.81159E+01
 -1       141 2.21721E+01
 -1       142 2.21721E+01
 -1       143 2.21721E+01
 -1       144 2.21753E+01
 -1       145 2.21753E+01
 -1       146 1.66090E+01
 -1       147 1.62408E+01
 -1       148 2.21721E+01
 -1       149 2.21721E+01
 -1       150 2.21753E+01
 -1       151 2.21753E+01
 -1       152 2.21753E+01
 -1       153 2.03457E+01
 -1       154 1.85161E+01
 -1       155 1.84690E+01
 -1       156 1.84219E+01
 -1       157 2.02970E+01
 -1       158 2.21721E+01
 -1       159 2.21721E+01
 -1       160 2.21721E+01
 -1       161 1.80594E+01
 -1       162 2.03457E+01
 -1       163 1.85161E+01
 -1       164 1.84219E+01
 -1       165 2.02970E+01
 -1       166 1.84646E+01
 -1       167 1.39435E+01
 -1       168 1.62298E+01
 -1       169 1.85161E+01
 -1       170 1.85161E+01
 -1       171 1.85161E+01
 -1       172 1.84690E+01
 -1       173 1.84219E+01
 -1       174 1.84219E+01
 -1       175 1.84219E+01
 -1       176 1.65895E+01
 -1       177 1.47571E+01
 -1       178 1.40305E+01
 -1       179 1.63168E+01
 -1       180 1.45319E+01
 -1       181 1.82003E+01
 -1       182 1.82003E+01
 -1       183 1.44473E+01
 -1       184 1.41176E+01
 -1       185 1.41176E+01
 -1       186 1.41176E+01
 -1       187 1.23326E+01
 -1       188 1.05476E+01
 -1       189 1.42631E+01
 -1       190 1.79786E+01
 -1       191 1.79786E+01
 -1       192 1.79786E+01
 -1       193 1.60580E+01
 -1       194 1.41375E+01
 -1       195 1.81003E+01
 -1       196 1.81003E+01
 -1       197 1.24188E+01
 -1       198 1.79786E+01
 -1       199 2.00364E+01
 -1       200 1.81158E+01
 -1       201 2.20831E+01
 -1       202 2.20831E+01
 -1       203 2.20831E+01
 -1       204 1.81865E+01
 -1       205 1.42900E+01
 -1       206 1.61343E+01
 -1       207 1.79786E+01
 -1       208 2.00364E+01
 -1       209 2.20942E+01
 -1       210 2.20942E+01
 -1       211 2.20942E+01
 -1       212 2.20831E+01
 -1       213 2.20831E+01
 -1       214 1.42900E+01
 -1       215 1.60988E+01
 -1       216 2.20942E+01
 -1       217 2.20942E+01
 -1       218 2.20831E+01
 -1       219 2.20831E+01
 -1       220 2.20831E+01
 -1       221 1.81865E+01
 -1       222 1.42900E+01
 -1       223 1.42545E+01
 -1       224 1.42190E+01
 -1       225 1.81566E+01
 -1       226 2.20942E+01
 -1       227 2.20942E+01
 -1       228 2.20942E+01
 -1       229 2.30945E+01
 -1       230 2.21753E+01
 -1       231 1.80888E+01
 -1       232 1.75781E+01
 -1       233 2.21721E+01
 -1       234 2.30802E+01
 -1       235 2.21753E+01
 -1       236 2.21753E+01
 -1       237 2.01732E+01
 -1       238 2.01261E+01
 -1       239 2.21721E+01
 -1       240 2.21721E+01
 -1       241 1.75493E+01
 -1       242 2.01552E+01
 -1       243 2.01732E+01
 -1       244 2.01321E+01
 -1       245 2.01321E+01
 -1       246 1.81268E+01
 -1       247 1.76363E+01
 -1       248 1.79560E+01
 -1       249 1.61710E+01
 -1       250 1.99105E+01
 -1       251 1.99105E+01
 -1       252 1.76212E+01
 -1       253 2.20831E+01
 -1       254 2.20831E+01
 -1       255 1.80344E+01
 -1       256 1.98787E+01
 -1       257 2.20942E+01
 -1       258 2.20942E+01
 -1       259 2.26624E+01
 -1       260 2.20831E+01
 -1       261 1.77232E+01
 -1       262 1.76877E+01
 -1       263 2.20942E+01
 -1       264 2.26779E+01
 -1       265 3.09443E+01
 -1       266 3.10168E+01
 -1       267 3.10893E+01
 -1       268 3.10893E+01
 -1       269 3.10893E+01
 -1       270 3.10744E+01
 -1       271 3.10595E+01
 -1       272 3.10332E+01
 -1       273 3.10068E+01
 -1       274 3.10385E+01
 -1       275 3.10703E+01
 -1       276 3.10703E+01
 -1       277 3.10703E+01
 -1       278 3.10016E+01
 -1       279 3.09329E+01
 -1       280 3.09443E+01
 -1       281 3.10893E+01
 -1       282 3.10893E+01
 -1       283 3.10595E+01
 -1       284 3.10068E+01
 -1       285 3.10703E+01
 -1       286 3.10703E+01
 -1       287 3.09329E+01
 -1       288 3.09443E+01
 -1       289 3.10168E+01
 -1       290 3.10893E+01
 -1       291 3.10893E+01
 -1       292 3.10893E+01
 -1       293 3.10744E+01
 -1       294 3.10595E+01
 -1       295 3.10332E+01
 -1       296 3.10068E+01
 -1       297 3.10385E+01
 -1       298 3.10703E+01
 -1       299 3.10703E+01
 -1       300 3.10703E+01
 -1       301 3.10016E+01
 -1       302 3.09329E+01
 -1       303 2.89583E+01
 -1       304 2.85096E+01
 -1       305 2.72277E+01
 -1       306 2.64836E+01
 -1       307 2.76712E+01
 -1       308 2.77030E+01
 -1       309 2.78746E+01
 -1       310 2.89213E+01
 -1       311 2.69722E+01
 -1       312 2.69722E+01
 -1       313 2.69722E+01
 -1       314 2.64511E+01
 -1       315 2.59299E+01
 -1       316 2.46480E+01
 -1       317 2.33661E+01
 -1       318 2.26369E+01
 -1       319 2.19077E+01
 -1       320 2.43356E+01
 -1       321 2.43356E+01
 -1       322 2.43356E+01
 -1       323 2.45073E+01
 -1       324 2.46789E+01
 -1       325 2.57943E+01
 -1       326 2.69097E+01
 -1       327 2.69097E+01
 -1       328 2.69097E+01
 -1       329 2.69722E+01
 -1       330 2.69722E+01
 -1       331 2.59299E+01
 -1       332 2.33943E+01
 -1       333 2.43336E+01
 -1       334 2.69097E+01
 -1       335 2.69097E+01
 -1       336 3.09316E+01
 -1       337 3.09316E+01
 -1       338 3.09316E+01
 -1       339 2.89519E+01
 -1       340 2.69722E+01
 -1       341 2.69722E+01
 -1       342 2.69722E+01
 -1       343 2.64511E+01
 -1       344 2.59299E+01
 -1       345 2.24530E+01
 -1       346 2.32207E+01
 -1       347 2.39883E+01
 -1       348 2.54490E+01
 -1       349 2.69097E+01
 -1       350 2.69097E+01
 -1       351 2.69097E+01
 -1       352 2.89372E+01
 -1       353 3.09646E+01
 -1       354 3.09646E+01
 -1       355 3.09646E+01
 -1       356 3.10023E+01
 -1       357 3.10023E+01
 -1       358 2.58256E+01
 -1       359 2.54929E+01
 -1       360 2.49718E+01
 -1       361 2.39883E+01
 -1       362 2.64156E+01
 -1       363 2.64156E+01
 -1       364 3.09666E+01
 -1       365 3.09666E+01
 -1       366 3.10730E+01
 -1       367 3.10730E+01
 -1       368 3.10730E+01
 -1       369 2.78760E+01
 -1       370 2.46790E+01
 -1       371 2.43463E+01
 -1       372 2.40137E+01
 -1       373 2.40137E+01
 -1       374 2.40137E+01
 -1       375 2.30945E+01
 -1       376 2.21753E+01
 -1       377 2.18256E+01
 -1       378 2.14758E+01
 -1       379 2.12862E+01
 -1       380 2.10965E+01
 -1       381 2.16343E+01
 -1       382 2.21721E+01
 -1       383 2.30802E+01
 -1       384 2.39883E+01
 -1       385 2.49549E+01
 -1       386 2.59215E+01
 -1       387 2.59215E+01
 -1       388 2.59215E+01
 -1       389 2.84451E+01
 -1       390 3.09687E+01
 -1       391 3.09687E+01
 -1       392 3.09687E+01
 -1       393 3.10730E+01
 -1       394 3.10730E+01
 -1       395 2.44520E+01
 -1       396 2.31881E+01
 -1       397 2.30945E+01
 -1       398 2.21753E+01
 -1       399 2.16531E+01
 -1       400 2.14634E+01
 -1       401 2.21721E+01
 -1       402 2.30802E+01
 -1       403 2.37076E+01
 -1       404 3.09687E+01
 -1       405 3.09687E+01
 -1       406 3.10730E+01
 -1       407 3.10730E+01
 -1       408 3.10730E+01
 -1       409 2.76489E+01
 -1       410 2.42249E+01
 -1       411 2.32937E+01
 -1       412 2.23626E+01
 -1       413 2.21753E+01
 -1       414 2.21753E+01
 -1       415 2.21753E+01
 -1       416 2.20028E+01
 -1       417 2.18303E+01
 -1       418 2.18303E+01
 -1       419 2.18303E+01
 -1       420 2.20012E+01
 -1       421 2.21721E+01
 -1       422 2.21721E+01
 -1       423 2.21721E+01
 -1       424 2.14937E+01
 -1       425 2.62312E+01
 -1       426 3.09687E+01
 -1       427 3.09687E+01
 -1       428 3.09687E+01
 -1       429 3.10454E+01
 -1       430 3.10454E+01
 -1       431 2.42249E+01
 -1       432 2.16652E+01
 -1       433 2.19848E+01
 -1       434 2.18303E+01
 -1       435 2.18363E+01
 -1       436 2.20072E+01
 -1       437 2.18343E+01
 -1       438 2.99241E+01
 -1       439 2.99241E+01
 -1       440 3.10178E+01
 -1       441 3.10178E+01
 -1       442 3.10178E+01
 -1       443 2.76214E+01
 -1       444 2.42249E+01
 -1       445 2.11551E+01
 -1       446 2.14747E+01
 -1       447 2.17943E+01
 -1       448 2.18123E+01
 -1       449 2.18303E+01
 -1       450 2.18363E+01
 -1       451 2.18423E+01
 -1       452 2.18423E+01
 -1       453 2.18423E+01
 -1       454 2.16694E+01
 -1       455 2.14964E+01
 -1       456 2.88794E+01
 -1       457 2.88794E+01
 -1       458 2.88794E+01
 -1       459 3.09798E+01
 -1       460 3.09798E+01
 -1       461 2.11551E+01
 -1       462 2.17943E+01
 -1       463 2.18123E+01
 -1       464 2.18423E+01
 -1       465 2.18423E+01
 -1       466 2.13007E+01
 -1       467 3.00010E+01
 -1       468 3.00010E+01
 -1       469 3.09417E+01
 -1       470 3.09417E+01
 -1       471 3.09417E+01
 -1       472 2.74349E+01
 -1       473 2.39281E+01
 -1       474 2.11551E+01
 -1       475 2.14747E+01
 -1       476 2.17943E+01
 -1       477 2.17943E+01
 -1       478 2.17943E+01
 -1       479 2.18183E+01
 -1       480 2.18423E+01
 -1       481 2.18423E+01
 -1       482 2.18423E+01
 -1       483 2.14737E+01
 -1       484 2.11050E+01
 -1       485 2.55219E+01
 -1       486 2.83222E+01
 -1       487 3.11225E+01
 -1       488 3.11225E+01
 -1       489 3.11225E+01
 -1       490 3.10031E+01
 -1       491 3.10031E+01
 -1       492 2.39281E+01
 -1       493 2.16191E+01
 -1       494 2.19387E+01
 -1       495 2.17865E+01
 -1       496 2.18105E+01
 -1       497 2.19683E+01
 -1       498 2.15996E+01
 -1       499 2.55219E+01
 -1       500 3.11225E+01
 -1       501 3.11225E+01
 -1       502 3.10644E+01
 -1       503 3.10644E+01
 -1       504 3.10644E+01
 -1       505 2.74963E+01
 -1       506 2.39281E+01
 -1       507 2.32706E+01
 -1       508 2.26131E+01
 -1       509 2.20831E+01
 -1       510 2.20831E+01
 -1       511 2.20831E+01
 -1       512 2.19309E+01
 -1       513 2.17788E+01
 -1       514 2.17788E+01
 -1       515 2.17788E+01
 -1       516 2.19365E+01
 -1       517 2.20942E+01
 -1       518 2.20942E+01
 -1       519 2.20942E+01
 -1       520 2.23006E+01
 -1       521 2.39112E+01
 -1       522 2.55219E+01
 -1       523 2.83222E+01
 -1       524 3.11225E+01
 -1       525 3.11225E+01
 -1       526 3.11225E+01
 -1       527 3.10644E+01
 -1       528 3.10644E+01
 -1       529 2.43903E+01
 -1       530 2.33235E+01
 -1       531 2.26624E+01
 -1       532 2.20831E+01
 -1       533 2.14676E+01
 -1       534 2.14676E+01
 -1       535 2.20942E+01
 -1       536 2.26779E+01
 -1       537 2.31771E+01
 -1       538 2.51570E+01
 -1       539 3.11189E+01
 -1       540 3.11189E+01
 -1       541 3.10644E+01
 -1       542 3.10644E+01
 -1       543 3.10644E+01
 -1       544 2.79585E+01
 -1       545 2.48526E+01
 -1       546 2.44432E+01
 -1       547 2.40338E+01
 -1       548 2.36377E+01
 -1       549 2.32416E+01
 -1       550 2.26624E+01
 -1       551 2.20831E+01
 -1       552 2.16198E+01
 -1       553 2.11564E+01
 -1       554 2.11564E+01
 -1       555 2.11564E+01
 -1       556 2.16253E+01
 -1       557 2.20942E+01
 -1       558 2.26779E+01
 -1       559 2.32616E+01
 -1       560 2.36576E+01
 -1       561 2.40535E+01
 -1       562 2.44228E+01
 -1       563 2.47921E+01
 -1       564 2.79537E+01
 -1       565 3.11152E+01
 -1       566 3.11152E+01
 -1       567 3.11152E+01
 -1       568 3.10062E+01
 -1       569 3.10062E+01
 -1       570 2.60771E+01
 -1       571 2.56677E+01
 -1       572 2.37212E+01
 -1       573 2.37500E+01
 -1       574 2.56825E+01
 -1       575 2.60518E+01
 -1       576 3.10344E+01
 -1       577 3.10344E+01
 -1       578 3.09480E+01
 -1       579 3.09480E+01
 -1       580 3.09480E+01
 -1       581 2.91248E+01
 -1       582 2.73016E+01
 -1       583 2.73016E+01
 -1       584 2.73016E+01
 -1       585 2.57512E+01
 -1       586 2.42007E+01
 -1       587 2.29939E+01
 -1       588 2.17871E+01
 -1       589 2.17735E+01
 -1       590 2.30059E+01
 -1       591 2.42384E+01
 -1       592 2.57750E+01
 -1       593 2.73115E+01
 -1       594 2.73115E+01
 -1       595 2.73115E+01
 -1       596 2.91326E+01
 -1       597 3.09536E+01
 -1       598 3.09536E+01
 -1       599 3.09536E+01
 -1       600 2.73016E+01
 -1       601 2.73016E+01
 -1       602 2.44996E+01
 -1       603 2.17871E+01
 -1       604 2.17735E+01
 -1       605 2.45106E+01
 -1       606 2.73115E+01
 -1       607 2.73115E+01
 -1       608 2.73016E+01
 -1       609 2.73016E+01
 -1       610 2.73016E+01
 -1       611 2.60501E+01
 -1       612 2.47985E+01
 -1       613 2.32928E+01
 -1       614 2.17871E+01
 -1       615 2.17735E+01
 -1       616 2.32782E+01
 -1       617 2.47829E+01
 -1       618 2.60472E+01
 -1       619 2.73115E+01
 -1       620 2.73115E+01
 -1       621 2.73115E+01
 -1       622 2.91025E+01
 -1       623 2.79153E+01
 -1       624 2.64096E+01
 -1       625 2.64017E+01
 -1       626 2.79064E+01
 -1       627 2.91057E+01
 -1       628 3.09033E+01
 -1       629 3.09677E+01
 -1       630 3.10321E+01
 -1       631 3.10321E+01
 -1       632 3.10321E+01
 -1       633 3.05359E+01
 -1       634 3.00397E+01
 -1       635 3.00224E+01
 -1       636 3.00052E+01
 -1       637 3.05176E+01
 -1       638 3.10300E+01
 -1       639 3.10300E+01
 -1       640 3.10300E+01
 -1       641 3.09649E+01
 -1       642 3.08998E+01
 -1       643 3.09033E+01
 -1       644 3.10321E+01
 -1       645 3.10321E+01
 -1       646 3.00397E+01
 -1       647 3.00052E+01
 -1       648 3.10300E+01
 -1       649 3.10300E+01
 -1       650 3.08998E+01
 -1       651 3.09033E+01
 -1       652 3.09677E+01
 -1       653 3.10321E+01
 -1       654 3.10321E+01
 -1       655 3.10321E+01
 -1       656 3.05359E+01
 -1       657 3.00397E+01
 -1       658 3.00224E+01
 -1       659 3.00052E+01
 -1       660 3.05176E+01
 -1       661 3.10300E+01
 -1       662 3.10300E+01
 -1       663 3.10300E+01
 -1       664 3.09649E+01
 -1       665 3.08998E+01
 -1       666 3.09443E+01
 -1       667 3.10893E+01
 -1       668 3.10893E+01
 -1       669 3.10595E+01
 -1       670 3.10068E+01
 -1       671 3.10703E+01
 -1       672 3.10703E+01
 -1       673 3.09329E+01
 -1       674 3.09443E+01
 -1       675 3.10893E+01
 -1       676 3.10893E+01
 -1       677 3.10595E+01
 -1       678 3.10068E+01
 -1       679 3.10703E+01
 -1       680 3.10703E+01
 -1       681 3.09329E+01
 -1       682 2.69722E+01
 -1       683 2.69722E+01
 -1       684 2.59299E+01
 -1       685 2.33661E+01
 -1       686 2.19077E+01
 -1       687 2.43356E+01
 -1       688 2.43356E+01
 -1       689 2.46789E+01
 -1       690 2.69097E+01
 -1       691 2.69097E+01
 -1       692 3.09316E+01
 -1       693 3.09316E+01
 -1       694 2.69722E+01
 -1       695 2.69722E+01
 -1       696 2.59299E+01
 -1       697 2.24530E+01
 -1       698 2.39883E+01
 -1       699 2.69097E+01
 -1       700 2.69097E+01
 -1       701 3.09646E+01
 -1       702 3.09646E+01
 -1       703 3.10730E+01
 -1       704 3.10730E+01
 -1       705 2.46790E+01
 -1       706 2.40137E+01
 -1       707 2.40137E+01
 -1       708 2.21753E+01
 -1       709 2.14758E+01
 -1       710 2.10965E+01
 -1       711 2.21721E+01
 -1       712 2.39883E+01
 -1       713 2.59215E+01
 -1       714 2.59215E+01
 -1       715 3.09687E+01
 -1       716 3.09687E+01
 -1       717 3.10730E+01
 -1       718 3.10730E+01
 -1       719 2.42249E+01
 -1       720 2.23626E+01
 -1       721 2.21753E+01
 -1       722 2.21753E+01
 -1       723 2.18303E+01
 -1       724 2.18303E+01
 -1       725 2.21721E+01
 -1       726 2.21721E+01
 -1       727 2.14937E+01
 -1       728 3.09687E+01
 -1       729 3.09687E+01
 -1       730 3.10178E+01
 -1       731 3.10178E+01
 -1       732 2.42249E+01
 -1       733 2.11551E+01
 -1       734 2.17943E+01
 -1       735 2.18303E+01
 -1       736 2.18423E+01
 -1       737 2.18423E+01
 -1       738 2.14964E+01
 -1       739 2.88794E+01
 -1       740 2.88794E+01
 -1       741 3.09417E+01
 -1       742 3.09417E+01
 -1       743 2.39281E+01
 -1       744 2.11551E+01
 -1       745 2.17943E+01
 -1       746 2.17943E+01
 -1       747 2.18423E+01
 -1       748 2.18423E+01
 -1       749 2.11050E+01
 -1       750 2.55219E+01
 -1       751 3.11225E+01
 -1       752 3.11225E+01
 -1       753 3.10644E+01
 -1       754 3.10644E+01
 -1       755 2.39281E+01
 -1       756 2.26131E+01
 -1       757 2.20831E+01
 -1       758 2.20831E+01
 -1       759 2.17788E+01
 -1       760 2.17788E+01
 -1       761 2.20942E+01
 -1       762 2.20942E+01
 -1       763 2.23006E+01
 -1       764 2.55219E+01
 -1       765 3.11225E+01
 -1       766 3.11225E+01
 -1       767 3.10644E+01
 -1       768 3.10644E+01
 -1       769 2.48526E+01
 -1       770 2.40338E+01
 -1       771 2.32416E+01
 -1       772 2.20831E+01
 -1       773 2.11564E+01
 -1       774 2.11564E+01
 -1       775 2.20942E+01
 -1       776 2.32616E+01
 -1       777 2.40535E+01
 -1       778 2.47921E+01
 -1       779 3.11152E+01
 -1       780 3.11152E+01
 -1       781 3.09480E+01
 -1       782 3.09480E+01
 -1       783 2.73016E+01
 -1       784 2.73016E+01
 -1       785 2.42007E+01
 -1       786 2.17871E+01
 -1       787 2.17735E+01
 -1       788 2.42384E+01
 -1       789 2.73115E+01
 -1       790 2.73115E+01
 -1       791 3.09536E+01
 -1       792 3.09536E+01
 -1       793 2.73016E+01
 -1       794 2.73016E+01
 -1       795 2.47985E+01
 -1       796 2.17871E+01
 -1       797 2.17735E+01
 -1       798 2.47829E+01
 -1       799 2.73115E+01
 -1       800 2.73115E+01
 -1       801 3.09033E+01
 -1       802 3.10321E+01
 -1       803 3.10321E+01
 -1       804 3.00397E+01
 -1       805 3.00052E+01
 -1       806 3.10300E+01
 -1       807 3.10300E+01
 -1       808 3.08998E+01
 -1       809 3.09033E+01
 -1       810 3.10321E+01
 -1       811 3.10321E+01
 -1       812 3.00397E+01
 -1       813 3.00052E+01
 -1       814 3.10300E+01
 -1       815 3.10300E+01
 -1       816 3.08998E+01
 -1       817 3.09443E+01
 -1       818 3.10168E+01
 -1       819 3.10893E+01
 -1       820 3.10893E+01
 -1       821 3.10893E+01
 -1       822 3.10744E+01
 -1       823 3.10595E+01
 -1       824 3.10332E+01
 -1       825 3.10068E+01
 -1       826 3.10385E+01
 -1       827 3.10703E+01
 -1       828 3.10703E+01
 -1       829 3.10703E+01
 -1       830 3.10016E+01
 -1       831 3.09329E+01
 -1       832 3.09443E+01
 -1       833 3.10893E+01
 -1       834 3.10893E+01
 -1       835 3.10595E+01
 -1       836 3.10068E+01
 -1       837 3.10703E+01
 -1       838 3.10703E+01
 -1       839 3.09329E+01
 -1       840 3.09443E+01
 -1       841 3.10168E+01
 -1       842 3.10893E+01
 -1       843 3.10893E+01
 -1       844 3.10893E+01
 -1       845 3.10744E+01
 -1       846 3.10595E+01
 -1       847 3.10332E+01
 -1       848 3.10068E+01
 -1       849 3.10385E+01
 -1       850 3.10703E+01
 -1       851 3.10703E+01
 -1       852 3.10703E+01
 -1       853 3.10016E+01
 -1       854 3.09329E+01
 -1       855 2.89583E+01
 -1       856 2.85096E+01
 -1       857 2.72277E+01
 -1       858 2.64836E+01
 -1       859 2.76712E+01
 -1       860 2.77030E+01
 -1       861 2.78746E+01
 -1       862 2.89213E+01
 -1       863 2.69722E+01
 -1       864 2.69722E+01
 -1       865 2.69722E+01
 -1       866 2.64511E+01
 -1       867 2.59299E+01
 -1       868 2.46480E+01
 -1       869 2.33661E+01
 -1       870 2.26369E+01
 -1       871 2.19077E+01
 -1       872 2.43356E+01
 -1       873 2.43356E+01
 -1       874 2.43356E+01
 -1       875 2.45073E+01
 -1       876 2.46789E+01
 -1       877 2.57943E+01
 -1       878 2.69097E+01
 -1       879 2.69097E+01
 -1       880 2.69097E+01
 -1       881 2.69722E+01
 -1       882 2.69722E+01
 -1       883 2.59299E+01
 -1       884 2.33943E+01
 -1       885 2.43336E+01
 -1       886 2.69097E+01
 -1       887 2.69097E+01
 -1       888 3.09316E+01
 -1       889 3.09316E+01
 -1       890 3.09316E+01
 -1       891 2.89519E+01
 -1       892 2.69722E+01
 -1       893 2.69722E+01
 -1       894 2.69722E+01
 -1       895 2.64511E+01
 -1       896 2.59299E+01
 -1       897 2.24530E+01
 -1       898 2.32207E+01
 -1       899 2.39883E+01
 -1       900 2.54490E+01
 -1       901 2.69097E+01
 -1       902 2.69097E+01
 -1       903 2.69097E+01
 -1       904 2.89372E+01
 -1       905 3.09646E+01
 -1       906 3.09646E+01
 -1       907 3.09646E+01
 -1       908 3.10023E+01
 -1       909 3.10023E+01
 -1       910 2.58256E+01
 -1       911 2.54929E+01
 -1       912 2.49718E+01
 -1       913 2.39883E+01
 -1       914 2.64156E+01
 -1       915 2.64156E+01
 -1       916 3.09666E+01
 -1       917 3.09666E+01
 -1       918 3.10730E+01
 -1       919 3.10730E+01
 -1       920 3.10730E+01
 -1       921 2.78760E+01
 -1       922 2.46790E+01
 -1       923 2.43463E+01
 -1       924 2.40137E+01
 -1       925 2.40137E+01
 -1       926 2.40137E+01
 -1       927 2.30945E+01
 -1       928 2.21753E+01
 -1       929 2.18256E+01
 -1       930 2.14758E+01
 -1       931 2.12862E+01
 -1       932 2.10965E+01
 -1       933 2.16343E+01
 -1       934 2.21721E+01
 -1       935 2.30802E+01
 -1       936 2.39883E+01
 -1       937 2.49549E+01
 -1       938 2.59215E+01
 -1       939 2.59215E+01
 -1       940 2.59215E+01
 -1       941 2.84451E+01
 -1       942 3.09687E+01
 -1       943 3.09687E+01
 -1       944 3.09687E+01
 -1       945 3.10730E+01
 -1       946 3.10730E+01
 -1       947 2.44520E+01
 -1       948 2.31881E+01
 -1       949 2.30945E+01
 -1       950 2.21753E+01
 -1       951 2.16531E+01
 -1       952 2.14634E+01
 -1       953 2.21721E+01
 -1       954 2.30802E+01
 -1       955 2.37076E+01
 -1       956 3.09687E+01
 -1       957 3.09687E+01
 -1       958 3.10730E+01
 -1       959 3.10730E+01
 -1       960 3.10730E+01
 -1       961 2.76489E+01
 -1       962 2.42249E+01
 -1       963 2.32937E+01
 -1       964 2.23626E+01
 -1       965 2.21753E+01
 -1       966 2.21753E+01
 -1       967 2.21753E+01
 -1       968 2.20028E+01
 -1       969 2.18303E+01
 -1       970 2.18303E+01
 -1       971 2.18303E+01
 -1       972 2.20012E+01
 -1       973 2.21721E+01
 -1       974 2.21721E+01
 -1       975 2.21721E+01
 -1       976 2.14937E+01
 -1       977 2.62312E+01
 -1       978 3.09687E+01
 -1       979 3.09687E+01
 -1       980 3.09687E+01
 -1       981 3.10454E+01
 -1       982 3.10454E+01
 -1       983 2.42249E+01
 -1       984 2.16652E+01
 -1       985 2.19848E+01
 -1       986 2.18303E+01
 -1       987 2.18363E+01
 -1       988 2.20072E+01
 -1       989 2.18343E+01
 -1       990 2.99241E+01
 -1       991 2.99241E+01
 -1       992 3.10178E+01
 -1       993 3.10178E+01
 -1       994 3.10178E+01
 -1       995 2.76214E+01
 -1       996 2.42249E+01
 -1       997 2.11551E+01
 -1       998 2.14747E+01
 -1       999 2.17943E+01
 -1      1000 2.18123E+01
 -1      1001 2.18303E+01
 -1      1002 2.18363E+01
 -1      1003 2.18423E+01
 -1      1004 2.18423E+01
 -1      1005 2.18423E+01
 -1      1006 2.16694E+01
 -1      1007 2.14964E+01
 -1      1008 2.88794E+01
 -1      1009 2.88794E+01
 -1      1010 2.88794E+01
 -1      1011 3.09798E+01
 -1      1012 3.09798E+01
 -1      1013 2.11551E+01
 -1      1014 2.17943E+01
 -1      1015 2.18123E+01
 -1      1016 2.18423E+01
 -1      1017 2.18423E+01
 -1      1018 2.13007E+01
 -1      1019 3.00010E+01
 -1      1020 3.00010E+01
 -1      1021 3.09417E+01
 -1      1022 3.09417E+01
 -1      1023 3.09417E+01
 -1      1024 2.74349E+01
 -1      1025 2.39281E+01
 -1      1026 2.11551E+01
 -1      1027 2.14747E+01
 -1      1028 2.17943E+01
 -1      1029 2.17943E+01
 -1      1030 2.17943E+01
 -1      1031 2.18183E+01
 -1      1032 2.18423E+01
 -1      1033 2.18423E+01
 -1      1034 2.18423E+01
 -1      1035 2.14737E+01
 -1      1036 2.11050E+01
 -1      1037 2.55219E+01
 -1      1038 2.83222E+01
 -1      1039 3.11225E+01
 -1      1040 3.11225E+01
 -1      1041 3.11225E+01
 -1      1042 3.10031E+01
 -1      1043 3.10031E+01
 -1      1044 2.39281E+01
 -1      1045 2.16191E+01
 -1      1046 2.19387E+01
 -1      1047 2.17865E+01
 -1      1048 2.18105E+01
 -1      1049 2.19683E+01
 -1      1050 2.15996E+01
 -1      1051 2.55219E+01
 -1      1052 3.11225E+01
 -1      1053 3.11225E+01
 -1      1054 3.10644E+01
 -1      1055 3.10644E+01
 -1      1056 3.10644E+01
 -1      1057 2.74963E+01
 -1      1058 2.39281E+01
 -1      1059 2.32706E+01
 -1      1060 2.26131E+01
 -1      1061 2.20831E+01
 -1      1062 2.20831E+01
 -1      1063 2.20831E+01
 -1      1064 2.19309E+01
 -1      1065 2.17788E+01
 -1      1066 2.17788E+01
 -1      1067 2.17788E+01
 -1      1068 2.19365E+01
 -1      1069 2.20942E+01
 -1      1070 2.20942E+01
 -1      1071 2.20942E+01
 -1      1072 2.23006E+01
 -1      1073 2.39112E+01
 -1      1074 2.55219E+01
 -1      1075 2.83222E+01
 -1      1076 3.11225E+01
 -1      1077 3.11225E+01
 -1      1078 3.11225E+01
 -1      1079 3.10644E+01
 -1      1080 3.10644E+01
 -1      1081 2.43903E+01
 -1      1082 2.33235E+01
 -1      1083 2.26624E+01
 -1      1084 2.20831E+01
 -1      1085 2.14676E+01
 -1      1086 2.14676E+01
 -1      1087 2.20942E+01
 -1      1088 2.26779E+01
 -1      1089 2.31771E+01
 -1      1090 2.51570E+01
 -1      1091 3.11189E+01
 -1      1092 3.11189E+01
 -1      1093 3.10644E+01
 -1      1094 3.10644E+01
 -1      1095 3.10644E+01
 -1      1096 2.79585E+01
 -1      1097 2.48526E+01
 -1      1098 2.44432E+01
 -1      1099 2.40338E+01
 -1      1100 2.36377E+01
 -1      1101 2.32416E+01
 -1      1102 2.26624E+01
 -1      1103 2.20831E+01
 -1      1104 2.16198E+01
 -1      1105 2.11564E+01
 -1      1106 2.11564E+01
 -1      1107 2.11564E+01
 -1      1108 2.16253E+01
 -1      1109 2.20942E+01
 -1      1110 2.26779E+01
 -1      1111 2.32616E+01
 -1      1112 2.36576E+01
 -1      1113 2.40535E+01
 -1      1114 2.44228E+01
 -1      1115 2.47921E+01
 -1      1116 2.79537E+01
 -1      1117 3.11152E+01
 -1      1118 3.11152E+01
 -1      1119 3.11152E+01
 -1      1120 3.10062E+01
 -1      1121 3.10062E+01
 -1      1122 2.60771E+01
 -1      1123 2.56677E+01
 -1      1124 2.37212E+01
 -1      1125 2.37500E+01
 -1      1126 2.56825E+01
 -1      1127 2.60518E+01
 -1      1128 3.10344E+01
 -1      1129 3.10344E+01
 -1      1130 3.09480E+01
 -1      1131 3.09480E+01
 -1      1132 3.09480E+01
 -1      1133 2.91248E+01
 -1      1134 2.73016E+01
 -1      1135 2.73016E+01
 -1      1136 2.73016E+01
 -1      1137 2.57512E+01
 -1      1138 2.42007E+01
 -1      1139 2.29939E+01
 -1      1140 2.17871E+01
 -1      1141 2.17735E+01
 -1      1142 2.30059E+01
 -1      1143 2.42384E+01
 -1      1144 2.57750E+01
 -1      1145 2.73115E+01
 -1      1146 2.73115E+01
 -1      1147 2.73115E+01
 -1      1148 2.91326E+01
 -1      1149 3.09536E+01
 -1      1150 3.09536E+01
 -1      1151 3.09536E+01
 -1      1152 2.73016E+01
 -1      1153 2.73016E+01
 -1      1154 2.44996E+01
 -1      1155 2.17871E+01
 -1      1156 2.17735E+01
 -1      1157 2.45106E+01
 -1      1158 2.73115E+01
 -1      1159 2.73115E+01
 -1      1160 2.73016E+01
 -1      1161 2.73016E+01
 -1      1162 2.73016E+01
 -1      1163 2.60501E+01
 -1      1164 2.47985E+01
 -1      1165 2.32928E+01
 -1      1166 2.17871E+01
 -1      1167 2.17735E+01
 -1      1168 2.32782E+01
 -1      1169 2.47829E+01
 -1      1170 2.60472E+01
 -1      1171 2.73115E+01
 -1      1172 2.73115E+01
 -1      1173 2.73115E+01
 -1      1174 2.91025E+01
 -1      1175 2.79153E+01
 -1      1176 2.64096E+01
 -1      1177 2.64017E+01
 -1      1178 2.79064E+01
 -1      1179 2.91057E+01
 -1      1180 3.09033E+01
 -1      1181 3.09677E+01
 -1      1182 3.10321E+01
 -1      1183 3.10321E+01
 -1      1184 3.10321E+01
 -1      1185 3.05359E+01
 -1      1186 3.00397E+01
 -1      1187 3.00224E+01
 -1      1188 3.00052E+01
 -1      1189 3.05176E+01
 -1      1190 3.10300E+01
 -1      1191 3.10300E+01
 -1      1192 3.10300E+01
 -1      1193 3.09649E+01
 -1      1194 3.08998E+01
 -1      1195 3.09033E+01
 -1      1196 3.10321E+01
 -1      1197 3.10321E+01
 -1      1198 3.00397E+01
 -1      1199 3.00052E+01
 -1      1200 3.10300E+01
 -1      1201 3.10300E+01
 -1      1202 3.08998E+01
 -1      1203 3.09033E+01
 -1      1204 3.09677E+01
 -1      1205 3.10321E+01
 -1      1206 3.10321E+01
 -1      1207 3.10321E+01
 -1      1208 3.05359E+01
 -1      1209 3.00397E+01
 -1      1210 3.00224E+01
 -1      1211 3.00052E+01
 -1      1212 3.05176E+01
 -1      1213 3.10300E+01
 -1      1214 3.10300E+01
 -1      1215 3.10300E+01
 -1      1216 3.09649E+01
 -1      1217 3.08998E+01
 -1      1218 2.30945E+01
 -1      1219 2.21753E+01
 -1      1220 1.80888E+01
 -1      1221 1.75781E+01
 -1      1222 2.21721E+01
 -1      1223 2.30802E+01
 -1      1224 2.21753E+01
 -1      1225 2.21753E+01
 -1      1226 2.01732E+01
 -1      1227 2.01261E+01
 -1      1228 2.21721E+01
 -1      1229 2.21721E+01
 -1      1230 1.75493E+01
 -1      1231 2.01552E+01
 -1      1232 2.01732E+01
 -1      1233 2.01321E+01
 -1      1234 2.01321E+01
 -1      1235 1.81268E+01
 -1      1236 1.76363E+01
 -1      1237 1.79560E+01
 -1      1238 1.61710E+01
 -1      1239 1.99105E+01
 -1      1240 1.99105E+01
 -1      1241 1.76212E+01
 -1      1242 2.20831E+01
 -1      1243 2.20831E+01
 -1      1244 1.80344E+01
 -1      1245 1.98787E+01
 -1      1246 2.20942E+01
 -1      1247 2.20942E+01
 -1      1248 2.26624E+01
 -1      1249 2.20831E+01
 -1      1250 1.77232E+01
 -1      1251 1.76877E+01
 -1      1252 2.20942E+01
 -1      1253 2.26779E+01
 -1      1254 2.21753E+01
 -1      1255 2.21753E+01
 -1      1256 2.21753E+01
 -1      1257 1.84386E+01
 -1      1258 1.47018E+01
 -1      1259 1.43807E+01
 -1      1260 1.40596E+01
 -1      1261 1.81159E+01
 -1      1262 2.21721E+01
 -1      1263 2.21721E+01
 -1      1264 2.21721E+01
 -1      1265 2.21753E+01
 -1      1266 2.21753E+01
 -1      1267 1.66090E+01
 -1      1268 1.62408E+01
 -1      1269 2.21721E+01
 -1      1270 2.21721E+01
 -1      1271 2.21753E+01
 -1      1272 2.21753E+01
 -1      1273 2.21753E+01
 -1      1274 2.03457E+01
 -1      1275 1.85161E+01
 -1      1276 1.84690E+01
 -1      1277 1.84219E+01
 -1      1278 2.02970E+01
 -1      1279 2.21721E+01
 -1      1280 2.21721E+01
 -1      1281 2.21721E+01
 -1      1282 1.80594E+01
 -1      1283 2.03457E+01
 -1      1284 1.85161E+01
 -1      1285 1.84219E+01
 -1      1286 2.02970E+01
 -1      1287 1.84646E+01
 -1      1288 1.39435E+01
 -1      1289 1.62298E+01
 -1      1290 1.85161E+01
 -1      1291 1.85161E+01
 -1      1292 1.85161E+01
 -1      1293 1.84690E+01
 -1      1294 1.84219E+01
 -1      1295 1.84219E+01
 -1      1296 1.84219E+01
 -1      1297 1.65895E+01
 -1      1298 1.47571E+01
 -1      1299 1.40305E+01
 -1      1300 1.63168E+01
 -1      1301 1.45319E+01
 -1      1302 1.82003E+01
 -1      1303 1.82003E+01
 -1      1304 1.44473E+01
 -1      1305 1.41176E+01
 -1      1306 1.41176E+01
 -1      1307 1.41176E+01
 -1      1308 1.23326E+01
 -1      1309 1.05476E+01
 -1      1310 1.42631E+01
 -1      1311 1.79786E+01
 -1      1312 1.79786E+01
 -1      1313 1.79786E+01
 -1      1314 1.60580E+01
 -1      1315 1.41375E+01
 -1      1316 1.81003E+01
 -1      1317 1.81003E+01
 -1      1318 1.24188E+01
 -1      1319 1.79786E+01
 -1      1320 2.00364E+01
 -1      1321 1.81158E+01
 -1      1322 2.20831E+01
 -1      1323 2.20831E+01
 -1      1324 2.20831E+01
 -1      1325 1.81865E+01
 -1      1326 1.42900E+01
 -1      1327 1.61343E+01
 -1      1328 1.79786E+01
 -1      1329 2.00364E+01
 -1      1330 2.20942E+01
 -1      1331 2.20942E+01
 -1      1332 2.20942E+01
 -1      1333 2.20831E+01
 -1      1334 2.20831E+01
 -1      1335 1.42900E+01
 -1      1336 1.60988E+01
 -1      1337 2.20942E+01
 -1      1338 2.20942E+01
 -1      1339 2.20831E+01
 -1      1340 2.20831E+01
 -1      1341 2.20831E+01
 -1      1342 1.81865E+01
 -1      1343 1.42900E+01
 -1      1344 1.42545E+01
 -1      1345 1.42190E+01
 -1      1346 1.81566E+01
 -1      1347 2.20942E+01
 -1      1348 2.20942E+01
 -1      1349 2.20942E+01
 -1      1350 1.57989E+01
 -1      1351 1.84386E+01
 -1      1352 1.47018E+01
 -1      1353 1.40248E+01
 -1      1354 1.80810E+01
 -1      1355 1.57998E+01
 -1      1356 1.80594E+01
 -1      1357 1.84386E+01
 -1      1358 1.66090E+01
 -1      1359 1.62059E+01
 -1      1360 1.84646E+01
 -1      1361 1.84646E+01
 -1      1362 1.39435E+01
 -1      1363 1.62298E+01
 -1      1364 1.12536E+01
 -1      1365 1.11669E+01
 -1      1366 1.65895E+01
 -1      1367 1.47571E+01
 -1      1368 1.41176E+01
 -1      1369 1.41176E+01
 -1      1370 7.20185E+00
 -1      1371 1.09214E+01
 -1      1372 1.60580E+01
 -1      1373 1.41375E+01
 -1      1374 1.81003E+01
 -1      1375 1.81865E+01
 -1      1376 1.42900E+01
 -1      1377 1.60988E+01
 -1      1378 1.81566E+01
 -1      1379 1.81158E+01
 -1      1380 1.56060E+01
 -1      1381 1.81865E+01
 -1      1382 1.42900E+01
 -1      1383 1.42190E+01
 -1      1384 1.81566E+01
 -1      1385 1.56158E+01
 -1      1386 9.42247E+00
 -1      1387 1.20622E+01
 -1      1388 1.47018E+01
 -1      1389 1.47018E+01
 -1      1390 1.47018E+01
 -1      1391 1.43459E+01
 -1      1392 1.39899E+01
 -1      1393 1.39899E+01
 -1      1394 1.39899E+01
 -1      1395 1.17087E+01
 -1      1396 9.42743E+00
 -1      1397 1.16830E+01
 -1      1398 1.47018E+01
 -1      1399 1.47018E+01
 -1      1400 1.39899E+01
 -1      1401 1.43735E+01
 -1      1402 1.20923E+01
 -1      1403 1.39435E+01
 -1      1404 1.43226E+01
 -1      1405 1.47018E+01
 -1      1406 1.47018E+01
 -1      1407 1.47018E+01
 -1      1408 1.43459E+01
 -1      1409 1.39899E+01
 -1      1410 1.43735E+01
 -1      1411 1.47571E+01
 -1      1412 1.47571E+01
 -1      1413 1.47571E+01
 -1      1414 1.39435E+01
 -1      1415 1.43226E+01
 -1      1416 9.34649E+00
 -1      1417 8.95086E+00
 -1      1418 1.47571E+01
 -1      1419 1.47571E+01
 -1      1420 1.39435E+01
 -1      1421 1.39435E+01
 -1      1422 1.39435E+01
 -1      1423 8.96730E+00
 -1      1424 3.99114E+00
 -1      1425 3.95148E+00
 -1      1426 3.91181E+00
 -1      1427 9.33447E+00
 -1      1428 1.47571E+01
 -1      1429 1.47571E+01
 -1      1430 1.47571E+01
 -1      1431 1.40305E+01
 -1      1432 1.40305E+01
 -1      1433 3.92361E+00
 -1      1434 3.88801E+00
 -1      1435 1.44473E+01
 -1      1436 1.44473E+01
 -1      1437 1.41176E+01
 -1      1438 1.41176E+01
 -1      1439 1.41176E+01
 -1      1440 8.98683E+00
 -1      1441 3.85607E+00
 -1      1442 3.86015E+00
 -1      1443 3.86422E+00
 -1      1444 9.00084E+00
 -1      1445 1.41375E+01
 -1      1446 1.41375E+01
 -1      1447 1.41375E+01
 -1      1448 1.41176E+01
 -1      1449 1.42038E+01
 -1      1450 9.07304E+00
 -1      1451 9.04161E+00
 -1      1452 1.41782E+01
 -1      1453 1.41375E+01
 -1      1454 1.41176E+01
 -1      1455 1.42038E+01
 -1      1456 1.42900E+01
 -1      1457 1.42900E+01
 -1      1458 1.42900E+01
 -1      1459 1.42545E+01
 -1      1460 1.42190E+01
 -1      1461 1.42190E+01
 -1      1462 1.42190E+01
 -1      1463 1.41782E+01
 -1      1464 1.41375E+01
 -1      1465 1.16232E+01
 -1      1466 1.42900E+01
 -1      1467 1.42900E+01
 -1      1468 1.42190E+01
 -1      1469 1.42190E+01
 -1      1470 1.16374E+01
 -1      1471 9.12884E+00
 -1      1472 1.17094E+01
 -1      1473 1.42900E+01
 -1      1474 1.42900E+01
 -1      1475 1.42900E+01
 -1      1476 1.42545E+01
 -1      1477 1.42190E+01
 -1      1478 1.42190E+01
 -1      1479 1.42190E+01
 -1      1480 1.16782E+01
 -1      1481 9.13743E+00
 -3
    1PSTEP                        17           1           1          
    1PGM                1.000000E+00                                  
    1PGK                1.381566E+12                                  
    1PHID                         -1                                  
    1PSUBC                         0                                  
    1PMODE                         5                                  
  100CL  105 187070.7844        1481                     2    5MODAL      1
 -4  DISP        4    1
 -5  D1          1    2    1    0
 -5  D2          1    2    2    0
 -5  D3          1    2    3    0
 -5  ALL         1    2    0    0    1ALL
 -1         1 1.00756E+03 6.69625E+02 1.38860E+03
 -1         2 8.55112E+02 4.82715E+02 2.76977E+03
 -1         3 5.89918E+02 1.94778E+02 3.91574E+03
 -1         4 3.83546E+02 6.59898E+01 4.65531E+03
 -1         5 1.77526E+02-2.28310E-01 5.08571E+03
 -1         6-4.41347E+01-1.57198E+01 5.18656E+03
 -1         7-2.62603E+02 1.59997E+01 4.95708E+03
 -1         8-4.64104E+02 9.86142E+01 4.40769E+03
 -1         9-6.62584E+02 2.38645E+02 3.55523E+03
 -1        10-8.75243E+02 5.49886E+02 2.31375E+03
 -1        11-9.68399E+02 8.29539E+02 8.60611E+02
 -1        12 7.48180E+02 5.68504E+02 2.44346E+03
 -1        13 5.50182E+02 2.16752E+02 4.19569E+03
 -1        14 1.67876E+02 3.73826E+01 5.12011E+03
 -1        15-2.50181E+02 5.16886E+01 5.01278E+03
 -1        16-6.15607E+02 2.57194E+02 3.89033E+03
 -1        17-7.90894E+02 6.66246E+02 2.00448E+03
 -1        18 4.48711E+02 3.51526E+02 3.28426E+03
 -1        19 4.66480E+02 3.07497E+02 3.88159E+03
 -1        20 4.15925E+02 1.72529E+02 4.45546E+03
 -1        21 2.87955E+02 8.44372E+01 4.91135E+03
 -1        22 1.33588E+02 3.35346E+01 5.18792E+03
 -1        23-3.56614E+01 2.07745E+01 5.24928E+03
 -1        24-2.03951E+02 4.55816E+01 5.09744E+03
 -1        25-3.53139E+02 1.08677E+02 4.73478E+03
 -1        26-4.72340E+02 2.08040E+02 4.20268E+03
 -1        27-5.17551E+02 3.50894E+02 3.56672E+03
 -1        28-4.96113E+02 3.92833E+02 2.91011E+03
 -1        29 3.16984E+02 1.58373E+02 3.73976E+03
 -1        30 3.24688E+02 5.60089E+01 4.61143E+03
 -1        31 1.08610E+02-3.62620E+01 5.19380E+03
 -1        32-1.68046E+02-2.56076E+01 5.11804E+03
 -1        33-3.75155E+02 8.34057E+01 4.39860E+03
 -1        34-3.58435E+02 1.92424E+02 3.41239E+03
 -1        35 2.41431E+02-3.28730E+01 3.90352E+03
 -1        36 2.74707E+02-4.48188E+01 4.23862E+03
 -1        37 2.67587E+02-8.69699E+01 4.60269E+03
 -1        38 1.95747E+02-1.17915E+02 4.90263E+03
 -1        39 9.45533E+01-1.34316E+02 5.09443E+03
 -1        40-2.55547E+01-1.36929E+02 5.13727E+03
 -1        41-1.44709E+02-1.25608E+02 5.03069E+03
 -1        42-2.43060E+02-1.01475E+02 4.77788E+03
 -1        43-3.12178E+02-6.43938E+01 4.42086E+03
 -1        44-3.16434E+02-1.66814E+01 4.00356E+03
 -1        45-2.81185E+02-2.28978E+00 3.61966E+03
 -1        46 2.13469E+02-2.34666E+02 3.76541E+03
 -1        47 2.44879E+02-2.43425E+02 4.39365E+03
 -1        48 8.96164E+01-2.49576E+02 4.85067E+03
 -1        49-1.32000E+02-2.42154E+02 4.79705E+03
 -1        50-2.83446E+02-2.22792E+02 4.23869E+03
 -1        51-2.49662E+02-2.07604E+02 3.51875E+03
 -1        52 2.27707E+02-4.31946E+02 3.32789E+03
 -1        53 2.60064E+02-4.24988E+02 3.64483E+03
 -1        54 2.54691E+02-3.96922E+02 3.98886E+03
 -1        55 1.88751E+02-3.76009E+02 4.27643E+03
 -1        56 9.46836E+01-3.63178E+02 4.46386E+03
 -1        57-1.78579E+01-3.56374E+02 4.51187E+03
 -1        58-1.30085E+02-3.56392E+02 4.41901E+03
 -1        59-2.22920E+02-3.62642E+02 4.18797E+03
 -1        60-2.87286E+02-3.77475E+02 3.85849E+03
 -1        61-2.91938E+02-4.00068E+02 3.47474E+03
 -1        62-2.59382E+02-4.05300E+02 3.11784E+03
 -1        63 2.85564E+02-6.09859E+02 2.60483E+03
 -1        64 2.96737E+02-5.30541E+02 3.39404E+03
 -1        65 1.09055E+02-4.55232E+02 3.93897E+03
 -1        66-1.37846E+02-4.48690E+02 3.90241E+03
 -1        67-3.23192E+02-5.11271E+02 3.28789E+03
 -1        68-3.11287E+02-5.82679E+02 2.43401E+03
 -1        69 3.92468E+02-7.79550E+02 1.62054E+03
 -1        70 4.09070E+02-7.45078E+02 2.14194E+03
 -1        71 3.69308E+02-6.36466E+02 2.64833E+03
 -1        72 2.63472E+02-5.63725E+02 3.05774E+03
 -1        73 1.33489E+02-5.18677E+02 3.31778E+03
 -1        74-1.14162E+01-5.01715E+02 3.39510E+03
 -1        75-1.56028E+02-5.12192E+02 3.28921E+03
 -1        76-2.84897E+02-5.50759E+02 3.00169E+03
 -1        77-3.89289E+02-6.17030E+02 2.56646E+03
 -1        78-4.28162E+02-7.18638E+02 2.03583E+03
 -1        79-4.11591E+02-7.50775E+02 1.49115E+03
 -1        80 6.31056E+02-9.64414E+02 3.16939E+02
 -1        81 4.78038E+02-6.75767E+02 1.80863E+03
 -1        82 1.66502E+02-5.23153E+02 2.64376E+03
 -1        83-1.82884E+02-5.16861E+02 2.62332E+03
 -1        84-4.91002E+02-6.56168E+02 1.75095E+03
 -1        85-6.39896E+02-9.33264E+02 2.34108E+02
 -1        86 8.25309E+02-1.05476E+03-1.16550E+03
 -1        87 7.13489E+02-8.92457E+02-1.23733E+01
 -1        88 5.11273E+02-6.58790E+02 9.54548E+02
 -1        89 3.44926E+02-5.51543E+02 1.60148E+03
 -1        90 1.75776E+02-4.92221E+02 1.99823E+03
 -1        91-7.47238E+00-4.71214E+02 2.12734E+03
 -1        92-1.90225E+02-4.86130E+02 1.98536E+03
 -1        93-3.58221E+02-5.39260E+02 1.57728E+03
 -1        94-5.22221E+02-6.39667E+02 9.21294E+02
 -1        95-7.17516E+02-8.63991E+02-4.80243E+01
 -1        96-8.24025E+02-1.02331E+03-1.19891E+03
 -1        97 8.23621E+02 5.29960E+02 1.38627E+03
 -1        98 4.49907E+02 1.57069E+02 3.92698E+03
 -1        99 1.35152E+02-1.88380E+00 5.09518E+03
 -1       100-2.02205E+02 1.09321E+01 4.96642E+03
 -1       101-5.08240E+02 1.93169E+02 3.56564E+03
 -1       102-7.65570E+02 6.84926E+02 8.58245E+02
 -1       103 3.61813E+02 2.59098E+02 3.29456E+03
 -1       104 3.33183E+02 1.38455E+02 4.46703E+03
 -1       105 1.07266E+02 2.45527E+01 5.19894E+03
 -1       106-1.63456E+02 3.43200E+01 5.10849E+03
 -1       107-3.79402E+02 1.66212E+02 4.21423E+03
 -1       108-3.99242E+02 2.90755E+02 2.92134E+03
 -1       109 1.92333E+02-3.42958E+01 3.91221E+03
 -1       110 2.12500E+02-6.98519E+01 4.61327E+03
 -1       111 7.53520E+01-1.08196E+02 5.10719E+03
 -1       112-1.15681E+02-1.01295E+02 5.04343E+03
 -1       113-2.48285E+02-5.13496E+01 4.43135E+03
 -1       114-2.24473E+02-1.03260E+01 3.62854E+03
 -1       115 1.81418E+02-3.40579E+02 3.33614E+03
 -1       116 2.02418E+02-3.18239E+02 3.99889E+03
 -1       117 7.54338E+01-2.90898E+02 4.47591E+03
 -1       118-1.03851E+02-2.85428E+02 4.43104E+03
 -1       119-2.28696E+02-3.02542E+02 3.86847E+03
 -1       120-2.06845E+02-3.19651E+02 3.12616E+03
 -1       121 3.16182E+02-6.07316E+02 1.62917E+03
 -1       122 2.95822E+02-5.10656E+02 2.65808E+03
 -1       123 1.07059E+02-4.14406E+02 3.32730E+03
 -1       124-1.25097E+02-4.09220E+02 3.29872E+03
 -1       125-3.11847E+02-4.94941E+02 2.57607E+03
 -1       126-3.31503E+02-5.84999E+02 1.49964E+03
 -1       127 6.68271E+02-8.43037E+02-1.16745E+03
 -1       128 3.91577E+02-5.30019E+02 9.63320E+02
 -1       129 1.34613E+02-3.94225E+02 2.00601E+03
 -1       130-1.46835E+02-3.89321E+02 1.99310E+03
 -1       131-4.01235E+02-5.14612E+02 9.29847E+02
 -1       132-6.66124E+02-8.18797E+02-1.20079E+03
 -1       133 6.74014E+02 4.21875E+02 1.38041E+03
 -1       134 5.21749E+02 2.90471E+02 2.79157E+03
 -1       135 3.14045E+02 1.14159E+02 3.93666E+03
 -1       136 2.19758E+02 3.43637E+01 4.66888E+03
 -1       137 9.63438E+01-1.85305E+00 5.10234E+03
 -1       138-2.51905E+01-9.91248E+00 5.20033E+03
 -1       139-1.45956E+02 7.92506E+00 4.97345E+03
 -1       140-2.66572E+02 5.42919E+01 4.42089E+03
 -1       141-3.60546E+02 1.41665E+02 3.57461E+03
 -1       142-5.16701E+02 3.31585E+02 2.32879E+03
 -1       143-5.94384E+02 5.75680E+02 8.52287E+02
 -1       144 4.51983E+02 3.33658E+02 2.45936E+03
 -1       145 3.26406E+02 1.33052E+02 4.21205E+03
 -1       146 1.00017E+02 2.14698E+01 5.13984E+03
 -1       147-1.50073E+02 2.98029E+01 5.03205E+03
 -1       148-3.64320E+02 1.59145E+02 3.90622E+03
 -1       149-4.77722E+02 4.09368E+02 2.02753E+03
 -1       150 2.69103E+02 1.72512E+02 3.30344E+03
 -1       151 2.85921E+02 1.77936E+02 3.89735E+03
 -1       152 2.50508E+02 1.03715E+02 4.47602E+03
 -1       153 1.71996E+02 4.96005E+01 4.93214E+03
 -1       154 8.05974E+01 1.69509E+01 5.20746E+03
 -1       155-2.15367E+01 8.61736E+00 5.26934E+03
 -1       156-1.22702E+02 2.42940E+01 5.11707E+03
 -1       157-2.12395E+02 6.38533E+01 4.75537E+03
 -1       158-2.85785E+02 1.24354E+02 4.22321E+03
 -1       159-3.15550E+02 2.05813E+02 3.58289E+03
 -1       160-2.97107E+02 1.92630E+02 2.93108E+03
 -1       161 1.87102E+02 8.22103E+01 3.75240E+03
 -1       162 1.94858E+02 3.21056E+01 4.63166E+03
 -1       163 6.48853E+01-2.20445E+01 5.21484E+03
 -1       164-1.00705E+02-1.54115E+01 5.13906E+03
 -1       165-2.26067E+02 4.78423E+01 4.41893E+03
 -1       166-2.12093E+02 1.02587E+02 3.42536E+03
 -1       167 1.45228E+02-3.21848E+01 3.91875E+03
 -1       168 1.65348E+02-2.87426E+01 4.25692E+03
 -1       169 1.58848E+02-5.32121E+01 4.62150E+03
 -1       170 1.18683E+02-7.23528E+01 4.92321E+03
 -1       171 5.64119E+01-8.21143E+01 5.11708E+03
 -1       172-1.55446E+01-8.35844E+01 5.15959E+03
 -1       173-8.69221E+01-7.69275E+01 5.05332E+03
 -1       174-1.47332E+02-6.21608E+01 4.79837E+03
 -1       175-1.85958E+02-3.90333E+01 4.43945E+03
 -1       176-1.91041E+02-1.21526E+01 4.02228E+03
 -1       177-1.69523E+02-1.42640E+01 3.63528E+03
 -1       178 1.29219E+02-1.43359E+02 3.77805E+03
 -1       179 1.44779E+02-1.47575E+02 4.41232E+03
 -1       180 5.35433E+01-1.51141E+02 4.87245E+03
 -1       181-7.93012E+01-1.46646E+02 4.81876E+03
 -1       182-1.68198E+02-1.34973E+02 4.25734E+03
 -1       183-1.51384E+02-1.26995E+02 3.53129E+03
 -1       184 1.36556E+02-2.52308E+02 3.34238E+03
 -1       185 1.56641E+02-2.56279E+02 3.66201E+03
 -1       186 1.51446E+02-2.39658E+02 4.00667E+03
 -1       187 1.14285E+02-2.26709E+02 4.29595E+03
 -1       188 5.64642E+01-2.19136E+02 4.48527E+03
 -1       189-1.08286E+01-2.15146E+02 4.53303E+03
 -1       190-7.79087E+01-2.15000E+02 4.44038E+03
 -1       191-1.35069E+02-2.18541E+02 4.20743E+03
 -1       192-1.71336E+02-2.27710E+02 3.87622E+03
 -1       193-1.75982E+02-2.41232E+02 3.49185E+03
 -1       194-1.55734E+02-2.37001E+02 3.13248E+03
 -1       195 1.68964E+02-3.58645E+02 2.61639E+03
 -1       196 1.78014E+02-3.20089E+02 3.41204E+03
 -1       197 6.51831E+01-2.75853E+02 3.95800E+03
 -1       198-8.25997E+01-2.71862E+02 3.92141E+03
 -1       199-1.94115E+02-3.08383E+02 3.30576E+03
 -1       200-1.84625E+02-3.42899E+02 2.44553E+03
 -1       201 2.35517E+02-4.40054E+02 1.63663E+03
 -1       202 2.50011E+02-4.45035E+02 2.15530E+03
 -1       203 2.22381E+02-3.84786E+02 2.66568E+03
 -1       204 1.57834E+02-3.40188E+02 3.07540E+03
 -1       205 8.03598E+01-3.11608E+02 3.33471E+03
 -1       206-6.93262E+00-3.00838E+02 3.41242E+03
 -1       207-9.39758E+01-3.07685E+02 3.30610E+03
 -1       208-1.70906E+02-3.32255E+02 3.01919E+03
 -1       209-2.34506E+02-3.72903E+02 2.58357E+03
 -1       210-2.61506E+02-4.29164E+02 2.04905E+03
 -1       211-2.47201E+02-4.23837E+02 1.50697E+03
 -1       212 3.80787E+02-5.77624E+02 3.30602E+02
 -1       213 2.83712E+02-4.11471E+02 1.82195E+03
 -1       214 9.93315E+01-3.16572E+02 2.66011E+03
 -1       215-1.09405E+02-3.12732E+02 2.63956E+03
 -1       216-2.91676E+02-3.99549E+02 1.76408E+03
 -1       217-3.86198E+02-5.59706E+02 2.47641E+02
 -1       218 5.37653E+02-6.56597E+02-1.17235E+03
 -1       219 4.31288E+02-5.39527E+02 3.71780E+00
 -1       220 2.75925E+02-3.97068E+02 9.70943E+02
 -1       221 1.97873E+02-3.30610E+02 1.61262E+03
 -1       222 9.66828E+01-2.97644E+02 2.01193E+03
 -1       223-4.92248E+00-2.85936E+02 2.13883E+03
 -1       224-1.06372E+02-2.93890E+02 1.99899E+03
 -1       225-2.06783E+02-3.23223E+02 1.58831E+03
 -1       226-2.84138E+02-3.85501E+02 9.37266E+02
 -1       227-4.33381E+02-5.22294E+02-3.26266E+01
 -1       228-5.33684E+02-6.38886E+02-1.20554E+03
 -1       229 7.26294E+02 4.86535E+02 1.33657E+03
 -1       230 2.03646E+02 8.51291E+01 3.93722E+03
 -1       231 7.04019E+01 4.43226E+00 5.10182E+03
 -1       232-1.01944E+02 1.41294E+01 4.97420E+03
 -1       233-2.36932E+02 1.05431E+02 3.57690E+03
 -1       234-5.93303E+02 6.76761E+02 8.07688E+02
 -1       235 1.91329E+02 1.09569E+02 3.30551E+03
 -1       236 1.50833E+02 5.53794E+01 4.49298E+03
 -1       237 5.81498E+01 1.14317E+01 5.21323E+03
 -1       238-8.60922E+01 1.71119E+01 5.12273E+03
 -1       239-1.79015E+02 6.45164E+01 4.24032E+03
 -1       240-2.08784E+02 1.20865E+02 2.93131E+03
 -1       241 1.06606E+02-1.86187E+01 3.91879E+03
 -1       242 1.08183E+02-3.31690E+01 4.62673E+03
 -1       243 3.83768E+01-5.52526E+01 5.12406E+03
 -1       244-5.91001E+01-5.18770E+01 5.06027E+03
 -1       245-1.26146E+02-2.27421E+01 4.44474E+03
 -1       246-1.20511E+02-4.37204E+00 3.63403E+03
 -1       247 9.78670E+01-1.73622E+02 3.34334E+03
 -1       248 1.02421E+02-1.64677E+02 4.01208E+03
 -1       249 3.83796E+01-1.48472E+02 4.49193E+03
 -1       250-5.28608E+01-1.45628E+02 4.44701E+03
 -1       251-1.16033E+02-1.56724E+02 3.88171E+03
 -1       252-1.10810E+02-1.63717E+02 3.13372E+03
 -1       253 1.66455E+02-2.91863E+02 1.63830E+03
 -1       254 1.37154E+02-2.48650E+02 2.67912E+03
 -1       255 5.70451E+01-2.11036E+02 3.33973E+03
 -1       256-6.61894E+01-2.08359E+02 3.31115E+03
 -1       257-1.45902E+02-2.40763E+02 2.59664E+03
 -1       258-1.73965E+02-2.80933E+02 1.50847E+03
 -1       259 5.54715E+02-6.05440E+02-1.20784E+03
 -1       260 1.79911E+02-2.75112E+02 9.71925E+02
 -1       261 6.89823E+01-2.06360E+02 2.01209E+03
 -1       262-7.54983E+01-2.03726E+02 1.99935E+03
 -1       263-1.85826E+02-2.67161E+02 9.38320E+02
 -1       264-5.42941E+02-5.91140E+02-1.23980E+03
 -1       265 0.00000E+00 0.00000E+00 0.00000E+00
 -1       266 0.00000E+00 0.00000E+00 0.00000E+00
 -1       267 0.00000E+00 0.00000E+00 0.00000E+00
 -1       268 0.00000E+00 0.00000E+00 0.00000E+00
 -1       269 0.00000E+00 0.00000E+00 0.00000E+00
 -1       270 0.00000E+00 0.00000E+00 0.00000E+00
 -1       271 0.00000E+00 0.00000E+00 0.00000E+00
 -1       272 0.00000E+00 0.00000E+00 0.00000E+00
 -1       273 0.00000E+00 0.00000E+00 0.00000E+00
 -1       274 0.00000E+00 0.00000E+00 0.00000E+00
 -1       275 0.00000E+00 0.00000E+00 0.00000E+00
 -1       276 0.00000E+00 0.00000E+00 0.00000E+00
 -1       277 0.00000E+00 0.00000E+00 0.00000E+00
 -1       278 0.00000E+00 0.00000E+00 0.00000E+00
 -1       279 0.00000E+00 0.00000E+00 0.00000E+00
 -1       280 2.43010E+02-2.04564E+03-6.66497E+03
 -1       281 2.00175E+02-1.27263E+03-4.07733E+03
 -1       282 7.95518E+01-8.08477E+02-2.51998E+03
 -1       283 8.11447E+01-5.38561E+02-1.67143E+03
 -1       284-7.10365E+01-5.15252E+02-1.62174E+03
 -1       285-1.15089E+02-8.25213E+02-2.61761E+03
 -1       286-2.02391E+02-1.33771E+03-4.29498E+03
 -1       287-2.33443E+02-2.11628E+03-6.93592E+03
 -1       288 9.13290E+02-3.56640E+03-2.35173E+04
 -1       289 7.76771E+02-2.85109E+03-1.86294E+04
 -1       290 6.08276E+02-2.26503E+03-1.45580E+04
 -1       291 4.51282E+02-1.82493E+03-1.15013E+04
 -1       292 2.95659E+02-1.50826E+03-9.38335E+03
 -1       293 2.63340E+02-1.26542E+03-7.74166E+03
 -1       294 2.44498E+02-1.03204E+03-6.22254E+03
 -1       295 1.93276E+01-9.01533E+02-5.50904E+03
 -1       296-2.15120E+02-9.66481E+02-5.93686E+03
 -1       297-3.07430E+02-1.20838E+03-7.52875E+03
 -1       298-3.93468E+02-1.50219E+03-9.52184E+03
 -1       299-4.87151E+02-1.88173E+03-1.20821E+04
 -1       300-6.32583E+02-2.34909E+03-1.53047E+04
 -1       301-8.04467E+02-2.98445E+03-1.95096E+04
 -1       302-9.00765E+02-3.68338E+03-2.44622E+04
 -1       303 1.65433E+03-2.43182E+03-4.18883E+04
 -1       304 9.46463E+02-1.71926E+03-2.63851E+04
 -1       305 4.52535E+02-1.59052E+03-1.83817E+04
 -1       306 4.15455E+02-1.43756E+03-1.34797E+04
 -1       307-4.31474E+02-1.18171E+03-1.21532E+04
 -1       308-5.51810E+02-1.30452E+03-1.78135E+04
 -1       309-1.08250E+03-1.70698E+03-2.73584E+04
 -1       310-1.64070E+03-2.51585E+03-4.33277E+04
 -1       311 1.75976E+03 1.79813E+03-7.50325E+04
 -1       312 1.84868E+03 5.22038E+02-6.39646E+04
 -1       313 2.01944E+03-6.54611E+02-5.21336E+04
 -1       314 1.52102E+03-8.83923E+02-4.18191E+04
 -1       315 9.18703E+02-9.71766E+02-3.46334E+04
 -1       316 6.00113E+02-1.37570E+03-3.04265E+04
 -1       317 4.06041E+02-1.65095E+03-2.78881E+04
 -1       318 4.32696E+02-1.70078E+03-2.53170E+04
 -1       319 4.86692E+02-1.69970E+03-2.26824E+04
 -1       320-3.66289E+02-1.37764E+03-1.96757E+04
 -1       321-4.10350E+02-1.18193E+03-2.18444E+04
 -1       322-5.18550E+02-8.99991E+02-2.43761E+04
 -1       323-9.39588E+02-8.10858E+02-2.85811E+04
 -1       324-1.26864E+03-8.92655E+02-3.50385E+04
 -1       325-1.61374E+03-8.43865E+02-4.33479E+04
 -1       326-2.03153E+03-6.83564E+02-5.38250E+04
 -1       327-1.91944E+03 5.15950E+02-6.60224E+04
 -1       328-1.82682E+03 1.86777E+03-7.75772E+04
 -1       329 4.56129E+02 1.88696E+03-6.36686E+04
 -1       330 1.64188E+03 6.29346E+02-5.16343E+04
 -1       331 1.46556E+03 9.90679E+02-3.38489E+04
 -1       332-3.77669E+02 1.37737E+02-2.63669E+04
 -1       333-1.30291E+03 6.79986E+02-3.58181E+04
 -1       334-1.68212E+03 6.97140E+02-5.33243E+04
 -1       335-5.18763E+02 1.97418E+03-6.58262E+04
 -1       336 0.00000E+00 0.00000E+00 0.00000E+00
 -1       337-2.02862E+03 2.30920E+02-6.65684E+03
 -1       338-3.52785E+03 8.85770E+02-2.34607E+04
 -1       339-2.41811E+03 1.60810E+03-4.15535E+04
 -1       340-6.76393E+02 1.99911E+03-5.16968E+04
 -1       341 6.27794E+02 1.69048E+03-5.13981E+04
 -1       342 1.68853E+03 1.77350E+03-4.43684E+04
 -1       343 1.81767E+03 2.07395E+03-3.44190E+04
 -1       344 2.13977E+03 2.68400E+03-2.24514E+04
 -1       345 2.11141E+02 8.25943E+02-2.36726E+04
 -1       346-3.45214E+02 1.53452E+03-2.36626E+04
 -1       347-1.26818E+03 2.39588E+03-2.71009E+04
 -1       348-1.58918E+03 2.04209E+03-3.62201E+04
 -1       349-1.73419E+03 1.81935E+03-4.57073E+04
 -1       350-6.02767E+02 1.79482E+03-5.27807E+04
 -1       351 6.71201E+02 2.18066E+03-5.31488E+04
 -1       352 2.47426E+03 1.79898E+03-4.27293E+04
 -1       353 3.62878E+03 9.99825E+02-2.40326E+04
 -1       354 2.08719E+03 2.72682E+02-6.81759E+03
 -1       355 0.00000E+00 0.00000E+00 0.00000E+00
 -1       356 0.00000E+00 0.00000E+00 0.00000E+00
 -1       357-2.84247E+03 7.92576E+02-1.85864E+04
 -1       358-8.10214E+02 1.60987E+03-4.13219E+04
 -1       359 1.93195E+03 1.62670E+03-3.46637E+04
 -1       360 2.14907E+03 2.01069E+03-8.71386E+03
 -1       361-1.67414E+03 2.35891E+03-1.19061E+04
 -1       362-1.99693E+03 1.95761E+03-3.49649E+04
 -1       363 9.03290E+02 1.73696E+03-4.17562E+04
 -1       364 2.83931E+03 8.89922E+02-1.85668E+04
 -1       365 0.00000E+00 0.00000E+00 0.00000E+00
 -1       366 0.00000E+00 0.00000E+00 0.00000E+00
 -1       367-1.26096E+03 2.00380E+02-4.05270E+03
 -1       368-2.21405E+03 6.28241E+02-1.44323E+04
 -1       369-1.60330E+03 1.08106E+03-2.57774E+04
 -1       370-8.30367E+02 1.28339E+03-3.29713E+04
 -1       371 6.56589E+02 1.34232E+03-3.36317E+04
 -1       372 2.27791E+03 1.32452E+03-2.52847E+04
 -1       373 2.25387E+03 1.67797E+03-1.08819E+04
 -1       374 8.15684E+02 5.86322E+02 1.30811E+03
 -1       375 2.37724E+02 1.24845E+02 2.82978E+03
 -1       376 8.51599E+01 4.65837E+01 3.93250E+03
 -1       377 5.65923E+01-1.05211E+01 4.68564E+03
 -1       378 4.89954E+01 1.30336E+01 5.10036E+03
 -1       379-7.45486E+00 3.89058E+00 5.20386E+03
 -1       380-6.27541E+01 2.27896E+01 4.97402E+03
 -1       381-7.87095E+01-9.48723E+00 4.43573E+03
 -1       382-1.07204E+02 5.88427E+01 3.57388E+03
 -1       383-2.17725E+02 1.43875E+02 2.35311E+03
 -1       384-6.27594E+02 8.15781E+02 7.78641E+02
 -1       385-1.93882E+03 2.22816E+03-9.05860E+03
 -1       386-2.53851E+03 2.29817E+03-2.21106E+04
 -1       387-8.94150E+02 1.70054E+03-3.27677E+04
 -1       388 9.84515E+02 1.20011E+03-3.31274E+04
 -1       389 1.65323E+03 1.18200E+03-2.50693E+04
 -1       390 2.14950E+03 7.58983E+02-1.37692E+04
 -1       391 1.20661E+03 2.40182E+02-3.82999E+03
 -1       392 0.00000E+00 0.00000E+00 0.00000E+00
 -1       393 0.00000E+00 0.00000E+00 0.00000E+00
 -1       394-1.74691E+03 4.86291E+02-1.12220E+04
 -1       395-7.27734E+02 9.64826E+02-2.63946E+04
 -1       396 1.48400E+03 4.38774E+02-2.13379E+04
 -1       397 1.85554E+02 1.55365E+02 2.48555E+03
 -1       398 1.51410E+02 8.15077E+01 4.19877E+03
 -1       399 2.92913E+01 6.64881E+00 5.15111E+03
 -1       400-4.79842E+01 8.05892E+00 5.04319E+03
 -1       401-1.54001E+02 1.04192E+02 3.89514E+03
 -1       402-1.90733E+02 2.01740E+02 2.06844E+03
 -1       403 1.38975E+03 9.52567E+02-2.70947E+04
 -1       404 1.54303E+03 6.54235E+02-9.66335E+03
 -1       405 0.00000E+00 0.00000E+00 0.00000E+00
 -1       406 0.00000E+00 0.00000E+00 0.00000E+00
 -1       407-7.50880E+02 1.15799E+02-2.38257E+03
 -1       408-1.36513E+03 3.93425E+02-8.65976E+03
 -1       409-1.17164E+03 5.66490E+02-1.61594E+04
 -1       410-7.87137E+02 5.57287E+02-2.19968E+04
 -1       411 1.80679E+02 4.47843E+02-2.35383E+04
 -1       412 8.21056E+02-9.57466E+01-2.07186E+04
 -1       413 1.03406E+02 4.01727E+01 3.30233E+03
 -1       414 1.46464E+02 8.92869E+01 3.88596E+03
 -1       415 5.44790E+01 9.77100E+00 4.50815E+03
 -1       416 5.23118E+01 1.38208E+01 4.94570E+03
 -1       417 3.45933E+01 5.91407E+00 5.21634E+03
 -1       418-7.02837E+00 6.36274E+00 5.27611E+03
 -1       419-4.84243E+01 9.82801E+00 5.12576E+03
 -1       420-6.94096E+01 1.71203E+01 4.76982E+03
 -1       421-7.50191E+01 7.99471E+00 4.25565E+03
 -1       422-1.44821E+02 1.10984E+02 3.56866E+03
 -1       423-1.10822E+02 4.07056E+01 2.92623E+03
 -1       424 1.64206E+03 8.18419E+02-2.21365E+04
 -1       425 1.37546E+03 9.00146E+02-1.31406E+04
 -1       426 1.03139E+03 5.50962E+02-6.11269E+03
 -1       427 5.26447E+02 1.64163E+02-1.62889E+03
 -1       428 0.00000E+00 0.00000E+00 0.00000E+00
 -1       429 0.00000E+00 0.00000E+00 0.00000E+00
 -1       430-1.06878E+03 3.14587E+02-6.64823E+03
 -1       431-1.03534E+03 4.39959E+02-1.92637E+04
 -1       432 3.90863E+01 1.24983E+01 3.76688E+03
 -1       433 6.39419E+01 4.98657E+00 4.64562E+03
 -1       434 2.23401E+01-8.52495E+00 5.22601E+03
 -1       435-3.48332E+01-5.77742E+00 5.15035E+03
 -1       436-7.67731E+01 7.67650E+00 4.43204E+03
 -1       437-5.37031E+01 1.35650E+01 3.44225E+03
 -1       438 5.83599E+02 3.13037E+02-3.57487E+03
 -1       439 0.00000E+00 0.00000E+00 0.00000E+00
 -1       440 0.00000E+00 0.00000E+00 0.00000E+00
 -1       441-4.33390E+02 7.35841E+01-1.35982E+03
 -1       442-8.21992E+02 2.32257E+02-5.00454E+03
 -1       443-1.02651E+03 4.42218E+02-1.03598E+04
 -1       444-1.21345E+03 3.87139E+02-1.69466E+04
 -1       445 7.05702E+01-7.39078E-01 3.91811E+03
 -1       446 5.61908E+01-1.49727E+01 4.26798E+03
 -1       447 5.74477E+01-1.42214E+01 4.62943E+03
 -1       448 4.16626E+01-2.64240E+01 4.93421E+03
 -1       449 2.07558E+01-2.81662E+01 5.12837E+03
 -1       450-5.58288E+00-2.97739E+01 5.17097E+03
 -1       451-3.17045E+01-2.65778E+01 5.06456E+03
 -1       452-5.15590E+01-2.25596E+01 4.80929E+03
 -1       453-6.63266E+01-7.66185E+00 4.44747E+03
 -1       454-6.61021E+01-1.06932E+01 4.03337E+03
 -1       455-7.40591E+01 1.01319E+01 3.63208E+03
 -1       456 3.22726E+02 7.08829E+01-2.15925E+03
 -1       457 1.92225E+02 2.08597E+01-6.77263E+02
 -1       458 0.00000E+00 0.00000E+00 0.00000E+00
 -1       459 0.00000E+00 0.00000E+00 0.00000E+00
 -1       460-7.05028E+02 3.42358E+01-4.31597E+03
 -1       461 5.26001E+01-5.04441E+01 3.78150E+03
 -1       462 5.44118E+01-5.18813E+01 4.41880E+03
 -1       463 1.87179E+01-5.34383E+01 4.88350E+03
 -1       464-2.79447E+01-5.19459E+01 4.82977E+03
 -1       465-6.21026E+01-4.67105E+01 4.26386E+03
 -1       466-5.95690E+01-4.32853E+01 3.53450E+03
 -1       467 3.97212E+02-9.98598E+01-2.47426E+03
 -1       468 0.00000E+00 0.00000E+00 0.00000E+00
 -1       469 0.00000E+00 0.00000E+00 0.00000E+00
 -1       470-3.97364E+02-5.20508E+01-1.25103E+03
 -1       471-7.47621E+02-1.59329E+02-4.58381E+03
 -1       472-9.21614E+02-3.10667E+02-9.42745E+03
 -1       473-1.07373E+03-2.63046E+02-1.52875E+04
 -1       474 6.08147E+01-9.86474E+01 3.34322E+03
 -1       475 5.48117E+01-8.66123E+01 3.67153E+03
 -1       476 5.35934E+01-8.90174E+01 4.01517E+03
 -1       477 3.99895E+01-7.96214E+01 4.30631E+03
 -1       478 2.05834E+01-7.82758E+01 4.49605E+03
 -1       479-3.80190E+00-7.60326E+01 4.54372E+03
 -1       480-2.80999E+01-7.67190E+01 4.45111E+03
 -1       481-4.75193E+01-7.68175E+01 4.21782E+03
 -1       482-6.09218E+01-8.50765E+01 3.88489E+03
 -1       483-6.12256E+01-8.08628E+01 3.50100E+03
 -1       484-6.74410E+01-9.40624E+01 3.13385E+03
 -1       485 9.75083E+02-3.51379E+02-1.28527E+04
 -1       486 8.02443E+02-3.87477E+02-7.62804E+03
 -1       487 5.97465E+02-2.41378E+02-3.52371E+03
 -1       488 3.04108E+02-7.17424E+01-9.31770E+02
 -1       489 0.00000E+00 0.00000E+00 0.00000E+00
 -1       490 0.00000E+00 0.00000E+00 0.00000E+00
 -1       491-9.19537E+02-2.15488E+02-5.72237E+03
 -1       492-9.30636E+02-2.77777E+02-1.67996E+04
 -1       493 3.97059E+01-1.13750E+02 2.62904E+03
 -1       494 5.92142E+01-1.08432E+02 3.42407E+03
 -1       495 2.25964E+01-9.73179E+01 3.96813E+03
 -1       496-2.87430E+01-9.58851E+01 3.93151E+03
 -1       497-6.52131E+01-1.04503E+02 3.31762E+03
 -1       498-4.63749E+01-1.08793E+02 2.45822E+03
 -1       499 8.41487E+02-3.57227E+02-1.48492E+04
 -1       500 8.04417E+02-2.58711E+02-4.97464E+03
 -1       501 0.00000E+00 0.00000E+00 0.00000E+00
 -1       502 0.00000E+00 0.00000E+00 0.00000E+00
 -1       503-6.15261E+02-7.84947E+01-1.94432E+03
 -1       504-1.12105E+03-2.67535E+02-7.09889E+03
 -1       505-9.96664E+02-3.67252E+02-1.33483E+04
 -1       506-7.23215E+02-3.30591E+02-1.84522E+04
 -1       507 1.16451E+01-2.02418E+02-2.03880E+04
 -1       508 5.03715E+02 2.24585E+02-1.89812E+04
 -1       509 9.00338E+01-1.39017E+02 1.63608E+03
 -1       510 1.20324E+02-1.78860E+02 2.14699E+03
 -1       511 5.43141E+01-1.14812E+02 2.69094E+03
 -1       512 4.99159E+01-1.17559E+02 3.08682E+03
 -1       513 3.29529E+01-1.10665E+02 3.34250E+03
 -1       514-2.38805E+00-1.08721E+02 3.41870E+03
 -1       515-3.76727E+01-1.09249E+02 3.31398E+03
 -1       516-5.48256E+01-1.14734E+02 3.03049E+03
 -1       517-5.96208E+01-1.10902E+02 2.60810E+03
 -1       518-1.22997E+02-1.73056E+02 2.04113E+03
 -1       519-9.36574E+01-1.33403E+02 1.50620E+03
 -1       520-4.77254E+02 1.31958E+02-1.73173E+04
 -1       521-1.96699E+01-2.75958E+02-1.86731E+04
 -1       522 6.64510E+02-3.91815E+02-1.69165E+04
 -1       523 9.12299E+02-4.08476E+02-1.22426E+04
 -1       524 1.02717E+03-2.82973E+02-6.51694E+03
 -1       525 5.66080E+02-8.54125E+01-1.78038E+03
 -1       526 0.00000E+00 0.00000E+00 0.00000E+00
 -1       527 0.00000E+00 0.00000E+00 0.00000E+00
 -1       528-1.37469E+03-3.24481E+02-8.81701E+03
 -1       529-6.42143E+02-6.05329E+02-2.11505E+04
 -1       530 1.00393E+03-1.63786E+02-1.85181E+04
 -1       531 1.52894E+02-2.35808E+02 3.52098E+02
 -1       532 1.25832E+02-1.73122E+02 1.81257E+03
 -1       533 3.04811E+01-1.11014E+02 2.66939E+03
 -1       534-3.42074E+01-1.09718E+02 2.64869E+03
 -1       535-1.27425E+02-1.68397E+02 1.75523E+03
 -1       536-1.54033E+02-2.29080E+02 2.68917E+02
 -1       537-9.57449E+02-2.32027E+02-1.73366E+04
 -1       538 6.00709E+02-6.42951E+02-1.99075E+04
 -1       539 1.29573E+03-3.34929E+02-8.31864E+03
 -1       540 0.00000E+00 0.00000E+00 0.00000E+00
 -1       541 0.00000E+00 0.00000E+00 0.00000E+00
 -1       542-9.57589E+02-1.35074E+02-3.07079E+03
 -1       543-1.68264E+03-4.20089E+02-1.09555E+04
 -1       544-1.24297E+03-7.10395E+02-1.96421E+04
 -1       545-6.83456E+02-8.13689E+02-2.53146E+04
 -1       546 4.20085E+02-8.36110E+02-2.61969E+04
 -1       547 1.61707E+03-8.11400E+02-2.04753E+04
 -1       548 1.59598E+03-1.15907E+03-1.00775E+04
 -1       549 5.99340E+02-5.81098E+02-1.23246E+03
 -1       550 1.90847E+02-2.07593E+02 3.03255E+01
 -1       551 7.85406E+01-1.45972E+02 9.69035E+02
 -1       552 5.46087E+01-9.97525E+01 1.62576E+03
 -1       553 4.48670E+01-1.16888E+02 2.01138E+03
 -1       554-1.66065E+00-1.06401E+02 2.14192E+03
 -1       555-4.80282E+01-1.15289E+02 1.99881E+03
 -1       556-5.86252E+01-9.74492E+01 1.60112E+03
 -1       557-8.23518E+01-1.41865E+02 9.35615E+02
 -1       558-1.89651E+02-2.01049E+02-7.41621E+00
 -1       559-5.78781E+02-5.69424E+02-1.26355E+03
 -1       560-1.52345E+03-1.15089E+03-9.72301E+03
 -1       561-1.54078E+03-8.38874E+02-1.96201E+04
 -1       562-4.00756E+02-8.62871E+02-2.50790E+04
 -1       563 6.51546E+02-8.33075E+02-2.42364E+04
 -1       564 1.18901E+03-7.19923E+02-1.88164E+04
 -1       565 1.61167E+03-4.24108E+02-1.05003E+04
 -1       566 9.17208E+02-1.35443E+02-2.94529E+03
 -1       567 0.00000E+00 0.00000E+00 0.00000E+00
 -1       568 0.00000E+00 0.00000E+00 0.00000E+00
 -1       569-2.10714E+03-5.36522E+02-1.37570E+04
 -1       570-6.19010E+02-1.06232E+03-3.07182E+04
 -1       571 1.36110E+03-9.74466E+02-2.62443E+04
 -1       572 1.30797E+03-1.39081E+03-9.10790E+03
 -1       573-1.26126E+03-1.36872E+03-8.99843E+03
 -1       574-1.30299E+03-9.80176E+02-2.54631E+04
 -1       575 5.99048E+02-1.06653E+03-2.97097E+04
 -1       576 2.03758E+03-5.35703E+02-1.33070E+04
 -1       577 0.00000E+00 0.00000E+00 0.00000E+00
 -1       578 0.00000E+00 0.00000E+00 0.00000E+00
 -1       579-1.47727E+03-1.54949E+02-4.82889E+03
 -1       580-2.57722E+03-6.04131E+02-1.70678E+04
 -1       581-1.76559E+03-1.09915E+03-3.02795E+04
 -1       582-4.86452E+02-1.34609E+03-3.76507E+04
 -1       583 4.70668E+02-1.08784E+03-3.73684E+04
 -1       584 1.25231E+03-1.09265E+03-3.21750E+04
 -1       585 1.17479E+03-1.18716E+03-2.52011E+04
 -1       586 1.11245E+03-1.40062E+03-1.79899E+04
 -1       587 5.80139E+02-8.97396E+02-1.38102E+04
 -1       588 2.61657E+02-4.68607E+02-1.16117E+04
 -1       589-2.37214E+02-4.51365E+02-1.17442E+04
 -1       590-5.47285E+02-8.75174E+02-1.37804E+04
 -1       591-1.06626E+03-1.37592E+03-1.77425E+04
 -1       592-1.13110E+03-1.17092E+03-2.46749E+04
 -1       593-1.20507E+03-1.08405E+03-3.13846E+04
 -1       594-4.49240E+02-1.08392E+03-3.63749E+04
 -1       595 4.75283E+02-1.33372E+03-3.66171E+04
 -1       596 1.71600E+03-1.08879E+03-2.94445E+04
 -1       597 2.50430E+03-6.00797E+02-1.66060E+04
 -1       598 1.43680E+03-1.54950E+02-4.70063E+03
 -1       599 0.00000E+00 0.00000E+00 0.00000E+00
 -1       600 3.46022E+02-1.24639E+03-4.56876E+04
 -1       601 1.24037E+03-3.71661E+02-3.66141E+04
 -1       602 1.11448E+03-3.69157E+02-2.30178E+04
 -1       603 6.02845E+02-1.10864E+02-1.32181E+04
 -1       604-5.75351E+02-9.79291E+01-1.32623E+04
 -1       605-1.07345E+03-3.60771E+02-2.26715E+04
 -1       606-1.19967E+03-3.73606E+02-3.58017E+04
 -1       607-3.32916E+02-1.23172E+03-4.45646E+04
 -1       608 1.27674E+03-1.18479E+03-5.31582E+04
 -1       609 1.33835E+03-2.76299E+02-4.51682E+04
 -1       610 1.46240E+03 5.03426E+02-3.65417E+04
 -1       611 1.23325E+03 5.96813E+02-2.87812E+04
 -1       612 1.02279E+03 5.98044E+02-2.22578E+04
 -1       613 8.60735E+02 4.63218E+02-1.67389E+04
 -1       614 6.45616E+02 4.23191E+02-1.23946E+04
 -1       615-6.21365E+02 4.29611E+02-1.23811E+04
 -1       616-8.32060E+02 4.63497E+02-1.65720E+04
 -1       617-9.90430E+02 5.90417E+02-2.19116E+04
 -1       618-1.19634E+03 5.83989E+02-2.82328E+04
 -1       619-1.42276E+03 4.88284E+02-3.57718E+04
 -1       620-1.30175E+03-2.79756E+02-4.41690E+04
 -1       621-1.23986E+03-1.16983E+03-5.19368E+04
 -1       622 1.18472E+03 1.71553E+03-2.92851E+04
 -1       623 8.53374E+02 1.07923E+03-1.73073E+04
 -1       624 5.78711E+02 7.07152E+02-8.98104E+03
 -1       625-5.61834E+02 7.07305E+02-8.94631E+03
 -1       626-8.28797E+02 1.06276E+03-1.70321E+04
 -1       627-1.15397E+03 1.67895E+03-2.86823E+04
 -1       628 6.55950E+02 2.47750E+03-1.65194E+04
 -1       629 5.96897E+02 1.96797E+03-1.28854E+04
 -1       630 5.00050E+02 1.48633E+03-9.70529E+03
 -1       631 4.34448E+02 1.09853E+03-6.98484E+03
 -1       632 3.98426E+02 7.54063E+02-4.54443E+03
 -1       633 2.71717E+02 4.07426E+02-2.51294E+03
 -1       634 1.34386E+02 1.72039E+02-1.13940E+03
 -1       635-4.09364E-01 1.27912E+02-8.43802E+02
 -1       636-1.35111E+02 1.72921E+02-1.14490E+03
 -1       637-2.68945E+02 4.07021E+02-2.51155E+03
 -1       638-3.90764E+02 7.50103E+02-4.51779E+03
 -1       639-4.23568E+02 1.08550E+03-6.90165E+03
 -1       640-4.86110E+02 1.46247E+03-9.54933E+03
 -1       641-5.80943E+02 1.93108E+03-1.26432E+04
 -1       642-6.38341E+02 2.42741E+03-1.61799E+04
 -1       643 1.74070E+02 1.42693E+03-4.69387E+03
 -1       644 1.57616E+02 8.48846E+02-2.71957E+03
 -1       645 1.25086E+02 3.93100E+02-1.22035E+03
 -1       646 3.61805E+01 1.00032E+02-3.62918E+02
 -1       647-3.63570E+01 1.00583E+02-3.63735E+02
 -1       648-1.22871E+02 3.90890E+02-1.21191E+03
 -1       649-1.53291E+02 8.35337E+02-2.67554E+03
 -1       650-1.69102E+02 1.39774E+03-4.59639E+03
 -1       651 0.00000E+00 0.00000E+00 0.00000E+00
 -1       652 0.00000E+00 0.00000E+00 0.00000E+00
 -1       653 0.00000E+00 0.00000E+00 0.00000E+00
 -1       654 0.00000E+00 0.00000E+00 0.00000E+00
 -1       655 0.00000E+00 0.00000E+00 0.00000E+00
 -1       656 0.00000E+00 0.00000E+00 0.00000E+00
 -1       657 0.00000E+00 0.00000E+00 0.00000E+00
 -1       658 0.00000E+00 0.00000E+00 0.00000E+00
 -1       659 0.00000E+00 0.00000E+00 0.00000E+00
 -1       660 0.00000E+00 0.00000E+00 0.00000E+00
 -1       661 0.00000E+00 0.00000E+00 0.00000E+00
 -1       662 0.00000E+00 0.00000E+00 0.00000E+00
 -1       663 0.00000E+00 0.00000E+00 0.00000E+00
 -1       664 0.00000E+00 0.00000E+00 0.00000E+00
 -1       665 0.00000E+00 0.00000E+00 0.00000E+00
 -1       666 0.00000E+00 0.00000E+00 0.00000E+00
 -1       667 0.00000E+00 0.00000E+00 0.00000E+00
 -1       668 0.00000E+00 0.00000E+00 0.00000E+00
 -1       669 0.00000E+00 0.00000E+00 0.00000E+00
 -1       670 0.00000E+00 0.00000E+00 0.00000E+00
 -1       671 0.00000E+00 0.00000E+00 0.00000E+00
 -1       672 0.00000E+00 0.00000E+00 0.00000E+00
 -1       673 0.00000E+00 0.00000E+00 0.00000E+00
 -1       674-1.11072E-10-3.43470E-10-2.34854E+04
 -1       675-9.61490E-11-2.14753E-10-1.45251E+04
 -1       676-8.47990E-11-5.51779E-11-9.36002E+03
 -1       677-4.81133E-11 2.37689E-11-6.19708E+03
 -1       678-4.29541E-11-4.20478E-11-5.91317E+03
 -1       679-5.67262E-11-2.42888E-11-9.50227E+03
 -1       680-7.25950E-11-1.76893E-11-1.52747E+04
 -1       681-7.09294E-11 1.09357E-11-2.44308E+04
 -1       682-2.71027E-10-1.02462E-09-7.50296E+04
 -1       683-3.70364E-10-6.39683E-10-5.21946E+04
 -1       684-3.51387E-10-3.51637E-10-3.46735E+04
 -1       685-2.77877E-10-1.01549E-10-2.78879E+04
 -1       686-1.93827E-10 3.51139E-11-2.26849E+04
 -1       687-2.13800E-10-1.13428E-10-1.96770E+04
 -1       688-1.48405E-10 8.14740E-12-2.43941E+04
 -1       689-1.76874E-10 1.87770E-11-3.50826E+04
 -1       690-1.81154E-10 8.84644E-11-5.38886E+04
 -1       691-1.65124E-10 3.18159E-10-7.75746E+04
 -1       692 0.00000E+00 0.00000E+00 0.00000E+00
 -1       693-3.79542E-10-2.35237E-10-2.34304E+04
 -1       694-6.54017E-10-6.26207E-10-5.17575E+04
 -1       695-6.59654E-10-7.15106E-10-4.44028E+04
 -1       696-6.66913E-10-7.15319E-10-2.24823E+04
 -1       697-1.11565E-10 2.11936E-11-2.36821E+04
 -1       698-1.75960E-10-2.68543E-11-2.71210E+04
 -1       699-2.25124E-10 1.23621E-10-4.57424E+04
 -1       700-3.26750E-10 2.05117E-10-5.32115E+04
 -1       701-1.29738E-10 7.80486E-11-2.39998E+04
 -1       702 0.00000E+00 0.00000E+00 0.00000E+00
 -1       703 0.00000E+00 0.00000E+00 0.00000E+00
 -1       704-1.93139E-10-1.64024E-10-1.44040E+04
 -1       705-3.68632E-10-4.10221E-10-3.30131E+04
 -1       706-4.82477E-10-7.92729E-10-2.53033E+04
 -1       707-9.64359E-10-1.41053E-09 1.38383E+03
 -1       708-1.13153E-09-1.57782E-09 3.91663E+03
 -1       709-1.08490E-09-1.56381E-09 5.10488E+03
 -1       710-1.07124E-09-1.48208E-09 4.97868E+03
 -1       711-1.02897E-09-1.36695E-09 3.55717E+03
 -1       712-8.93985E-10-9.46262E-10 8.54653E+02
 -1       713-4.10493E-10 1.05114E-10-2.21423E+04
 -1       714-2.01484E-10 1.06524E-10-3.31672E+04
 -1       715-5.39817E-11 2.77850E-12-1.37405E+04
 -1       716 0.00000E+00 0.00000E+00 0.00000E+00
 -1       717 0.00000E+00 0.00000E+00 0.00000E+00
 -1       718-4.25988E-11-9.53316E-11-8.64196E+03
 -1       719-2.42942E-11-3.12518E-10-2.20131E+04
 -1       720 4.20071E-11-8.42987E-10-2.07271E+04
 -1       721-1.14483E-09-1.63421E-09 3.28564E+03
 -1       722-1.16702E-09-1.60420E-09 4.51371E+03
 -1       723-1.17660E-09-1.56420E-09 5.21698E+03
 -1       724-1.16580E-09-1.48665E-09 5.12642E+03
 -1       725-1.17649E-09-1.37641E-09 4.26120E+03
 -1       726-1.17104E-09-1.23653E-09 2.91032E+03
 -1       727 9.37138E-12 4.14981E-11-2.21250E+04
 -1       728-4.74601E-12-1.21341E-11-6.08809E+03
 -1       729 0.00000E+00 0.00000E+00 0.00000E+00
 -1       730 0.00000E+00 0.00000E+00 0.00000E+00
 -1       731 4.20399E-11-6.50814E-11-4.98408E+03
 -1       732 1.34193E-10-3.32138E-10-1.69467E+04
 -1       733-1.22157E-09-1.65925E-09 3.92313E+03
 -1       734-1.25542E-09-1.59760E-09 4.62991E+03
 -1       735-1.24797E-09-1.55068E-09 5.13016E+03
 -1       736-1.25319E-09-1.48874E-09 5.06635E+03
 -1       737-1.26586E-09-1.38274E-09 4.44792E+03
 -1       738-1.26495E-09-1.26479E-09 3.63703E+03
 -1       739 1.05326E-11-3.35032E-11-2.14531E+03
 -1       740 0.00000E+00 0.00000E+00 0.00000E+00
 -1       741 0.00000E+00 0.00000E+00 0.00000E+00
 -1       742-4.03030E-11-5.47310E-11-4.56555E+03
 -1       743-1.23554E-10-1.91065E-10-1.52890E+04
 -1       744-1.33078E-09-1.65510E-09 3.34593E+03
 -1       745-1.33521E-09-1.59961E-09 4.01611E+03
 -1       746-1.33695E-09-1.56250E-09 4.49765E+03
 -1       747-1.32155E-09-1.46442E-09 4.45271E+03
 -1       748-1.33499E-09-1.37415E-09 3.88585E+03
 -1       749-1.32592E-09-1.28066E-09 3.13648E+03
 -1       750 1.40192E-10-4.70845E-10-1.28517E+04
 -1       751 9.15691E-11-1.33622E-10-3.51026E+03
 -1       752 0.00000E+00 0.00000E+00 0.00000E+00
 -1       753 0.00000E+00 0.00000E+00 0.00000E+00
 -1       754-1.92431E-11-7.20986E-11-7.08435E+03
 -1       755-5.46441E-11-1.75595E-10-1.84659E+04
 -1       756-1.88971E-10-3.37657E-10-1.89871E+04
 -1       757-1.39579E-09-1.60304E-09 1.62604E+03
 -1       758-1.37135E-09-1.62772E-09 2.69464E+03
 -1       759-1.38024E-09-1.56335E-09 3.34326E+03
 -1       760-1.39110E-09-1.47498E-09 3.31477E+03
 -1       761-1.39645E-09-1.38004E-09 2.61170E+03
 -1       762-1.38311E-09-1.28626E-09 1.49655E+03
 -1       763-1.14972E-11-1.11972E-09-1.73228E+04
 -1       764-4.90354E-11-5.75962E-10-1.69296E+04
 -1       765-3.03122E-11-2.10398E-10-6.50346E+03
 -1       766 0.00000E+00 0.00000E+00 0.00000E+00
 -1       767 0.00000E+00 0.00000E+00 0.00000E+00
 -1       768-1.95845E-11-6.44672E-11-1.09341E+04
 -1       769-4.76110E-11-1.40012E-10-2.53452E+04
 -1       770-1.79859E-10-2.71893E-10-2.04911E+04
 -1       771-1.12866E-09-1.39430E-09-1.18342E+03
 -1       772-1.39021E-09-1.59850E-09 9.59137E+02
 -1       773-1.43353E-09-1.55978E-09 2.01450E+03
 -1       774-1.46267E-09-1.47713E-09 2.00180E+03
 -1       775-1.47819E-09-1.37703E-09 9.26059E+02
 -1       776-1.34762E-09-1.12265E-09-1.21618E+03
 -1       777-7.53391E-10-1.04865E-09-1.96356E+04
 -1       778-4.54943E-10-6.98650E-10-2.42659E+04
 -1       779-2.07762E-10-2.59807E-10-1.04800E+04
 -1       780 0.00000E+00 0.00000E+00 0.00000E+00
 -1       781 0.00000E+00 0.00000E+00 0.00000E+00
 -1       782 4.14185E-11-7.01793E-11-1.70454E+04
 -1       783 9.34116E-11-9.28547E-11-3.76959E+04
 -1       784 1.67628E-10-3.23150E-10-3.21959E+04
 -1       785 2.59655E-10-4.83499E-10-1.80055E+04
 -1       786 3.52637E-10-1.50495E-10-1.16140E+04
 -1       787-8.22485E-10 2.47457E-10-1.17465E+04
 -1       788-8.51794E-10-4.92470E-10-1.77579E+04
 -1       789-8.24008E-10-9.46818E-10-3.14052E+04
 -1       790-8.29392E-10-1.04374E-09-3.66612E+04
 -1       791-5.18822E-10-3.79963E-10-1.65842E+04
 -1       792 0.00000E+00 0.00000E+00 0.00000E+00
 -1       793 4.31267E-10-2.00562E-11-5.31569E+04
 -1       794 3.00158E-10-3.00770E-10-3.65854E+04
 -1       795 1.87474E-10-2.77385E-10-2.22850E+04
 -1       796 1.38062E-10-1.38829E-10-1.24061E+04
 -1       797-3.12561E-10 1.70343E-10-1.23925E+04
 -1       798-3.59273E-10-2.44437E-10-2.19384E+04
 -1       799-3.55831E-10-7.22422E-10-3.58147E+04
 -1       800-5.13946E-10-1.35312E-09-5.19356E+04
 -1       801 1.06466E-10-2.31171E-10-1.64971E+04
 -1       802 7.54424E-11-1.27658E-10-9.68838E+03
 -1       803 2.72139E-11-6.12354E-11-4.52943E+03
 -1       804 3.76218E-12 7.51694E-13-1.13147E+03
 -1       805-2.38631E-12 2.51625E-12-1.13702E+03
 -1       806-2.38568E-11 1.81771E-11-4.50294E+03
 -1       807-4.18626E-11-1.37232E-10-9.53272E+03
 -1       808-1.30482E-10-3.43546E-10-1.61580E+04
 -1       809 0.00000E+00 0.00000E+00 0.00000E+00
 -1       810 0.00000E+00 0.00000E+00 0.00000E+00
 -1       811 0.00000E+00 0.00000E+00 0.00000E+00
 -1       812 0.00000E+00 0.00000E+00 0.00000E+00
 -1       813 0.00000E+00 0.00000E+00 0.00000E+00
 -1       814 0.00000E+00 0.00000E+00 0.00000E+00
 -1       815 0.00000E+00 0.00000E+00 0.00000E+00
 -1       816 0.00000E+00 0.00000E+00 0.00000E+00
 -1       817 0.00000E+00 0.00000E+00 0.00000E+00
 -1       818 0.00000E+00 0.00000E+00 0.00000E+00
 -1       819 0.00000E+00 0.00000E+00 0.00000E+00
 -1       820 0.00000E+00 0.00000E+00 0.00000E+00
 -1       821 0.00000E+00 0.00000E+00 0.00000E+00
 -1       822 0.00000E+00 0.00000E+00 0.00000E+00
 -1       823 0.00000E+00 0.00000E+00 0.00000E+00
 -1       824 0.00000E+00 0.00000E+00 0.00000E+00
 -1       825 0.00000E+00 0.00000E+00 0.00000E+00
 -1       826 0.00000E+00 0.00000E+00 0.00000E+00
 -1       827 0.00000E+00 0.00000E+00 0.00000E+00
 -1       828 0.00000E+00 0.00000E+00 0.00000E+00
 -1       829 0.00000E+00 0.00000E+00 0.00000E+00
 -1       830 0.00000E+00 0.00000E+00 0.00000E+00
 -1       831 0.00000E+00 0.00000E+00 0.00000E+00
 -1       832-2.43010E+02 2.04564E+03-6.66497E+03
 -1       833-2.00175E+02 1.27263E+03-4.07733E+03
 -1       834-7.95518E+01 8.08477E+02-2.51998E+03
 -1       835-8.11447E+01 5.38561E+02-1.67143E+03
 -1       836 7.10365E+01 5.15252E+02-1.62174E+03
 -1       837 1.15089E+02 8.25213E+02-2.61761E+03
 -1       838 2.02391E+02 1.33771E+03-4.29498E+03
 -1       839 2.33443E+02 2.11628E+03-6.93592E+03
 -1       840-9.13290E+02 3.56640E+03-2.35173E+04
 -1       841-7.76771E+02 2.85109E+03-1.86294E+04
 -1       842-6.08276E+02 2.26503E+03-1.45580E+04
 -1       843-4.51282E+02 1.82493E+03-1.15013E+04
 -1       844-2.95659E+02 1.50826E+03-9.38335E+03
 -1       845-2.63340E+02 1.26542E+03-7.74166E+03
 -1       846-2.44498E+02 1.03204E+03-6.22254E+03
 -1       847-1.93276E+01 9.01533E+02-5.50904E+03
 -1       848 2.15120E+02 9.66481E+02-5.93686E+03
 -1       849 3.07430E+02 1.20838E+03-7.52875E+03
 -1       850 3.93468E+02 1.50219E+03-9.52184E+03
 -1       851 4.87151E+02 1.88173E+03-1.20821E+04
 -1       852 6.32583E+02 2.34909E+03-1.53047E+04
 -1       853 8.04467E+02 2.98445E+03-1.95096E+04
 -1       854 9.00765E+02 3.68338E+03-2.44622E+04
 -1       855-1.65433E+03 2.43182E+03-4.18883E+04
 -1       856-9.46463E+02 1.71926E+03-2.63851E+04
 -1       857-4.52535E+02 1.59052E+03-1.83817E+04
 -1       858-4.15455E+02 1.43756E+03-1.34797E+04
 -1       859 4.31474E+02 1.18171E+03-1.21532E+04
 -1       860 5.51810E+02 1.30452E+03-1.78135E+04
 -1       861 1.08250E+03 1.70698E+03-2.73584E+04
 -1       862 1.64070E+03 2.51585E+03-4.33277E+04
 -1       863-1.75976E+03-1.79813E+03-7.50325E+04
 -1       864-1.84868E+03-5.22038E+02-6.39646E+04
 -1       865-2.01944E+03 6.54611E+02-5.21336E+04
 -1       866-1.52102E+03 8.83923E+02-4.18191E+04
 -1       867-9.18703E+02 9.71766E+02-3.46334E+04
 -1       868-6.00113E+02 1.37570E+03-3.04265E+04
 -1       869-4.06041E+02 1.65095E+03-2.78881E+04
 -1       870-4.32696E+02 1.70078E+03-2.53170E+04
 -1       871-4.86692E+02 1.69970E+03-2.26824E+04
 -1       872 3.66289E+02 1.37764E+03-1.96757E+04
 -1       873 4.10350E+02 1.18193E+03-2.18444E+04
 -1       874 5.18550E+02 8.99991E+02-2.43761E+04
 -1       875 9.39588E+02 8.10858E+02-2.85811E+04
 -1       876 1.26864E+03 8.92655E+02-3.50385E+04
 -1       877 1.61374E+03 8.43865E+02-4.33479E+04
 -1       878 2.03153E+03 6.83564E+02-5.38250E+04
 -1       879 1.91944E+03-5.15950E+02-6.60224E+04
 -1       880 1.82682E+03-1.86777E+03-7.75772E+04
 -1       881-4.56129E+02-1.88696E+03-6.36686E+04
 -1       882-1.64188E+03-6.29346E+02-5.16343E+04
 -1       883-1.46556E+03-9.90679E+02-3.38489E+04
 -1       884 3.77669E+02-1.37737E+02-2.63669E+04
 -1       885 1.30291E+03-6.79986E+02-3.58181E+04
 -1       886 1.68212E+03-6.97140E+02-5.33243E+04
 -1       887 5.18763E+02-1.97418E+03-6.58262E+04
 -1       888 0.00000E+00 0.00000E+00 0.00000E+00
 -1       889 2.02862E+03-2.30920E+02-6.65684E+03
 -1       890 3.52785E+03-8.85770E+02-2.34607E+04
 -1       891 2.41811E+03-1.60810E+03-4.15535E+04
 -1       892 6.76393E+02-1.99911E+03-5.16968E+04
 -1       893-6.27794E+02-1.69048E+03-5.13981E+04
 -1       894-1.68853E+03-1.77350E+03-4.43684E+04
 -1       895-1.81767E+03-2.07395E+03-3.44190E+04
 -1       896-2.13977E+03-2.68400E+03-2.24514E+04
 -1       897-2.11141E+02-8.25943E+02-2.36726E+04
 -1       898 3.45214E+02-1.53452E+03-2.36626E+04
 -1       899 1.26818E+03-2.39588E+03-2.71009E+04
 -1       900 1.58918E+03-2.04209E+03-3.62201E+04
 -1       901 1.73419E+03-1.81935E+03-4.57073E+04
 -1       902 6.02767E+02-1.79482E+03-5.27807E+04
 -1       903-6.71201E+02-2.18066E+03-5.31488E+04
 -1       904-2.47426E+03-1.79898E+03-4.27293E+04
 -1       905-3.62878E+03-9.99825E+02-2.40326E+04
 -1       906-2.08719E+03-2.72682E+02-6.81759E+03
 -1       907 0.00000E+00 0.00000E+00 0.00000E+00
 -1       908 0.00000E+00 0.00000E+00 0.00000E+00
 -1       909 2.84247E+03-7.92576E+02-1.85864E+04
 -1       910 8.10214E+02-1.60987E+03-4.13219E+04
 -1       911-1.93195E+03-1.62670E+03-3.46637E+04
 -1       912-2.14907E+03-2.01069E+03-8.71386E+03
 -1       913 1.67414E+03-2.35891E+03-1.19061E+04
 -1       914 1.99693E+03-1.95761E+03-3.49649E+04
 -1       915-9.03290E+02-1.73696E+03-4.17562E+04
 -1       916-2.83931E+03-8.89922E+02-1.85668E+04
 -1       917 0.00000E+00 0.00000E+00 0.00000E+00
 -1       918 0.00000E+00 0.00000E+00 0.00000E+00
 -1       919 1.26096E+03-2.00380E+02-4.05270E+03
 -1       920 2.21405E+03-6.28241E+02-1.44323E+04
 -1       921 1.60330E+03-1.08106E+03-2.57774E+04
 -1       922 8.30367E+02-1.28339E+03-3.29713E+04
 -1       923-6.56589E+02-1.34232E+03-3.36317E+04
 -1       924-2.27791E+03-1.32452E+03-2.52847E+04
 -1       925-2.25387E+03-1.67797E+03-1.08819E+04
 -1       926-8.15684E+02-5.86322E+02 1.30811E+03
 -1       927-2.37724E+02-1.24845E+02 2.82978E+03
 -1       928-8.51599E+01-4.65837E+01 3.93250E+03
 -1       929-5.65923E+01 1.05211E+01 4.68564E+03
 -1       930-4.89954E+01-1.30336E+01 5.10036E+03
 -1       931 7.45486E+00-3.89058E+00 5.20386E+03
 -1       932 6.27541E+01-2.27896E+01 4.97402E+03
 -1       933 7.87095E+01 9.48723E+00 4.43573E+03
 -1       934 1.07204E+02-5.88427E+01 3.57388E+03
 -1       935 2.17725E+02-1.43875E+02 2.35311E+03
 -1       936 6.27594E+02-8.15781E+02 7.78641E+02
 -1       937 1.93882E+03-2.22816E+03-9.05860E+03
 -1       938 2.53851E+03-2.29817E+03-2.21106E+04
 -1       939 8.94150E+02-1.70054E+03-3.27677E+04
 -1       940-9.84515E+02-1.20011E+03-3.31274E+04
 -1       941-1.65323E+03-1.18200E+03-2.50693E+04
 -1       942-2.14950E+03-7.58983E+02-1.37692E+04
 -1       943-1.20661E+03-2.40182E+02-3.82999E+03
 -1       944 0.00000E+00 0.00000E+00 0.00000E+00
 -1       945 0.00000E+00 0.00000E+00 0.00000E+00
 -1       946 1.74691E+03-4.86291E+02-1.12220E+04
 -1       947 7.27734E+02-9.64826E+02-2.63946E+04
 -1       948-1.48400E+03-4.38774E+02-2.13379E+04
 -1       949-1.85554E+02-1.55365E+02 2.48555E+03
 -1       950-1.51410E+02-8.15077E+01 4.19877E+03
 -1       951-2.92913E+01-6.64881E+00 5.15111E+03
 -1       952 4.79842E+01-8.05892E+00 5.04319E+03
 -1       953 1.54001E+02-1.04192E+02 3.89514E+03
 -1       954 1.90733E+02-2.01740E+02 2.06844E+03
 -1       955-1.38975E+03-9.52567E+02-2.70947E+04
 -1       956-1.54303E+03-6.54235E+02-9.66335E+03
 -1       957 0.00000E+00 0.00000E+00 0.00000E+00
 -1       958 0.00000E+00 0.00000E+00 0.00000E+00
 -1       959 7.50880E+02-1.15799E+02-2.38257E+03
 -1       960 1.36513E+03-3.93425E+02-8.65976E+03
 -1       961 1.17164E+03-5.66490E+02-1.61594E+04
 -1       962 7.87137E+02-5.57287E+02-2.19968E+04
 -1       963-1.80679E+02-4.47843E+02-2.35383E+04
 -1       964-8.21056E+02 9.57466E+01-2.07186E+04
 -1       965-1.03406E+02-4.01727E+01 3.30233E+03
 -1       966-1.46464E+02-8.92869E+01 3.88596E+03
 -1       967-5.44790E+01-9.77100E+00 4.50815E+03
 -1       968-5.23118E+01-1.38208E+01 4.94570E+03
 -1       969-3.45933E+01-5.91407E+00 5.21634E+03
 -1       970 7.02837E+00-6.36274E+00 5.27611E+03
 -1       971 4.84243E+01-9.82801E+00 5.12576E+03
 -1       972 6.94096E+01-1.71203E+01 4.76982E+03
 -1       973 7.50191E+01-7.99471E+00 4.25565E+03
 -1       974 1.44821E+02-1.10984E+02 3.56866E+03
 -1       975 1.10822E+02-4.07056E+01 2.92623E+03
 -1       976-1.64206E+03-8.18419E+02-2.21365E+04
 -1       977-1.37546E+03-9.00146E+02-1.31406E+04
 -1       978-1.03139E+03-5.50962E+02-6.11269E+03
 -1       979-5.26447E+02-1.64163E+02-1.62889E+03
 -1       980 0.00000E+00 0.00000E+00 0.00000E+00
 -1       981 0.00000E+00 0.00000E+00 0.00000E+00
 -1       982 1.06878E+03-3.14587E+02-6.64823E+03
 -1       983 1.03534E+03-4.39959E+02-1.92637E+04
 -1       984-3.90863E+01-1.24983E+01 3.76688E+03
 -1       985-6.39419E+01-4.98657E+00 4.64562E+03
 -1       986-2.23401E+01 8.52495E+00 5.22601E+03
 -1       987 3.48332E+01 5.77742E+00 5.15035E+03
 -1       988 7.67731E+01-7.67650E+00 4.43204E+03
 -1       989 5.37031E+01-1.35650E+01 3.44225E+03
 -1       990-5.83599E+02-3.13037E+02-3.57487E+03
 -1       991 0.00000E+00 0.00000E+00 0.00000E+00
 -1       992 0.00000E+00 0.00000E+00 0.00000E+00
 -1       993 4.33390E+02-7.35841E+01-1.35982E+03
 -1       994 8.21992E+02-2.32257E+02-5.00454E+03
 -1       995 1.02651E+03-4.42218E+02-1.03598E+04
 -1       996 1.21345E+03-3.87139E+02-1.69466E+04
 -1       997-7.05702E+01 7.39078E-01 3.91811E+03
 -1       998-5.61908E+01 1.49727E+01 4.26798E+03
 -1       999-5.74477E+01 1.42214E+01 4.62943E+03
 -1      1000-4.16626E+01 2.64240E+01 4.93421E+03
 -1      1001-2.07558E+01 2.81662E+01 5.12837E+03
 -1      1002 5.58288E+00 2.97739E+01 5.17097E+03
 -1      1003 3.17045E+01 2.65778E+01 5.06456E+03
 -1      1004 5.15590E+01 2.25596E+01 4.80929E+03
 -1      1005 6.63266E+01 7.66185E+00 4.44747E+03
 -1      1006 6.61021E+01 1.06932E+01 4.03337E+03
 -1      1007 7.40591E+01-1.01319E+01 3.63208E+03
 -1      1008-3.22726E+02-7.08829E+01-2.15925E+03
 -1      1009-1.92225E+02-2.08597E+01-6.77263E+02
 -1      1010 0.00000E+00 0.00000E+00 0.00000E+00
 -1      1011 0.00000E+00 0.00000E+00 0.00000E+00
 -1      1012 7.05028E+02-3.42358E+01-4.31597E+03
 -1      1013-5.26001E+01 5.04441E+01 3.78150E+03
 -1      1014-5.44118E+01 5.18813E+01 4.41880E+03
 -1      1015-1.87179E+01 5.34383E+01 4.88350E+03
 -1      1016 2.79447E+01 5.19459E+01 4.82977E+03
 -1      1017 6.21026E+01 4.67105E+01 4.26386E+03
 -1      1018 5.95690E+01 4.32853E+01 3.53450E+03
 -1      1019-3.97212E+02 9.98598E+01-2.47426E+03
 -1      1020 0.00000E+00 0.00000E+00 0.00000E+00
 -1      1021 0.00000E+00 0.00000E+00 0.00000E+00
 -1      1022 3.97364E+02 5.20508E+01-1.25103E+03
 -1      1023 7.47621E+02 1.59329E+02-4.58381E+03
 -1      1024 9.21614E+02 3.10667E+02-9.42745E+03
 -1      1025 1.07373E+03 2.63046E+02-1.52875E+04
 -1      1026-6.08147E+01 9.86474E+01 3.34322E+03
 -1      1027-5.48117E+01 8.66123E+01 3.67153E+03
 -1      1028-5.35934E+01 8.90174E+01 4.01517E+03
 -1      1029-3.99895E+01 7.96214E+01 4.30631E+03
 -1      1030-2.05834E+01 7.82758E+01 4.49605E+03
 -1      1031 3.80190E+00 7.60326E+01 4.54372E+03
 -1      1032 2.80999E+01 7.67190E+01 4.45111E+03
 -1      1033 4.75193E+01 7.68175E+01 4.21782E+03
 -1      1034 6.09218E+01 8.50765E+01 3.88489E+03
 -1      1035 6.12256E+01 8.08628E+01 3.50100E+03
 -1      1036 6.74410E+01 9.40624E+01 3.13385E+03
 -1      1037-9.75083E+02 3.51379E+02-1.28527E+04
 -1      1038-8.02443E+02 3.87477E+02-7.62804E+03
 -1      1039-5.97465E+02 2.41378E+02-3.52371E+03
 -1      1040-3.04108E+02 7.17424E+01-9.31770E+02
 -1      1041 0.00000E+00 0.00000E+00 0.00000E+00
 -1      1042 0.00000E+00 0.00000E+00 0.00000E+00
 -1      1043 9.19537E+02 2.15488E+02-5.72237E+03
 -1      1044 9.30636E+02 2.77777E+02-1.67996E+04
 -1      1045-3.97059E+01 1.13750E+02 2.62904E+03
 -1      1046-5.92142E+01 1.08432E+02 3.42407E+03
 -1      1047-2.25964E+01 9.73179E+01 3.96813E+03
 -1      1048 2.87430E+01 9.58851E+01 3.93151E+03
 -1      1049 6.52131E+01 1.04503E+02 3.31762E+03
 -1      1050 4.63749E+01 1.08793E+02 2.45822E+03
 -1      1051-8.41487E+02 3.57227E+02-1.48492E+04
 -1      1052-8.04417E+02 2.58711E+02-4.97464E+03
 -1      1053 0.00000E+00 0.00000E+00 0.00000E+00
 -1      1054 0.00000E+00 0.00000E+00 0.00000E+00
 -1      1055 6.15261E+02 7.84947E+01-1.94432E+03
 -1      1056 1.12105E+03 2.67535E+02-7.09889E+03
 -1      1057 9.96664E+02 3.67252E+02-1.33483E+04
 -1      1058 7.23215E+02 3.30591E+02-1.84522E+04
 -1      1059-1.16451E+01 2.02418E+02-2.03880E+04
 -1      1060-5.03715E+02-2.24585E+02-1.89812E+04
 -1      1061-9.00338E+01 1.39017E+02 1.63608E+03
 -1      1062-1.20324E+02 1.78860E+02 2.14699E+03
 -1      1063-5.43141E+01 1.14812E+02 2.69094E+03
 -1      1064-4.99159E+01 1.17559E+02 3.08682E+03
 -1      1065-3.29529E+01 1.10665E+02 3.34250E+03
 -1      1066 2.38805E+00 1.08721E+02 3.41870E+03
 -1      1067 3.76727E+01 1.09249E+02 3.31398E+03
 -1      1068 5.48256E+01 1.14734E+02 3.03049E+03
 -1      1069 5.96208E+01 1.10902E+02 2.60810E+03
 -1      1070 1.22997E+02 1.73056E+02 2.04113E+03
 -1      1071 9.36574E+01 1.33403E+02 1.50620E+03
 -1      1072 4.77254E+02-1.31958E+02-1.73173E+04
 -1      1073 1.96699E+01 2.75958E+02-1.86731E+04
 -1      1074-6.64510E+02 3.91815E+02-1.69165E+04
 -1      1075-9.12299E+02 4.08476E+02-1.22426E+04
 -1      1076-1.02717E+03 2.82973E+02-6.51694E+03
 -1      1077-5.66080E+02 8.54125E+01-1.78038E+03
 -1      1078 0.00000E+00 0.00000E+00 0.00000E+00
 -1      1079 0.00000E+00 0.00000E+00 0.00000E+00
 -1      1080 1.37469E+03 3.24481E+02-8.81701E+03
 -1      1081 6.42143E+02 6.05329E+02-2.11505E+04
 -1      1082-1.00393E+03 1.63786E+02-1.85181E+04
 -1      1083-1.52894E+02 2.35808E+02 3.52098E+02
 -1      1084-1.25832E+02 1.73122E+02 1.81257E+03
 -1      1085-3.04811E+01 1.11014E+02 2.66939E+03
 -1      1086 3.42074E+01 1.09718E+02 2.64869E+03
 -1      1087 1.27425E+02 1.68397E+02 1.75523E+03
 -1      1088 1.54033E+02 2.29080E+02 2.68917E+02
 -1      1089 9.57449E+02 2.32027E+02-1.73366E+04
 -1      1090-6.00709E+02 6.42951E+02-1.99075E+04
 -1      1091-1.29573E+03 3.34929E+02-8.31864E+03
 -1      1092 0.00000E+00 0.00000E+00 0.00000E+00
 -1      1093 0.00000E+00 0.00000E+00 0.00000E+00
 -1      1094 9.57589E+02 1.35074E+02-3.07079E+03
 -1      1095 1.68264E+03 4.20089E+02-1.09555E+04
 -1      1096 1.24297E+03 7.10395E+02-1.96421E+04
 -1      1097 6.83456E+02 8.13689E+02-2.53146E+04
 -1      1098-4.20085E+02 8.36110E+02-2.61969E+04
 -1      1099-1.61707E+03 8.11400E+02-2.04753E+04
 -1      1100-1.59598E+03 1.15907E+03-1.00775E+04
 -1      1101-5.99340E+02 5.81098E+02-1.23246E+03
 -1      1102-1.90847E+02 2.07593E+02 3.03255E+01
 -1      1103-7.85406E+01 1.45972E+02 9.69035E+02
 -1      1104-5.46087E+01 9.97525E+01 1.62576E+03
 -1      1105-4.48670E+01 1.16888E+02 2.01138E+03
 -1      1106 1.66065E+00 1.06401E+02 2.14192E+03
 -1      1107 4.80282E+01 1.15289E+02 1.99881E+03
 -1      1108 5.86252E+01 9.74492E+01 1.60112E+03
 -1      1109 8.23518E+01 1.41865E+02 9.35615E+02
 -1      1110 1.89651E+02 2.01049E+02-7.41621E+00
 -1      1111 5.78781E+02 5.69424E+02-1.26355E+03
 -1      1112 1.52345E+03 1.15089E+03-9.72301E+03
 -1      1113 1.54078E+03 8.38874E+02-1.96201E+04
 -1      1114 4.00756E+02 8.62871E+02-2.50790E+04
 -1      1115-6.51546E+02 8.33075E+02-2.42364E+04
 -1      1116-1.18901E+03 7.19923E+02-1.88164E+04
 -1      1117-1.61167E+03 4.24108E+02-1.05003E+04
 -1      1118-9.17208E+02 1.35443E+02-2.94529E+03
 -1      1119 0.00000E+00 0.00000E+00 0.00000E+00
 -1      1120 0.00000E+00 0.00000E+00 0.00000E+00
 -1      1121 2.10714E+03 5.36522E+02-1.37570E+04
 -1      1122 6.19010E+02 1.06232E+03-3.07182E+04
 -1      1123-1.36110E+03 9.74466E+02-2.62443E+04
 -1      1124-1.30797E+03 1.39081E+03-9.10790E+03
 -1      1125 1.26126E+03 1.36872E+03-8.99843E+03
 -1      1126 1.30299E+03 9.80176E+02-2.54631E+04
 -1      1127-5.99048E+02 1.06653E+03-2.97097E+04
 -1      1128-2.03758E+03 5.35703E+02-1.33070E+04
 -1      1129 0.00000E+00 0.00000E+00 0.00000E+00
 -1      1130 0.00000E+00 0.00000E+00 0.00000E+00
 -1      1131 1.47727E+03 1.54949E+02-4.82889E+03
 -1      1132 2.57722E+03 6.04131E+02-1.70678E+04
 -1      1133 1.76559E+03 1.09915E+03-3.02795E+04
 -1      1134 4.86452E+02 1.34609E+03-3.76507E+04
 -1      1135-4.70668E+02 1.08784E+03-3.73684E+04
 -1      1136-1.25231E+03 1.09265E+03-3.21750E+04
 -1      1137-1.17479E+03 1.18716E+03-2.52011E+04
 -1      1138-1.11245E+03 1.40062E+03-1.79899E+04
 -1      1139-5.80139E+02 8.97396E+02-1.38102E+04
 -1      1140-2.61657E+02 4.68607E+02-1.16117E+04
 -1      1141 2.37214E+02 4.51365E+02-1.17442E+04
 -1      1142 5.47285E+02 8.75174E+02-1.37804E+04
 -1      1143 1.06626E+03 1.37592E+03-1.77425E+04
 -1      1144 1.13110E+03 1.17092E+03-2.46749E+04
 -1      1145 1.20507E+03 1.08405E+03-3.13846E+04
 -1      1146 4.49240E+02 1.08392E+03-3.63749E+04
 -1      1147-4.75283E+02 1.33372E+03-3.66171E+04
 -1      1148-1.71600E+03 1.08879E+03-2.94445E+04
 -1      1149-2.50430E+03 6.00797E+02-1.66060E+04
 -1      1150-1.43680E+03 1.54950E+02-4.70063E+03
 -1      1151 0.00000E+00 0.00000E+00 0.00000E+00
 -1      1152-3.46022E+02 1.24639E+03-4.56876E+04
 -1      1153-1.24037E+03 3.71661E+02-3.66141E+04
 -1      1154-1.11448E+03 3.69157E+02-2.30178E+04
 -1      1155-6.02845E+02 1.10864E+02-1.32181E+04
 -1      1156 5.75351E+02 9.79291E+01-1.32623E+04
 -1      1157 1.07345E+03 3.60771E+02-2.26715E+04
 -1      1158 1.19967E+03 3.73606E+02-3.58017E+04
 -1      1159 3.32916E+02 1.23172E+03-4.45646E+04
 -1      1160-1.27674E+03 1.18479E+03-5.31582E+04
 -1      1161-1.33835E+03 2.76299E+02-4.51682E+04
 -1      1162-1.46240E+03-5.03426E+02-3.65417E+04
 -1      1163-1.23325E+03-5.96813E+02-2.87812E+04
 -1      1164-1.02279E+03-5.98044E+02-2.22578E+04
 -1      1165-8.60735E+02-4.63218E+02-1.67389E+04
 -1      1166-6.45616E+02-4.23191E+02-1.23946E+04
 -1      1167 6.21365E+02-4.29611E+02-1.23811E+04
 -1      1168 8.32060E+02-4.63497E+02-1.65720E+04
 -1      1169 9.90430E+02-5.90417E+02-2.19116E+04
 -1      1170 1.19634E+03-5.83989E+02-2.82328E+04
 -1      1171 1.42276E+03-4.88284E+02-3.57718E+04
 -1      1172 1.30175E+03 2.79756E+02-4.41690E+04
 -1      1173 1.23986E+03 1.16983E+03-5.19368E+04
 -1      1174-1.18472E+03-1.71553E+03-2.92851E+04
 -1      1175-8.53374E+02-1.07923E+03-1.73073E+04
 -1      1176-5.78711E+02-7.07152E+02-8.98104E+03
 -1      1177 5.61834E+02-7.07305E+02-8.94631E+03
 -1      1178 8.28797E+02-1.06276E+03-1.70321E+04
 -1      1179 1.15397E+03-1.67895E+03-2.86823E+04
 -1      1180-6.55950E+02-2.47750E+03-1.65194E+04
 -1      1181-5.96897E+02-1.96797E+03-1.28854E+04
 -1      1182-5.00050E+02-1.48633E+03-9.70529E+03
 -1      1183-4.34448E+02-1.09853E+03-6.98484E+03
 -1      1184-3.98426E+02-7.54063E+02-4.54443E+03
 -1      1185-2.71717E+02-4.07426E+02-2.51294E+03
 -1      1186-1.34386E+02-1.72039E+02-1.13940E+03
 -1      1187 4.09364E-01-1.27912E+02-8.43802E+02
 -1      1188 1.35111E+02-1.72921E+02-1.14490E+03
 -1      1189 2.68945E+02-4.07021E+02-2.51155E+03
 -1      1190 3.90764E+02-7.50103E+02-4.51779E+03
 -1      1191 4.23568E+02-1.08550E+03-6.90165E+03
 -1      1192 4.86110E+02-1.46247E+03-9.54933E+03
 -1      1193 5.80943E+02-1.93108E+03-1.26432E+04
 -1      1194 6.38341E+02-2.42741E+03-1.61799E+04
 -1      1195-1.74070E+02-1.42693E+03-4.69387E+03
 -1      1196-1.57616E+02-8.48846E+02-2.71957E+03
 -1      1197-1.25086E+02-3.93100E+02-1.22035E+03
 -1      1198-3.61805E+01-1.00032E+02-3.62918E+02
 -1      1199 3.63570E+01-1.00583E+02-3.63735E+02
 -1      1200 1.22871E+02-3.90890E+02-1.21191E+03
 -1      1201 1.53291E+02-8.35337E+02-2.67554E+03
 -1      1202 1.69102E+02-1.39774E+03-4.59639E+03
 -1      1203 0.00000E+00 0.00000E+00 0.00000E+00
 -1      1204 0.00000E+00 0.00000E+00 0.00000E+00
 -1      1205 0.00000E+00 0.00000E+00 0.00000E+00
 -1      1206 0.00000E+00 0.00000E+00 0.00000E+00
 -1      1207 0.00000E+00 0.00000E+00 0.00000E+00
 -1      1208 0.00000E+00 0.00000E+00 0.00000E+00
 -1      1209 0.00000E+00 0.00000E+00 0.00000E+00
 -1      1210 0.00000E+00 0.00000E+00 0.00000E+00
 -1      1211 0.00000E+00 0.00000E+00 0.00000E+00
 -1      1212 0.00000E+00 0.00000E+00 0.00000E+00
 -1      1213 0.00000E+00 0.00000E+00 0.00000E+00
 -1      1214 0.00000E+00 0.00000E+00 0.00000E+00
 -1      1215 0.00000E+00 0.00000E+00 0.00000E+00
 -1      1216 0.00000E+00 0.00000E+00 0.00000E+00
 -1      1217 0.00000E+00 0.00000E+00 0.00000E+00
 -1      1218-7.26294E+02-4.86535E+02 1.33657E+03
 -1      1219-2.03646E+02-8.51291E+01 3.93722E+03
 -1      1220-7.04019E+01-4.43226E+00 5.10182E+03
 -1      1221 1.01944E+02-1.41294E+01 4.97420E+03
 -1      1222 2.36932E+02-1.05431E+02 3.57690E+03
 -1      1223 5.93303E+02-6.76761E+02 8.07688E+02
 -1      1224-1.91329E+02-1.09569E+02 3.30551E+03
 -1      1225-1.50833E+02-5.53794E+01 4.49298E+03
 -1      1226-5.81498E+01-1.14317E+01 5.21323E+03
 -1      1227 8.60922E+01-1.71119E+01 5.12273E+03
 -1      1228 1.79015E+02-6.45164E+01 4.24032E+03
 -1      1229 2.08784E+02-1.20865E+02 2.93131E+03
 -1      1230-1.06606E+02 1.86187E+01 3.91879E+03
 -1      1231-1.08183E+02 3.31690E+01 4.62673E+03
 -1      1232-3.83768E+01 5.52526E+01 5.12406E+03
 -1      1233 5.91001E+01 5.18770E+01 5.06027E+03
 -1      1234 1.26146E+02 2.27421E+01 4.44474E+03
 -1      1235 1.20511E+02 4.37204E+00 3.63403E+03
 -1      1236-9.78670E+01 1.73622E+02 3.34334E+03
 -1      1237-1.02421E+02 1.64677E+02 4.01208E+03
 -1      1238-3.83796E+01 1.48472E+02 4.49193E+03
 -1      1239 5.28608E+01 1.45628E+02 4.44701E+03
 -1      1240 1.16033E+02 1.56724E+02 3.88171E+03
 -1      1241 1.10810E+02 1.63717E+02 3.13372E+03
 -1      1242-1.66455E+02 2.91863E+02 1.63830E+03
 -1      1243-1.37154E+02 2.48650E+02 2.67912E+03
 -1      1244-5.70451E+01 2.11036E+02 3.33973E+03
 -1      1245 6.61894E+01 2.08359E+02 3.31115E+03
 -1      1246 1.45902E+02 2.40763E+02 2.59664E+03
 -1      1247 1.73965E+02 2.80933E+02 1.50847E+03
 -1      1248-5.54715E+02 6.05440E+02-1.20784E+03
 -1      1249-1.79911E+02 2.75112E+02 9.71925E+02
 -1      1250-6.89823E+01 2.06360E+02 2.01209E+03
 -1      1251 7.54983E+01 2.03726E+02 1.99935E+03
 -1      1252 1.85826E+02 2.67161E+02 9.38320E+02
 -1      1253 5.42941E+02 5.91140E+02-1.23980E+03
 -1      1254-6.74014E+02-4.21875E+02 1.38041E+03
 -1      1255-5.21749E+02-2.90471E+02 2.79157E+03
 -1      1256-3.14045E+02-1.14159E+02 3.93666E+03
 -1      1257-2.19758E+02-3.43637E+01 4.66888E+03
 -1      1258-9.63438E+01 1.85305E+00 5.10234E+03
 -1      1259 2.51905E+01 9.91248E+00 5.20033E+03
 -1      1260 1.45956E+02-7.92506E+00 4.97345E+03
 -1      1261 2.66572E+02-5.42919E+01 4.42089E+03
 -1      1262 3.60546E+02-1.41665E+02 3.57461E+03
 -1      1263 5.16701E+02-3.31585E+02 2.32879E+03
 -1      1264 5.94384E+02-5.75680E+02 8.52287E+02
 -1      1265-4.51983E+02-3.33658E+02 2.45936E+03
 -1      1266-3.26406E+02-1.33052E+02 4.21205E+03
 -1      1267-1.00017E+02-2.14698E+01 5.13984E+03
 -1      1268 1.50073E+02-2.98029E+01 5.03205E+03
 -1      1269 3.64320E+02-1.59145E+02 3.90622E+03
 -1      1270 4.77722E+02-4.09368E+02 2.02753E+03
 -1      1271-2.69103E+02-1.72512E+02 3.30344E+03
 -1      1272-2.85921E+02-1.77936E+02 3.89735E+03
 -1      1273-2.50508E+02-1.03715E+02 4.47602E+03
 -1      1274-1.71996E+02-4.96005E+01 4.93214E+03
 -1      1275-8.05974E+01-1.69509E+01 5.20746E+03
 -1      1276 2.15367E+01-8.61736E+00 5.26934E+03
 -1      1277 1.22702E+02-2.42940E+01 5.11707E+03
 -1      1278 2.12395E+02-6.38533E+01 4.75537E+03
 -1      1279 2.85785E+02-1.24354E+02 4.22321E+03
 -1      1280 3.15550E+02-2.05813E+02 3.58289E+03
 -1      1281 2.97107E+02-1.92630E+02 2.93108E+03
 -1      1282-1.87102E+02-8.22103E+01 3.75240E+03
 -1      1283-1.94858E+02-3.21056E+01 4.63166E+03
 -1      1284-6.48853E+01 2.20445E+01 5.21484E+03
 -1      1285 1.00705E+02 1.54115E+01 5.13906E+03
 -1      1286 2.26067E+02-4.78423E+01 4.41893E+03
 -1      1287 2.12093E+02-1.02587E+02 3.42536E+03
 -1      1288-1.45228E+02 3.21848E+01 3.91875E+03
 -1      1289-1.65348E+02 2.87426E+01 4.25692E+03
 -1      1290-1.58848E+02 5.32121E+01 4.62150E+03
 -1      1291-1.18683E+02 7.23528E+01 4.92321E+03
 -1      1292-5.64119E+01 8.21143E+01 5.11708E+03
 -1      1293 1.55446E+01 8.35844E+01 5.15959E+03
 -1      1294 8.69221E+01 7.69275E+01 5.05332E+03
 -1      1295 1.47332E+02 6.21608E+01 4.79837E+03
 -1      1296 1.85958E+02 3.90333E+01 4.43945E+03
 -1      1297 1.91041E+02 1.21526E+01 4.02228E+03
 -1      1298 1.69523E+02 1.42640E+01 3.63528E+03
 -1      1299-1.29219E+02 1.43359E+02 3.77805E+03
 -1      1300-1.44779E+02 1.47575E+02 4.41232E+03
 -1      1301-5.35433E+01 1.51141E+02 4.87245E+03
 -1      1302 7.93012E+01 1.46646E+02 4.81876E+03
 -1      1303 1.68198E+02 1.34973E+02 4.25734E+03
 -1      1304 1.51384E+02 1.26995E+02 3.53129E+03
 -1      1305-1.36556E+02 2.52308E+02 3.34238E+03
 -1      1306-1.56641E+02 2.56279E+02 3.66201E+03
 -1      1307-1.51446E+02 2.39658E+02 4.00667E+03
 -1      1308-1.14285E+02 2.26709E+02 4.29595E+03
 -1      1309-5.64642E+01 2.19136E+02 4.48527E+03
 -1      1310 1.08286E+01 2.15146E+02 4.53303E+03
 -1      1311 7.79087E+01 2.15000E+02 4.44038E+03
 -1      1312 1.35069E+02 2.18541E+02 4.20743E+03
 -1      1313 1.71336E+02 2.27710E+02 3.87622E+03
 -1      1314 1.75982E+02 2.41232E+02 3.49185E+03
 -1      1315 1.55734E+02 2.37001E+02 3.13248E+03
 -1      1316-1.68964E+02 3.58645E+02 2.61639E+03
 -1      1317-1.78014E+02 3.20089E+02 3.41204E+03
 -1      1318-6.51831E+01 2.75853E+02 3.95800E+03
 -1      1319 8.25997E+01 2.71862E+02 3.92141E+03
 -1      1320 1.94115E+02 3.08383E+02 3.30576E+03
 -1      1321 1.84625E+02 3.42899E+02 2.44553E+03
 -1      1322-2.35517E+02 4.40054E+02 1.63663E+03
 -1      1323-2.50011E+02 4.45035E+02 2.15530E+03
 -1      1324-2.22381E+02 3.84786E+02 2.66568E+03
 -1      1325-1.57834E+02 3.40188E+02 3.07540E+03
 -1      1326-8.03598E+01 3.11608E+02 3.33471E+03
 -1      1327 6.93262E+00 3.00838E+02 3.41242E+03
 -1      1328 9.39758E+01 3.07685E+02 3.30610E+03
 -1      1329 1.70906E+02 3.32255E+02 3.01919E+03
 -1      1330 2.34506E+02 3.72903E+02 2.58357E+03
 -1      1331 2.61506E+02 4.29164E+02 2.04905E+03
 -1      1332 2.47201E+02 4.23837E+02 1.50697E+03
 -1      1333-3.80787E+02 5.77624E+02 3.30602E+02
 -1      1334-2.83712E+02 4.11471E+02 1.82195E+03
 -1      1335-9.93315E+01 3.16572E+02 2.66011E+03
 -1      1336 1.09405E+02 3.12732E+02 2.63956E+03
 -1      1337 2.91676E+02 3.99549E+02 1.76408E+03
 -1      1338 3.86198E+02 5.59706E+02 2.47641E+02
 -1      1339-5.37653E+02 6.56597E+02-1.17235E+03
 -1      1340-4.31288E+02 5.39527E+02 3.71780E+00
 -1      1341-2.75925E+02 3.97068E+02 9.70943E+02
 -1      1342-1.97873E+02 3.30610E+02 1.61262E+03
 -1      1343-9.66828E+01 2.97644E+02 2.01193E+03
 -1      1344 4.92248E+00 2.85936E+02 2.13883E+03
 -1      1345 1.06372E+02 2.93890E+02 1.99899E+03
 -1      1346 2.06783E+02 3.23223E+02 1.58831E+03
 -1      1347 2.84138E+02 3.85501E+02 9.37266E+02
 -1      1348 4.33381E+02 5.22294E+02-3.26266E+01
 -1      1349 5.33684E+02 6.38886E+02-1.20554E+03
 -1      1350-8.23621E+02-5.29960E+02 1.38627E+03
 -1      1351-4.49907E+02-1.57069E+02 3.92698E+03
 -1      1352-1.35152E+02 1.88380E+00 5.09518E+03
 -1      1353 2.02205E+02-1.09321E+01 4.96642E+03
 -1      1354 5.08240E+02-1.93169E+02 3.56564E+03
 -1      1355 7.65570E+02-6.84926E+02 8.58245E+02
 -1      1356-3.61813E+02-2.59098E+02 3.29456E+03
 -1      1357-3.33183E+02-1.38455E+02 4.46703E+03
 -1      1358-1.07266E+02-2.45527E+01 5.19894E+03
 -1      1359 1.63456E+02-3.43200E+01 5.10849E+03
 -1      1360 3.79402E+02-1.66212E+02 4.21423E+03
 -1      1361 3.99242E+02-2.90755E+02 2.92134E+03
 -1      1362-1.92333E+02 3.42958E+01 3.91221E+03
 -1      1363-2.12500E+02 6.98519E+01 4.61327E+03
 -1      1364-7.53520E+01 1.08196E+02 5.10719E+03
 -1      1365 1.15681E+02 1.01295E+02 5.04343E+03
 -1      1366 2.48285E+02 5.13496E+01 4.43135E+03
 -1      1367 2.24473E+02 1.03260E+01 3.62854E+03
 -1      1368-1.81418E+02 3.40579E+02 3.33614E+03
 -1      1369-2.02418E+02 3.18239E+02 3.99889E+03
 -1      1370-7.54338E+01 2.90898E+02 4.47591E+03
 -1      1371 1.03851E+02 2.85428E+02 4.43104E+03
 -1      1372 2.28696E+02 3.02542E+02 3.86847E+03
 -1      1373 2.06845E+02 3.19651E+02 3.12616E+03
 -1      1374-3.16182E+02 6.07316E+02 1.62917E+03
 -1      1375-2.95822E+02 5.10656E+02 2.65808E+03
 -1      1376-1.07059E+02 4.14406E+02 3.32730E+03
 -1      1377 1.25097E+02 4.09220E+02 3.29872E+03
 -1      1378 3.11847E+02 4.94941E+02 2.57607E+03
 -1      1379 3.31503E+02 5.84999E+02 1.49964E+03
 -1      1380-6.68271E+02 8.43037E+02-1.16745E+03
 -1      1381-3.91577E+02 5.30019E+02 9.63320E+02
 -1      1382-1.34613E+02 3.94225E+02 2.00601E+03
 -1      1383 1.46835E+02 3.89321E+02 1.99310E+03
 -1      1384 4.01235E+02 5.14612E+02 9.29847E+02
 -1      1385 6.66124E+02 8.18797E+02-1.20079E+03
 -1      1386-1.00756E+03-6.69625E+02 1.38860E+03
 -1      1387-8.55112E+02-4.82715E+02 2.76977E+03
 -1      1388-5.89918E+02-1.94778E+02 3.91574E+03
 -1      1389-3.83546E+02-6.59898E+01 4.65531E+03
 -1      1390-1.77526E+02 2.28310E-01 5.08571E+03
 -1      1391 4.41347E+01 1.57198E+01 5.18656E+03
 -1      1392 2.62603E+02-1.59997E+01 4.95708E+03
 -1      1393 4.64104E+02-9.86142E+01 4.40769E+03
 -1      1394 6.62584E+02-2.38645E+02 3.55523E+03
 -1      1395 8.75243E+02-5.49886E+02 2.31375E+03
 -1      1396 9.68399E+02-8.29539E+02 8.60611E+02
 -1      1397-7.48180E+02-5.68504E+02 2.44346E+03
 -1      1398-5.50182E+02-2.16752E+02 4.19569E+03
 -1      1399-1.67876E+02-3.73826E+01 5.12011E+03
 -1      1400 2.50181E+02-5.16886E+01 5.01278E+03
 -1      1401 6.15607E+02-2.57194E+02 3.89033E+03
 -1      1402 7.90894E+02-6.66246E+02 2.00448E+03
 -1      1403-4.48711E+02-3.51526E+02 3.28426E+03
 -1      1404-4.66480E+02-3.07497E+02 3.88159E+03
 -1      1405-4.15925E+02-1.72529E+02 4.45546E+03
 -1      1406-2.87955E+02-8.44372E+01 4.91135E+03
 -1      1407-1.33588E+02-3.35346E+01 5.18792E+03
 -1      1408 3.56614E+01-2.07745E+01 5.24928E+03
 -1      1409 2.03951E+02-4.55816E+01 5.09744E+03
 -1      1410 3.53139E+02-1.08677E+02 4.73478E+03
 -1      1411 4.72340E+02-2.08040E+02 4.20268E+03
 -1      1412 5.17551E+02-3.50894E+02 3.56672E+03
 -1      1413 4.96113E+02-3.92833E+02 2.91011E+03
 -1      1414-3.16984E+02-1.58373E+02 3.73976E+03
 -1      1415-3.24688E+02-5.60089E+01 4.61143E+03
 -1      1416-1.08610E+02 3.62620E+01 5.19380E+03
 -1      1417 1.68046E+02 2.56076E+01 5.11804E+03
 -1      1418 3.75155E+02-8.34057E+01 4.39860E+03
 -1      1419 3.58435E+02-1.92424E+02 3.41239E+03
 -1      1420-2.41431E+02 3.28730E+01 3.90352E+03
 -1      1421-2.74707E+02 4.48188E+01 4.23862E+03
 -1      1422-2.67587E+02 8.69699E+01 4.60269E+03
 -1      1423-1.95747E+02 1.17915E+02 4.90263E+03
 -1      1424-9.45533E+01 1.34316E+02 5.09443E+03
 -1      1425 2.55547E+01 1.36929E+02 5.13727E+03
 -1      1426 1.44709E+02 1.25608E+02 5.03069E+03
 -1      1427 2.43060E+02 1.01475E+02 4.77788E+03
 -1      1428 3.12178E+02 6.43938E+01 4.42086E+03
 -1      1429 3.16434E+02 1.66814E+01 4.00356E+03
 -1      1430 2.81185E+02 2.28978E+00 3.61966E+03
 -1      1431-2.13469E+02 2.34666E+02 3.76541E+03
 -1      1432-2.44879E+02 2.43425E+02 4.39365E+03
 -1      1433-8.96164E+01 2.49576E+02 4.85067E+03
 -1      1434 1.32000E+02 2.42154E+02 4.79705E+03
 -1      1435 2.83446E+02 2.22792E+02 4.23869E+03
 -1      1436 2.49662E+02 2.07604E+02 3.51875E+03
 -1      1437-2.27707E+02 4.31946E+02 3.32789E+03
 -1      1438-2.60064E+02 4.24988E+02 3.64483E+03
 -1      1439-2.54691E+02 3.96922E+02 3.98886E+03
 -1      1440-1.88751E+02 3.76009E+02 4.27643E+03
 -1      1441-9.46836E+01 3.63178E+02 4.46386E+03
 -1      1442 1.78579E+01 3.56374E+02 4.51187E+03
 -1      1443 1.30085E+02 3.56392E+02 4.41901E+03
 -1      1444 2.22920E+02 3.62642E+02 4.18797E+03
 -1      1445 2.87286E+02 3.77475E+02 3.85849E+03
 -1      1446 2.91938E+02 4.00068E+02 3.47474E+03
 -1      1447 2.59382E+02 4.05300E+02 3.11784E+03
 -1      1448-2.85564E+02 6.09859E+02 2.60483E+03
 -1      1449-2.96737E+02 5.30541E+02 3.39404E+03
 -1      1450-1.09055E+02 4.55232E+02 3.93897E+03
 -1      1451 1.37846E+02 4.48690E+02 3.90241E+03
 -1      1452 3.23192E+02 5.11271E+02 3.28789E+03
 -1      1453 3.11287E+02 5.82679E+02 2.43401E+03
 -1      1454-3.92468E+02 7.79550E+02 1.62054E+03
 -1      1455-4.09070E+02 7.45078E+02 2.14194E+03
 -1      1456-3.69308E+02 6.36466E+02 2.64833E+03
 -1      1457-2.63472E+02 5.63725E+02 3.05774E+03
 -1      1458-1.33489E+02 5.18677E+02 3.31778E+03
 -1      1459 1.14162E+01 5.01715E+02 3.39510E+03
 -1      1460 1.56028E+02 5.12192E+02 3.28921E+03
 -1      1461 2.84897E+02 5.50759E+02 3.00169E+03
 -1      1462 3.89289E+02 6.17030E+02 2.56646E+03
 -1      1463 4.28162E+02 7.18638E+02 2.03583E+03
 -1      1464 4.11591E+02 7.50775E+02 1.49115E+03
 -1      1465-6.31056E+02 9.64414E+02 3.16939E+02
 -1      1466-4.78038E+02 6.75767E+02 1.80863E+03
 -1      1467-1.66502E+02 5.23153E+02 2.64376E+03
 -1      1468 1.82884E+02 5.16861E+02 2.62332E+03
 -1      1469 4.91002E+02 6.56168E+02 1.75095E+03
 -1      1470 6.39896E+02 9.33264E+02 2.34108E+02
 -1      1471-8.25309E+02 1.05476E+03-1.16550E+03
 -1      1472-7.13489E+02 8.92457E+02-1.23733E+01
 -1      1473-5.11273E+02 6.58790E+02 9.54548E+02
 -1      1474-3.44926E+02 5.51543E+02 1.60148E+03
 -1      1475-1.75776E+02 4.92221E+02 1.99823E+03
 -1      1476 7.47238E+00 4.71214E+02 2.12734E+03
 -1      1477 1.90225E+02 4.86130E+02 1.98536E+03
 -1      1478 3.58221E+02 5.39260E+02 1.57728E+03
 -1      1479 5.22221E+02 6.39667E+02 9.21294E+02
 -1      1480 7.17516E+02 8.63991E+02-4.80243E+01
 -1      1481 8.24025E+02 1.02331E+03-1.19891E+03
 -3
    1PSTEP                        18           1           1          
    1PGM                1.000000E+00                                  
    1PGK                1.381566E+12                                  
    1PHID                         -1                                  
    1PSUBC                         0                                  
    1PMODE                         5                                  
  100CL  105 187070.7844        1481                     2    5MODAL      1
 -4  STRESS      6    1
 -5  SXX         1    4    1    1
 -5  SYY         1    4    2    2
 -5  SZZ         1    4    3    3
 -5  SXY         1    4    1    2
 -5  SYZ         1    4    2    3
 -5  SZX         1    4    3    1
 -1         1-1.24145E+08-8.90313E+07-6.27160E+07-1.24749E+08 5.67577E+07 7.19998E+07
 -1         2-1.89253E+08-4.83127E+07 6.34045E+06-1.21008E+08-7.89681E+06 2.60368E+07
 -1         3-2.31306E+08-1.93851E+07-5.11368E+06-8.02621E+07 2.19871E+07 1.84404E+07
 -1         4-1.73959E+08 4.84292E+06-1.51705E+05-2.84635E+07 1.05593E+07 1.27353E+07
 -1         5-1.79875E+08 1.33737E+06 7.54709E+06-1.14038E+07 5.88682E+05-3.50991E+06
 -1         6-1.89082E+08-3.17876E+06-4.03557E+06 2.57824E+06 2.23966E+06-6.90017E+05
 -1         7-1.75937E+08 1.05068E+06 7.90789E+06 1.66448E+07 7.82157E+05 6.60406E+05
 -1         8-1.69239E+08 3.27004E+06-5.59230E+05 3.37882E+07 1.05658E+07-1.22584E+07
 -1         9-2.02903E+08-1.22579E+07 4.68721E+04 8.19160E+07 2.51682E+07-2.15042E+07
 -1        10-1.43596E+08-4.90854E+07 4.37798E+05 1.22030E+08-1.07280E+07-2.73920E+07
 -1        11-8.35663E+07-1.33257E+08-6.37953E+07 1.27073E+08 7.58445E+07-5.48414E+07
 -1        12-4.83215E+07-1.48321E+08 1.44352E+06-1.19309E+08 2.65766E+07-9.79904E+06
 -1        13-1.76856E+08-6.21628E+07-1.13791E+07-9.71919E+07 7.23204E+06-1.26370E+04
 -1        14-1.85446E+08-3.63436E+07 4.39835E+06-1.97532E+07-3.11664E+06-2.82664E+06
 -1        15-1.82049E+08-3.73610E+07 3.71450E+06 2.72449E+07-3.34611E+06 2.08366E+06
 -1        16-1.68151E+08-6.31187E+07-1.08135E+07 1.01376E+08 1.01370E+07 2.59389E+06
 -1        17-4.84799E+07-1.97088E+08 7.46558E+06 1.24323E+08 2.67932E+07 7.69252E+06
 -1        18-1.29958E+07-2.03208E+08-8.63056E+05-7.90953E+07 1.98432E+07 2.44518E+07
 -1        19-6.35565E+07-1.66399E+08-1.08170E+07-9.65683E+07-2.21804E+06 9.43906E+06
 -1        20-1.11891E+08-1.05624E+08 8.79784E+06-9.57804E+07 9.60039E+06 8.70211E+06
 -1        21-1.43573E+08-8.91456E+07 4.95020E+06-5.22967E+07 6.41360E+06-8.18228E+05
 -1        22-1.67133E+08-8.17871E+07-3.16608E+06-2.33904E+07 3.27233E+06 3.56728E+06
 -1        23-1.65243E+08-7.76360E+07-1.61049E+05 4.44050E+06 3.14873E+06 2.07330E+04
 -1        24-1.65003E+08-8.25943E+07-2.80175E+06 3.21856E+07 3.69589E+06-3.61012E+06
 -1        25-1.38515E+08-9.21663E+07 4.86471E+06 6.00029E+07 5.90725E+06-5.91201E+05
 -1        26-1.06117E+08-1.10538E+08 8.91718E+06 1.02349E+08 8.40553E+06-1.02794E+07
 -1        27-6.24448E+07-1.75235E+08-1.16939E+07 1.02651E+08-1.81399E+05-7.10409E+06
 -1        28-2.05785E+07-2.33494E+08-6.24913E+06 8.37150E+07 1.82108E+07-2.19768E+07
 -1        29 3.86935E+06-1.62425E+08-4.75257E+05-3.12958E+07 1.22838E+07 1.03854E+07
 -1        30-9.19292E+07-1.34706E+08 4.73514E+06-5.51346E+07 3.56908E+05 6.03352E+06
 -1        31-1.49427E+08-1.13782E+08-2.15437E+06-1.32364E+07-1.89602E+06 2.10771E+06
 -1        32-1.47693E+08-1.14706E+08-2.11761E+06 1.99589E+07-1.65736E+06-2.11788E+06
 -1        33-8.79725E+07-1.39032E+08 4.96200E+06 5.99176E+07-6.11736E+05-6.64490E+06
 -1        34 5.63422E+06-1.66362E+08-2.29313E+04 3.14971E+07 1.42046E+07-1.04433E+07
 -1        35 1.07600E+06-1.65365E+08 6.87446E+06-1.49761E+07-1.85536E+06 4.25317E+05
 -1        36-3.58443E+07-1.71454E+08 3.73622E+06-2.48221E+07-2.65981E+06-3.28638E+06
 -1        37-8.05927E+07-1.56845E+08-2.75970E+06-2.89647E+07 3.15902E+06 3.50492E+06
 -1        38-1.14192E+08-1.43031E+08-2.14387E+06-1.58853E+07 1.77273E+06-1.71404E+06
 -1        39-1.38487E+08-1.35770E+08 6.96206E+04-6.18277E+06 1.49355E+06 1.46215E+06
 -1        40-1.38528E+08-1.31830E+08 2.68125E+05 2.85248E+06 1.38613E+06 1.95472E+04
 -1        41-1.36734E+08-1.36887E+08 1.45069E+05 1.18043E+07 1.13607E+06-1.69536E+06
 -1        42-1.12277E+08-1.44547E+08-2.23580E+06 2.06894E+07 1.97605E+06 2.00511E+06
 -1        43-7.87575E+07-1.58817E+08-3.29775E+06 3.30062E+07 3.85425E+06-3.08591E+06
 -1        44-3.42431E+07-1.73992E+08 4.65027E+06 2.73106E+07-3.97127E+06 3.20683E+06
 -1        45 1.84925E+06-1.67813E+08 7.44598E+06 1.57113E+07-3.27400E+06-2.43215E+04
 -1        46-2.19230E+06-1.71072E+08-3.02095E+06-2.22250E+06 6.00620E+05 2.20900E+06
 -1        47-7.34052E+07-1.52333E+08-1.60244E+05-4.67048E+06 1.44766E+05 3.19938E+06
 -1        48-1.29901E+08-1.33570E+08 2.59781E+05 7.33174E+04 7.39580E+04 1.54576E+06
 -1        49-1.28756E+08-1.34081E+08 2.07423E+05 4.87926E+06 3.27874E+04-1.71275E+06
 -1        50-7.19635E+07-1.53230E+08-5.36012E+04 8.68771E+06 4.49482E+05-3.01056E+06
 -1        51-2.63214E+06-1.73139E+08-3.98559E+06 3.49175E+06 8.32786E+05-2.13747E+06
 -1        52 9.13958E+05-1.58289E+08 6.05776E+06 1.02060E+07 8.13359E+05 1.25022E+06
 -1        53-3.34517E+07-1.63392E+08 2.96296E+06 1.65656E+07 9.89256E+05-2.60448E+06
 -1        54-7.46104E+07-1.48774E+08-2.16452E+06 1.93285E+07-3.03094E+06 3.40284E+06
 -1        55-1.06556E+08-1.36021E+08-1.65812E+06 1.13849E+07-2.08965E+06-1.62073E+06
 -1        56-1.30196E+08-1.29632E+08-1.76412E+05 6.37725E+06-1.70646E+06 1.43134E+06
 -1        57-1.30589E+08-1.25390E+08 1.81893E+05 2.26444E+06-1.88850E+06 5.35417E+03
 -1        58-1.29497E+08-1.29710E+08-1.66478E+05-1.89587E+06-1.72609E+06-1.46099E+06
 -1        59-1.05422E+08-1.36251E+08-1.63838E+06-7.20166E+06-2.14979E+06 1.52533E+06
 -1        60-7.35028E+07-1.48956E+08-2.16496E+06-1.51626E+07-3.05742E+06-3.49833E+06
 -1        61-3.29901E+07-1.63110E+08 2.93334E+06-1.34977E+07 7.18148E+05 2.56681E+06
 -1        62 1.29441E+06-1.57489E+08 6.80397E+06-8.49092E+06 9.67814E+05-1.33344E+06
 -1        63 3.59668E+06-1.46775E+08-1.61765E+05 2.47096E+07-9.05864E+06 8.74207E+06
 -1        64-7.97657E+07-1.23058E+08 3.88285E+06 4.27409E+07 2.08402E+05 5.39392E+06
 -1        65-1.33162E+08-1.03865E+08-1.74877E+06 1.31113E+07 1.66813E+06 1.95144E+06
 -1        66-1.32515E+08-1.03796E+08-1.69359E+06-8.79089E+06 1.65365E+06-1.94214E+06
 -1        67-7.86057E+07-1.22762E+08 3.79628E+06-3.82772E+07 3.74386E+05-5.37590E+06
 -1        68 3.58543E+06-1.45844E+08-5.45582E+04-2.27097E+07-8.24793E+06-8.54032E+06
 -1        69-1.05428E+07-1.72332E+08-1.28130E+06 6.42435E+07-1.68647E+07 1.87838E+07
 -1        70-5.16395E+07-1.40631E+08-8.63841E+06 7.79466E+07 9.77032E+05 6.88854E+06
 -1        71-9.24015E+07-9.16748E+07 7.11086E+06 7.74587E+07-8.31536E+06 7.60620E+06
 -1        72-1.20870E+08-7.75842E+07 3.86171E+06 4.41262E+07-5.67461E+06-4.17454E+05
 -1        73-1.42522E+08-7.08766E+07-2.35572E+06 2.26157E+07-3.13144E+06 3.16232E+06
 -1        74-1.41809E+08-6.69677E+07-3.00262E+04 2.25975E+06-2.97035E+06 8.50548E+04
 -1        75-1.41792E+08-7.07055E+07-2.24671E+06-1.80816E+07-3.22318E+06-2.99721E+06
 -1        76-1.19728E+08-7.72759E+07 3.74759E+06-3.94795E+07-5.58022E+06 5.50147E+05
 -1        77-9.10210E+07-9.10041E+07 6.87825E+06-7.21521E+07-8.04228E+06-7.42348E+06
 -1        78-5.06168E+07-1.38621E+08-8.29826E+06-7.35748E+07 6.21369E+05-6.50460E+06
 -1        79-1.03055E+07-1.69929E+08-1.34075E+06-6.13745E+07-1.63562E+07-1.81360E+07
 -1        80-3.75907E+07-1.26892E+08 2.14633E+06 9.56263E+07-2.11806E+07-7.12791E+06
 -1        81-1.41084E+08-5.14807E+07-8.88627E+06 7.85541E+07-5.98592E+06-3.68134E+05
 -1        82-1.54096E+08-3.09783E+07 3.30120E+06 1.91943E+07 2.60961E+06-2.04870E+06
 -1        83-1.53406E+08-3.09962E+07 3.14587E+06-1.57549E+07 2.54284E+06 1.67413E+06
 -1        84-1.38321E+08-5.07464E+07-8.55235E+06-7.40227E+07-5.78899E+06 2.38595E+05
 -1        85-3.64757E+07-1.25417E+08 2.23609E+06-9.21514E+07-2.03491E+07 6.66814E+06
 -1        86-9.18546E+07-7.62274E+07-4.95854E+07 9.91781E+07-4.70246E+07 5.34508E+07
 -1        87-1.42699E+08-3.72942E+07 4.32986E+06 9.63860E+07 6.10201E+06 2.10783E+07
 -1        88-1.79796E+08-1.29220E+07-3.31751E+06 6.49985E+07-1.78440E+07 1.56131E+07
 -1        89-1.41281E+08 4.60656E+06 7.53884E+04 2.47028E+07-8.53893E+06 9.94626E+06
 -1        90-1.48341E+08 1.50855E+06 6.08380E+06 1.14775E+07-6.93866E+05-1.50569E+06
 -1        91-1.56981E+08-1.81380E+06-3.27224E+06 9.64684E+05-2.07122E+06 2.39077E+05
 -1        92-1.47697E+08 1.50087E+06 6.03644E+06-9.55184E+06-8.26219E+05 1.69339E+06
 -1        93-1.39838E+08 4.44466E+06 7.38643E+04-2.27210E+07-8.39332E+06-9.17731E+06
 -1        94-1.74951E+08-1.21473E+07-2.97889E+06-6.18915E+07-1.74275E+07-1.51466E+07
 -1        95-1.37276E+08-3.61608E+07 3.99613E+06-9.26945E+07 5.83362E+06-2.02388E+07
 -1        96-8.72144E+07-7.50657E+07-4.78543E+07-9.59061E+07-4.61298E+07-5.11267E+07
 -1        97-1.40049E+08-9.90581E+07-8.91419E+07-1.14194E+08 1.29150E+08 1.52038E+08
 -1        98-1.76494E+08-7.23701E+06 5.22223E+06-5.41091E+07 9.58611E+06 2.47758E+07
 -1        99-1.43429E+08 2.05988E+06 5.46814E+06-6.09407E+06 4.96317E+06 4.29311E+06
 -1       100-1.40166E+08 1.65525E+06 5.56739E+06 9.68332E+06 5.84882E+06-8.36778E+06
 -1       101-1.53021E+08-6.63993E+05 9.46807E+06 5.39840E+07 1.12524E+07-3.41957E+07
 -1       102-9.28275E+07-1.50692E+08-9.07329E+07 1.16123E+08 1.58514E+08-1.27098E+08
 -1       103-1.43860E+06-1.53297E+08 8.63234E+06-5.21862E+07 3.06403E+07 1.09993E+07
 -1       104-9.53569E+07-8.96062E+07 3.91978E+06-7.78427E+07 8.95600E+06 9.70563E+06
 -1       105-1.33146E+08-6.48153E+07-2.49376E+06-1.93205E+07 6.18350E+06 2.74793E+06
 -1       106-1.31650E+08-6.52005E+07-1.94532E+06 2.64497E+07 6.36454E+06-3.01383E+06
 -1       107-9.00078E+07-9.44257E+07 3.96341E+06 8.31410E+07 9.15281E+06-9.67354E+06
 -1       108-8.31558E+06-1.78438E+08 4.52141E+06 5.67121E+07 2.38516E+07-9.37305E+06
 -1       109 1.46691E+06-1.31843E+08 4.74826E+06-8.67675E+06 5.84259E+06 5.38655E+06
 -1       110-6.37285E+07-1.25084E+08-1.92653E+06-2.37567E+07 1.98845E+06 6.64248E+06
 -1       111-1.11866E+08-1.09592E+08-6.33320E+05-4.90160E+06 1.46760E+06 2.16786E+06
 -1       112-1.10411E+08-1.10564E+08-5.75669E+05 9.41721E+06 1.30335E+06-2.41968E+06
 -1       113-6.24148E+07-1.26387E+08-2.50184E+06 2.69744E+07 2.13487E+06-6.43044E+06
 -1       114 2.07840E+06-1.34342E+08 5.27764E+06 9.18826E+06 5.61416E+06-4.55694E+06
 -1       115 1.82441E+06-1.25590E+08 4.58945E+06 5.60221E+06-5.99544E+06 4.91283E+06
 -1       116-5.92838E+07-1.18851E+08-1.64403E+06 1.60288E+07-3.30753E+06 6.28490E+06
 -1       117-1.05068E+08-1.04654E+08-7.13634E+05 5.06378E+06-3.05111E+06 2.16453E+06
 -1       118-1.04521E+08-1.04707E+08-6.93633E+05-1.44704E+06-3.10245E+06-2.22551E+06
 -1       119-5.83568E+07-1.18977E+08-1.60193E+06-1.26820E+07-3.35143E+06-6.24179E+06
 -1       120 2.09234E+06-1.25160E+08 5.20277E+06-4.37217E+06-5.60038E+06-4.93704E+06
 -1       121-1.63743E+06-1.30913E+08 6.47977E+06 4.29476E+07-2.61128E+07 8.58680E+06
 -1       122-7.81920E+07-7.73920E+07 3.46408E+06 6.29294E+07-8.95248E+06 8.42076E+06
 -1       123-1.13714E+08-5.63560E+07-1.75150E+06 1.85811E+07-6.40685E+06 2.55475E+06
 -1       124-1.13155E+08-5.62386E+07-1.67127E+06-1.49315E+07-6.43471E+06-2.57078E+06
 -1       125-7.69448E+07-7.67561E+07 3.34330E+06-5.86191E+07-8.91131E+06-8.34600E+06
 -1       126-1.67471E+06-1.29214E+08 6.22049E+06-4.10959E+07-2.48717E+07-8.32605E+06
 -1       127-1.01283E+08-8.31228E+07-7.01883E+07 8.89246E+07-1.05302E+08 1.14910E+08
 -1       128-1.37236E+08-3.90342E+06 4.89959E+06 4.39355E+07-7.98161E+06 2.24535E+07
 -1       129-1.18254E+08 1.94090E+06 4.54173E+06 6.57998E+06-4.32796E+06 5.53665E+06
 -1       130-1.17651E+08 1.98885E+06 4.55664E+06-5.25305E+06-4.36398E+06-4.70284E+06
 -1       131-1.33433E+08-3.39312E+06 4.95933E+06-4.17784E+07-7.88707E+06-2.17702E+07
 -1       132-9.59100E+07-8.17993E+07-6.77128E+07-8.59848E+07-1.02890E+08-1.10310E+08
 -1       133-2.36887E+08-1.88547E+08-2.79398E+08-1.16393E+08 3.49402E+08 4.08252E+08
 -1       134-1.63576E+08-4.11906E+07 3.38538E+06-8.20881E+07 3.55105E+07 1.02701E+08
 -1       135-1.36749E+08-3.55237E+06-6.50383E+06-3.11043E+07 1.94864E+07 6.02390E+07
 -1       136-7.69798E+07 2.56252E+07 2.99035E+07-8.70421E+06 2.06887E+06 2.64814E+07
 -1       137-1.17435E+08-6.41274E+06-1.85278E+07-8.28714E+05 1.38042E+07 2.13611E+07
 -1       138-1.06271E+08-1.32575E+06-1.04199E+07 8.36407E+05 1.19085E+07-2.14651E+06
 -1       139-1.13596E+08-5.53575E+06-1.41582E+07 2.80970E+06 1.82476E+07-2.55257E+07
 -1       140-7.71906E+07 2.36876E+07 2.63643E+07 1.23065E+07-1.54575E+06-3.47037E+07
 -1       141-1.13767E+08 6.85229E+06 5.82390E+06 3.00213E+07 2.19739E+07-7.21913E+07
 -1       142-1.15705E+08-4.57249E+07-1.25632E+07 8.11696E+07 4.18313E+07-1.08816E+08
 -1       143-1.82388E+08-2.50556E+08-2.84127E+08 1.18156E+08 4.25323E+08-3.44264E+08
 -1       144-4.42367E+07-1.21087E+08-9.70896E+06-7.98517E+07 1.05277E+08 4.07981E+07
 -1       145-1.11614E+08-4.57482E+07-3.59152E+07-5.22028E+07 1.84702E+07 3.27059E+07
 -1       146-1.17296E+08-2.46816E+07 6.04227E+05-9.92883E+06 1.58544E+06-4.35482E+05
 -1       147-1.14235E+08-2.48675E+07 5.76080E+05 1.42901E+07 1.25639E+06-1.69025E+06
 -1       148-1.10113E+08-4.75632E+07-3.34737E+07 5.24223E+07 2.72389E+07-2.85046E+07
 -1       149-4.09772E+07-1.72572E+08 6.07620E+06 8.41793E+07 1.04502E+08-3.48750E+07
 -1       150 5.70126E+06-1.14405E+08 4.42383E+06-2.90301E+07 6.68932E+07 2.16059E+07
 -1       151-4.76474E+07-1.08308E+08-3.36318E+07-5.00456E+07 2.76630E+07 2.59097E+07
 -1       152-6.31433E+07-5.80339E+07 3.52952E+07-6.04927E+07-7.23575E+06-9.16612E+06
 -1       153-8.52628E+07-5.34164E+07 6.82006E+06-3.42696E+07 6.72170E+06-4.57694E+06
 -1       154-9.94730E+07-4.84870E+07-2.51343E+06-1.53650E+07 1.05212E+07 7.17554E+06
 -1       155-1.01274E+08-4.80490E+07-5.04722E+06 2.79765E+06 1.27927E+07 1.25035E+05
 -1       156-9.87216E+07-4.87452E+07-2.51059E+06 2.09157E+07 1.13973E+07-7.50530E+06
 -1       157-8.27689E+07-5.58345E+07 7.78099E+06 3.82664E+07 6.29045E+06 3.13900E+06
 -1       158-5.80645E+07-6.24302E+07 3.58399E+07 6.45725E+07-1.09445E+07 6.04364E+06
 -1       159-4.60549E+07-1.10242E+08-3.70499E+07 5.56619E+07 3.27727E+07-1.77777E+07
 -1       160-5.08755E+06-1.39122E+08-8.21456E+06 3.28389E+07 5.98553E+07-1.90881E+07
 -1       161 2.36932E+07-7.30326E+07 2.61925E+07-1.10287E+07 3.10575E+07-9.46042E+05
 -1       162-5.56673E+07-8.02027E+07 7.43415E+06-3.53605E+07-4.31467E+06 7.38343E+06
 -1       163-8.94935E+07-6.72510E+07-3.13729E+05-8.06720E+06 2.64042E+05 2.96125E+06
 -1       164-8.86337E+07-6.78731E+07-1.22199E+05 1.19771E+07 5.14153E+05-3.26547E+06
 -1       165-5.26496E+07-8.23122E+07 6.68874E+06 3.90638E+07-5.68459E+06-7.70341E+06
 -1       166 2.62294E+07-7.19489E+07 3.08628E+07 9.74586E+06 2.85294E+07-2.49769E+06
 -1       167-6.20124E+06-1.07663E+08-1.59682E+07-2.43908E+06 2.14620E+07 1.68630E+07
 -1       168-2.40077E+07-1.07643E+08 1.22818E+06-1.29209E+07-2.55358E+05 1.52553E+06
 -1       169-4.79909E+07-9.40595E+07-3.08332E+06-1.87397E+07 5.28020E+06 1.21583E+07
 -1       170-6.76243E+07-8.58089E+07-2.14811E+05-9.55986E+06 1.44213E+06 1.45927E+06
 -1       171-8.61098E+07-8.43100E+07-2.27765E+06-3.52321E+06 2.15234E+06 3.43273E+06
 -1       172-8.38786E+07-8.09523E+07-1.04188E+06 1.70546E+06 1.43774E+06-1.54317E+04
 -1       173-8.49958E+07-8.51396E+07-2.29767E+06 6.92543E+06 2.01454E+06-3.72758E+06
 -1       174-6.63832E+07-8.64823E+07-2.69878E+05 1.26526E+07 1.39621E+06-1.32975E+06
 -1       175-4.69440E+07-9.45822E+07-3.07712E+06 2.11165E+07 5.67692E+06-1.15539E+07
 -1       176-2.36227E+07-1.10455E+08 1.14181E+06 1.41489E+07-1.56038E+06-1.45640E+06
 -1       177-7.37146E+06-1.11622E+08-2.04043E+07 2.90727E+06 2.44858E+07-1.30453E+07
 -1       178-6.06824E+05-9.60971E+07-8.46472E+06-9.24642E+05 1.70389E+06 1.12160E+07
 -1       179-4.53181E+07-9.31468E+07-4.33625E+06-2.81481E+06-8.05507E+05 1.29584E+07
 -1       180-7.97926E+07-8.08566E+07-9.90417E+05 6.26454E+04-1.27165E+06 2.89347E+06
 -1       181-7.89958E+07-8.10747E+07-9.71451E+05 2.96732E+06-1.25307E+06-3.13683E+06
 -1       182-4.47117E+07-9.39300E+07-4.35338E+06 5.21867E+06-4.82311E+05-1.24979E+07
 -1       183-9.19527E+05-9.75597E+07-9.40793E+06 1.74792E+06 3.53569E+06-1.02998E+07
 -1       184-3.25819E+06-1.00237E+08-1.07392E+07 9.64094E+05-1.92637E+07 1.34462E+07
 -1       185-2.22953E+07-1.02357E+08 1.29047E+05 8.47570E+06-2.62700E+06 2.14980E+06
 -1       186-4.43044E+07-8.89862E+07-1.45040E+06 1.28257E+07-7.67951E+06 1.03773E+07
 -1       187-6.33500E+07-8.18210E+07-2.52014E+05 6.84551E+06-4.56849E+06 1.32037E+06
 -1       188-8.06328E+07-8.03434E+07-1.89395E+06 3.66946E+06-4.97429E+06 3.49697E+06
 -1       189-7.89067E+07-7.69327E+07-9.07144E+05 1.38403E+06-4.55811E+06-2.22799E+04
 -1       190-8.02360E+07-8.03932E+07-1.89857E+06-9.25196E+05-5.00755E+06-3.59211E+06
 -1       191-6.26896E+07-8.19254E+07-1.49015E+05-4.30201E+06-4.75383E+06-1.40027E+06
 -1       192-4.34335E+07-8.89110E+07-1.07533E+06-1.02831E+07-7.98950E+06-1.03526E+07
 -1       193-2.21564E+07-1.02412E+08-4.00052E+05-6.73532E+06-2.47384E+06-1.87768E+06
 -1       194-2.86013E+06-9.99469E+07-9.51750E+06-2.36688E+05-1.84899E+07-1.34731E+07
 -1       195 1.93765E+07-6.83493E+07 2.15038E+07 8.58305E+06-2.54409E+07 6.88310E+05
 -1       196-4.81151E+07-7.34605E+07 6.05131E+06 2.75493E+07 1.56228E+06 7.19859E+06
 -1       197-7.99746E+07-6.17589E+07-2.26728E+05 7.97640E+06-2.32759E+06 2.94612E+06
 -1       198-7.96298E+07-6.17515E+07-2.20154E+05-5.34745E+06-2.31257E+06-3.12904E+06
 -1       199-4.73481E+07-7.33120E+07 5.91293E+06-2.47724E+07 1.40868E+06-7.32713E+06
 -1       200 1.91059E+07-6.80640E+07 2.14130E+07-7.74450E+06-2.36675E+07-1.18750E+06
 -1       201 2.93320E+06-9.89750E+07 1.50615E+06 2.45526E+07-5.54532E+07 1.67163E+07
 -1       202-3.84233E+07-9.08856E+07-2.63974E+07 4.10619E+07-2.46168E+07 1.83917E+07
 -1       203-5.20143E+07-5.11125E+07 2.74113E+07 4.89118E+07 2.55143E+06-4.60607E+06
 -1       204-7.18202E+07-4.66079E+07 5.68643E+06 2.86339E+07-8.23468E+06-2.90160E+06
 -1       205-8.52021E+07-4.23146E+07-1.89544E+06 1.46651E+07-1.10853E+07 6.08368E+06
 -1       206-8.67703E+07-4.15947E+07-3.66928E+06 1.38477E+06-1.24254E+07 1.17113E+04
 -1       207-8.47488E+07-4.21774E+07-1.69104E+06-1.18805E+07-1.10401E+07-6.15974E+06
 -1       208-7.11763E+07-4.64405E+07 5.55492E+06-2.57016E+07-8.29904E+06 2.67787E+06
 -1       209-5.13131E+07-5.09306E+07 2.64137E+07-4.55645E+07 2.23570E+06 4.01594E+06
 -1       210-3.75483E+07-8.93369E+07-2.54907E+07-3.87490E+07-2.43667E+07-1.75974E+07
 -1       211 2.48579E+06-9.79817E+07 7.31140E+05-2.35611E+07-5.27839E+07-1.60379E+07
 -1       212-3.27965E+07-1.02720E+08-5.36831E+06 6.27019E+07-8.50903E+07 3.15969E+07
 -1       213-8.98860E+07-3.80962E+07-2.75258E+07 4.21923E+07-1.57295E+07 2.53186E+07
 -1       214-9.70823E+07-2.11242E+07 4.43891E+05 9.89157E+06-1.98948E+06 7.91359E+05
 -1       215-9.65689E+07-2.10981E+07 2.78280E+05-7.97130E+06-2.02983E+06-8.62757E+05
 -1       216-8.81765E+07-3.74642E+07-2.64983E+07-3.96010E+07-1.55745E+07-2.45988E+07
 -1       217-3.15709E+07-1.01555E+08-4.70230E+06-6.05739E+07-8.18465E+07-3.05448E+07
 -1       218-1.73660E+08-1.52283E+08-2.19414E+08 8.86634E+07-2.79470E+08 3.04386E+08
 -1       219-1.19830E+08-3.12033E+07 5.15052E+05 6.36340E+07-2.94952E+07 8.36436E+07
 -1       220-1.05650E+08-6.50135E+05-2.76726E+06 2.55085E+07-1.56007E+07 5.08592E+07
 -1       221-6.41194E+07 2.01538E+07 2.29258E+07 8.08987E+06-1.99252E+06 2.39905E+07
 -1       222-9.59442E+07-4.24245E+06-1.29328E+07 1.79959E+06-1.18140E+07 1.97391E+07
 -1       223-8.85713E+07-3.34212E+05-7.76856E+06 4.32676E+05-9.31423E+06 9.92776E+05
 -1       224-9.51086E+07-3.84125E+06-1.20678E+07-1.01546E+06-1.17858E+07-1.78368E+07
 -1       225-6.38510E+07 1.96180E+07 2.21800E+07-7.35851E+06-2.02547E+06-2.22756E+07
 -1       226-1.02429E+08-5.48925E+04-2.18329E+06-2.42131E+07-1.54067E+07-4.90307E+07
 -1       227-1.14582E+08-3.03132E+07-1.25145E+05-6.12693E+07-2.89826E+07-8.06243E+07
 -1       228-1.65429E+08-1.48830E+08-2.11791E+08-8.57354E+07-2.73006E+08-2.92193E+08
 -1       229-7.13318E+08-6.22737E+08-5.69958E+08-3.09094E+08 5.99773E+08 6.95401E+08
 -1       230-5.46253E+07 3.30427E+07-1.73095E+07 1.07247E+07 1.54928E+07 6.63531E+07
 -1       231-8.22582E+07-2.01577E+07-3.40420E+07-2.41016E+06 2.68492E+07 3.77151E+07
 -1       232-8.31034E+07-2.54506E+07-2.88439E+07 1.03598E+06 3.37786E+07-4.19280E+07
 -1       233-3.83206E+07 5.50126E+07 2.71093E+06-1.13825E+07 1.84023E+07-8.04809E+07
 -1       234-6.15349E+08-7.41931E+08-5.79555E+08 3.13757E+08 7.23474E+08-5.91898E+08
 -1       235 5.15646E+07-3.91175E+07 4.90852E+05 1.15931E+07 7.43297E+07 1.79143E+07
 -1       236-6.19439E+07-5.41476E+07 5.45474E+07-5.53268E+07-1.30344E+07-1.82969E+07
 -1       237-6.63206E+07-3.12966E+07-3.25445E+06-8.61705E+06 1.15022E+07 9.94611E+06
 -1       238-6.62763E+07-3.01230E+07-3.44228E+06 1.27328E+07 1.32454E+07-1.00872E+07
 -1       239-5.36560E+07-6.25522E+07 5.53677E+07 5.83120E+07-2.11513E+07 1.11109E+07
 -1       240 3.07834E+07-5.55354E+07-2.00654E+07-1.02421E+07 6.61002E+07-1.46863E+07
 -1       241-2.53601E+07-7.87690E+07-3.08690E+07-8.56315E+05 3.64774E+07 3.22157E+07
 -1       242-2.99601E+07-6.29998E+07-4.54556E+06-1.13793E+07 7.15823E+06 1.40243E+07
 -1       243-5.76769E+07-5.64051E+07-1.35309E+06-1.93876E+06 3.24910E+06 4.83833E+06
 -1       244-5.68836E+07-5.70674E+07-1.43136E+06 4.22524E+06 2.96919E+06-5.19790E+06
 -1       245-3.00593E+07-6.28571E+07-4.30241E+06 1.25676E+07 8.26189E+06-1.28294E+07
 -1       246-2.21992E+07-7.88395E+07-3.69571E+07 4.09904E+06 4.15692E+07-2.64298E+07
 -1       247-1.52933E+07-7.08077E+07-2.18311E+07 7.79293E+05-3.20056E+07 2.41705E+07
 -1       248-2.85972E+07-5.97971E+07-1.71530E+06 7.41916E+06-1.01947E+07 1.18522E+07
 -1       249-5.40627E+07-5.38855E+07-1.03160E+06 2.15475E+06-6.63072E+06 4.71424E+06
 -1       250-5.38801E+07-5.39370E+07-1.10312E+06-2.90433E+05-6.60546E+06-4.81306E+06
 -1       251-2.76300E+07-5.97216E+07-9.91692E+05-5.66015E+06-1.07945E+07-1.20587E+07
 -1       252-1.52463E+07-7.08115E+07-2.03780E+07-7.95477E+05-3.09741E+07-2.38098E+07
 -1       253 3.45517E+07-3.93926E+07-2.84027E+06-7.01858E+06-6.21176E+07 1.47253E+07
 -1       254-4.83883E+07-4.60428E+07 4.19763E+07 4.39142E+07 6.67461E+06-1.04494E+07
 -1       255-5.69986E+07-2.71905E+07-2.46596E+06 8.64720E+06-1.27213E+07 8.46550E+06
 -1       256-5.67100E+07-2.71106E+07-2.13169E+06-6.79348E+06-1.27367E+07-8.51816E+06
 -1       257-4.74336E+07-4.57514E+07 4.03638E+07-4.13258E+07 6.38740E+06 9.53131E+06
 -1       258 3.28289E+07-3.96014E+07-3.97871E+06 7.06640E+06-5.89142E+07-1.41001E+07
 -1       259-5.25290E+08-4.85939E+08-4.45986E+08 2.32469E+08-4.75200E+08 5.15632E+08
 -1       260-4.37978E+07 2.75515E+07-9.71772E+06-6.71506E+06-1.31203E+07 5.67805E+07
 -1       261-6.77791E+07-1.61853E+07-2.50044E+07 2.31855E+06-2.22319E+07 3.26843E+07
 -1       262-6.71404E+07-1.54637E+07-2.36380E+07-1.73564E+06-2.19037E+07-3.00613E+07
 -1       263-4.24729E+07 2.74663E+07-8.67286E+06 6.78038E+06-1.31710E+07-5.46737E+07
 -1       264-5.03962E+08-4.73475E+08-4.30835E+08-2.24922E+08-4.63936E+08-4.95014E+08
 -1       265-9.75363E+08-2.50808E+09-9.75364E+08 9.75277E+06-5.21708E+08 4.76064E+02
 -1       266-7.72530E+08-1.98651E+09-7.72531E+08 2.35025E+07-3.38455E+08-2.43703E+02
 -1       267-5.97008E+08-1.53516E+09-5.97008E+08 3.19445E+07-2.90746E+08 9.77807E+01
 -1       268-4.67773E+08-1.20284E+09-4.67773E+08 1.77300E+07-1.25266E+08-4.04643E+02
 -1       269-3.64617E+08-9.37588E+08-3.64618E+08 3.74291E+06-1.15638E+08 2.40660E+02
 -1       270-2.99866E+08-7.71085E+08-2.99867E+08 7.40011E+06-8.60944E+07-1.51794E+02
 -1       271-2.37115E+08-6.09725E+08-2.37116E+08 1.32948E+07-7.68943E+07 1.59277E+02
 -1       272-2.13542E+08-5.49108E+08-2.13542E+08 1.68776E+06 1.06294E+07-4.83942E+01
 -1       273-2.31266E+08-5.94684E+08-2.31266E+08-1.14594E+07-9.13222E+07-2.42397E+02
 -1       274-3.00171E+08-7.71869E+08-3.00172E+08-1.18021E+07-9.11017E+07 4.32241E+02
 -1       275-3.80046E+08-9.77262E+08-3.80047E+08-1.11038E+07-1.57482E+08-3.37552E+02
 -1       276-4.97869E+08-1.28024E+09-4.97870E+08-1.59468E+07-1.79434E+08 2.11636E+02
 -1       277-6.34248E+08-1.63092E+09-6.34248E+08-2.93810E+07-3.11317E+08-7.36945E+01
 -1       278-8.15584E+08-2.09722E+09-8.15584E+08-2.37040E+07-3.65982E+08 3.09529E+02
 -1       279-1.01035E+09-2.59805E+09-1.01035E+09-5.47901E+06-5.44770E+08-4.06223E+02
 -1       280-6.81170E+08-1.86173E+09-5.54541E+08 3.01411E+08 3.32328E+07 9.74028E+07
 -1       281-4.51366E+08-1.17076E+09-2.91904E+08 2.03195E+08 3.27270E+07-3.10843E+07
 -1       282-2.97168E+08-7.76190E+08-1.85602E+08 1.00558E+08-1.61235E+06-2.11714E+07
 -1       283-1.90403E+08-5.11850E+08-7.11440E+07 8.03691E+07 3.59193E+06 2.93687E+06
 -1       284-2.03716E+08-4.89459E+08-7.73680E+07-7.14223E+07 6.15480E+06-3.24367E+06
 -1       285-2.89380E+08-7.75980E+08-2.01863E+08-1.30612E+08 7.61026E+06 2.12934E+07
 -1       286-4.89756E+08-1.22894E+09-3.33726E+08-2.14201E+08 3.40253E+07 3.82130E+07
 -1       287-6.76988E+08-1.91478E+09-5.70633E+08-2.89351E+08 1.23414E+07-1.13246E+08
 -1       288-6.84416E+07-1.36178E+08 2.57647E+08 5.59941E+08-5.03085E+08 5.98309E+05
 -1       289-1.04280E+08-1.56268E+08 2.46808E+08 4.56615E+08-3.32226E+08-7.75217E+06
 -1       290-1.10611E+08-1.32263E+08 2.56578E+08 3.41408E+08-1.72263E+08 2.27068E+07
 -1       291-1.59892E+08-2.57026E+08 1.60493E+08 2.51304E+08-1.59942E+08-9.56463E+06
 -1       292-1.47179E+08-3.28008E+08 9.68251E+07 1.73567E+08-4.85280E+07-1.26963E+07
 -1       293-8.91567E+07-3.56423E+08 1.15663E+08 1.58297E+08-6.17187E+07 1.78612E+07
 -1       294-1.63769E+08-4.23715E+08 8.64786E+07 1.45570E+08-3.51719E+07-5.78775E+06
 -1       295-2.96741E+08-4.07244E+08 4.50927E+07 1.56127E+07-1.04515E+08 1.02266E+07
 -1       296-1.89468E+08-3.29659E+08 8.80871E+07-1.45307E+08-8.70087E+06-4.40928E+06
 -1       297-1.17262E+08-2.56571E+08 1.08486E+08-1.81891E+08-1.01858E+08-3.41640E+06
 -1       298-9.34627E+07-2.12299E+08 1.07262E+08-2.10770E+08-1.30654E+08 2.30895E+07
 -1       299-8.42135E+07-1.23583E+08 1.85764E+08-2.88858E+08-1.70231E+08-2.23628E+07
 -1       300-1.22071E+08-9.25980E+07 2.34912E+08-3.72003E+08-2.27735E+08-8.35962E+06
 -1       301-8.03636E+07-1.25016E+08 2.45066E+08-4.61268E+08-3.47824E+08 2.81560E+07
 -1       302-6.02913E+06-1.19034E+08 2.75107E+08-5.41242E+08-5.25479E+08-3.47726E+07
 -1       303 2.33347E+08 1.39008E+09 3.11521E+08 2.99908E+08-6.99218E+07 4.44515E+07
 -1       304-1.41947E+08 5.30434E+08 7.33530E+07 1.21949E+08-2.35649E+07 1.84016E+07
 -1       305-9.37863E+07-6.71306E+07 7.06147E+07 3.87051E+07-1.06164E+07-1.13254E+07
 -1       306-8.28067E+07-3.05734E+08 4.32248E+06 7.24822E+07 3.44488E+07 4.35220E+06
 -1       307-6.61214E+07-1.81898E+08 4.05680E+07-5.11811E+07-6.28347E+06 1.76878E+07
 -1       308-7.24056E+07 2.51912E+08 5.80384E+07-4.00412E+07 4.49196E+07-2.15032E+07
 -1       309-1.27044E+07 6.45452E+08 1.07227E+08-2.31604E+08 9.50170E+06-3.41906E+07
 -1       310 2.53412E+08 1.43383E+09 3.14081E+08-3.14052E+08-3.21391E+07 2.28603E+07
 -1       311 9.90284E+07 1.18400E+08 8.95834E+07-9.01473E+08 2.11215E+08 1.60961E+08
 -1       312 2.70318E+08 6.10738E+08-3.94600E+07-7.08714E+08-1.42847E+08 2.43219E+08
 -1       313 1.31454E+08 1.34615E+09-1.87288E+08-3.02062E+08-6.26330E+07 9.40274E+07
 -1       314-1.93033E+08 1.19815E+09-2.16790E+08-7.36156E+07-8.03520E+07-2.23739E+07
 -1       315-2.74121E+08 9.39588E+08-2.09098E+08-4.87845E+07-5.97048E+07 3.39258E+07
 -1       316-2.34323E+08 1.59279E+08-2.17994E+08-1.82564E+08 1.59083E+07-3.52859E+07
 -1       317-8.47623E+07-7.81941E+07-4.41627E+07-9.67120E+07-6.29636E+07-7.70795E+07
 -1       318-1.90506E+07-1.35531E+08-5.49234E+07-3.02954E+07-5.14292E+07 3.13636E+07
 -1       319-1.92550E+07-1.90661E+08-8.35228E+07 1.59078E+07-1.06973E+08-5.14465E+07
 -1       320-9.84213E+07-2.14162E+08-1.00940E+08 1.19051E+08-6.27950E+07 4.52104E+07
 -1       321-7.67671E+07 5.76609E+07-1.00719E+08 1.40760E+08-3.14071E+07 9.49894E+06
 -1       322-1.63400E+08 5.67677E+08-6.41246E+07 9.39967E+07-8.58043E+06 1.63335E+07
 -1       323-1.36975E+08 7.76410E+08-1.27071E+08 7.89063E+06-7.11507E+07 3.84186E+07
 -1       324-3.03551E+07 9.63507E+08-1.73621E+08-4.93473E+07-1.11509E+08-1.66493E+07
 -1       325-4.67840E+07 1.19909E+09-2.08214E+08 4.80488E+07-8.41647E+07-1.27036E+07
 -1       326 1.33816E+08 1.45553E+09-1.81799E+08 2.69999E+08-5.97573E+07-3.42811E+07
 -1       327 2.65450E+08 6.74710E+08-3.73841E+07 7.28414E+08-1.30003E+08-2.48651E+08
 -1       328 1.26594E+08 1.08990E+08 9.15203E+07 9.28063E+08 1.52754E+08-2.13558E+08
 -1       329 6.33069E+08 2.52430E+08-3.65811E+07-6.94755E+08 2.42036E+08-1.24237E+08
 -1       330 4.85439E+08 1.16568E+09-7.82613E+06-1.26013E+08 7.77651E+07 2.91854E+07
 -1       331 5.50973E+08 1.79378E+09 3.06436E+08 3.37589E+08 1.15525E+08-5.26412E+07
 -1       332-5.61976E+07 7.32895E+08 5.39525E+07 2.14177E+08-1.48316E+08 1.04307E+08
 -1       333 8.05844E+07 1.45179E+09 1.12817E+08 2.48713E+07 8.90649E+06 7.46280E+06
 -1       334 4.94512E+08 1.19866E+09-1.26533E+07 1.30218E+08 5.81213E+06-7.35610E+07
 -1       335 6.17812E+08 2.94563E+08-4.07173E+07 7.20139E+08 2.55559E+08 1.42884E+08
 -1       336-2.49204E+09-9.69126E+08-9.69127E+08 6.29296E+06 4.03478E+02-5.25717E+08
 -1       337-1.83414E+09-6.49298E+08-5.46411E+08 2.83953E+08 1.07409E+08 9.88618E+06
 -1       338-1.15727E+08-7.64027E+06 2.63364E+08 5.28356E+08 3.30313E+07-5.05058E+08
 -1       339 1.36515E+09 2.46157E+08 3.01246E+08 3.10690E+08-2.06088E+07-3.32279E+07
 -1       340 1.38008E+09 1.34524E+08-1.73656E+08-2.44799E+08 3.12736E+07-5.96240E+07
 -1       341 1.13614E+09 4.83127E+08-1.51103E+07-1.04939E+08 7.11905E+07 8.24642E+06
 -1       342 5.71652E+08 5.82760E+08-1.60300E+07 1.45331E+08-7.55900E+06-4.01233E+07
 -1       343 4.08295E+08 7.66377E+08 6.89489E+06 3.60718E+08 3.54171E+08 1.39880E+08
 -1       344 5.69756E+08 7.10485E+08 5.37064E+07 4.89453E+08 1.95993E+08 1.90027E+08
 -1       345-2.35000E+08 3.53692E+08-6.04903E+07 4.79778E+08 8.25899E+07 1.69376E+08
 -1       346-4.24186E+08 7.77251E+08-4.67998E+07 4.45131E+08 2.17272E+08 9.53108E+07
 -1       347-1.90770E+08 1.18504E+09 8.08047E+07-9.90137E+07 1.89651E+08-1.08206E+08
 -1       348 6.16365E+07 9.23704E+08 3.76482E+06-2.47723E+08 3.27691E+08-3.00657E+07
 -1       349 5.90326E+08 5.99270E+08-1.35829E+07-1.26687E+08-3.85721E+07 1.54698E+06
 -1       350 1.16401E+09 5.17580E+08-1.14504E+07 1.37630E+08 2.74313E+07-7.51928E+07
 -1       351 1.36214E+09 1.76657E+08-1.87059E+08 3.04927E+08 8.46891E+07 6.38641E+07
 -1       352 1.42734E+09 2.78379E+08 3.30062E+08-3.23845E+08 3.89056E+07 7.12329E+07
 -1       353-1.19769E+08-4.01531E+07 2.78067E+08-6.04447E+08 1.28301E+06 5.27294E+08
 -1       354-1.89378E+09-6.92714E+08-5.62797E+08-3.28726E+08 8.20640E+07-2.76698E+07
 -1       355-2.56449E+09-9.97301E+08-9.97301E+08-1.50913E+07 3.92600E+02 5.37512E+08
 -1       356-1.99930E+09-7.77505E+08-7.77506E+08 2.34351E+07-3.13001E+02-3.50721E+08
 -1       357-1.19496E+08-7.76531E+07 2.33057E+08 4.54113E+08-2.67068E+07-3.30737E+08
 -1       358 1.14027E+09-3.99545E+07-1.96607E+08-3.07579E+07 1.00284E+07-7.69751E+07
 -1       359 8.81369E+08 5.63778E+07 1.46211E+06 2.51514E+08 3.70986E+07 3.10630E+08
 -1       360-8.79043E+08-1.24215E+09-3.73232E+08-3.44583E+08 7.42404E+07 1.39215E+08
 -1       361-8.54370E+08-9.77149E+08-2.37069E+08 2.40827E+08 8.79705E+07-1.09214E+07
 -1       362 7.76354E+08 4.22662E+08 6.36355E+06-3.27844E+08 1.49379E+08-3.42821E+08
 -1       363 1.18079E+09-1.46535E+08-2.15789E+08 7.37869E+07-1.94615E+07 7.76910E+07
 -1       364-1.48751E+08-7.68183E+07 2.39963E+08-5.18882E+08-9.05569E+06 3.27303E+08
 -1       365-1.98239E+09-7.70928E+08-7.70929E+08-2.60378E+07-1.90191E+02 3.42018E+08
 -1       366-1.53751E+09-5.97921E+08-5.97921E+08 2.87668E+07 9.42713E+01-2.95264E+08
 -1       367-1.15856E+09-4.62492E+08-3.14588E+08 2.12717E+08-3.68904E+07 3.11458E+07
 -1       368-8.53252E+07-1.17502E+08 2.21819E+08 3.70118E+08 7.35780E+06-2.14779E+08
 -1       369 6.12005E+08-1.51142E+07 1.00612E+08 2.37475E+08 3.39111E+07 8.29156E+06
 -1       370 9.10502E+08-3.34607E+07-1.66074E+08 6.55302E+07 2.07077E+07-1.08719E+08
 -1       371 1.37223E+09 7.49708E+07 1.07920E+08-9.76051E+06-9.12707E+06 1.22825E+07
 -1       372 1.12314E+09-1.78680E+08 8.14986E+07 9.94677E+07 1.11537E+08 1.76517E+08
 -1       373-9.29652E+08-8.76588E+08-2.24138E+08-2.56026E+08 6.83459E+06 7.65411E+07
 -1       374-1.54060E+09-1.37480E+09-3.56382E+08-7.67364E+08 5.34553E+08 6.39358E+08
 -1       375-3.42762E+08-1.81440E+08 6.61302E+07-1.68640E+08 3.38212E+07 7.19727E+07
 -1       376-2.02669E+04 5.15860E+07-8.36624E+07 5.17307E+07-9.40630E+06 8.97900E+07
 -1       377 4.69866E+04 5.36773E+07 1.38894E+06 1.66585E+07 1.61793E+07 5.12032E+07
 -1       378-2.48277E+07-1.29694E+07 6.46711E+06-3.93334E+06 1.22346E+07 1.82008E+07
 -1       379-5.25057E+07-2.19336E+07 4.03923E+06 6.41667E+04 1.34514E+07-4.56661E+06
 -1       380-3.41461E+07-2.80216E+07 3.83151E+06-8.15473E+05 9.27161E+06-2.90163E+07
 -1       381-1.08082E+06 6.40334E+07-4.19900E+05-1.08264E+07 1.79260E+07-5.66058E+07
 -1       382 2.86899E+06 7.85243E+07-7.49447E+07-5.13240E+07-1.12633E+07-9.95472E+07
 -1       383-2.59596E+08-2.01146E+08 6.39029E+07 1.76147E+08 4.38078E+07-1.11797E+08
 -1       384-1.34024E+09-1.60392E+09-3.63380E+08 7.76705E+08 6.62954E+08-5.29850E+08
 -1       385-1.16579E+09-9.02449E+08-3.60582E+08 3.82904E+08 1.54322E+08-6.80919E+07
 -1       386 7.28771E+08 5.96003E+08 5.88851E+07-4.33205E+08 1.95082E+08-1.71523E+08
 -1       387 1.74208E+09 5.77261E+08 2.96969E+08-3.02008E+08-5.89840E+07-1.07882E+08
 -1       388 8.67293E+08-2.34336E+08-2.15613E+08 4.53916E+07 2.12747E+07 5.99142E+07
 -1       389 4.86607E+08-8.74544E+07 5.70419E+07-1.63872E+08 3.13559E+07 3.16007E+07
 -1       390-1.29148E+08-7.80013E+07 2.25398E+08-4.27896E+08 7.81882E+06 1.64863E+08
 -1       391-1.11128E+09-4.19325E+08-2.86869E+08-2.55156E+08-4.09896E+07-3.65911E+07
 -1       392-1.45444E+09-5.65615E+08-5.65616E+08-3.34924E+07 1.99235E+02 2.57446E+08
 -1       393-1.19066E+09-4.63034E+08-4.63034E+08 1.61003E+07-2.33930E+02-1.66109E+08
 -1       394-1.09645E+08-8.19533E+07 1.73371E+08 2.89260E+08 2.23024E+07-1.59507E+08
 -1       395 7.30581E+08-1.37586E+08-1.19831E+08 9.71790E+06-3.51821E+07-6.60544E+07
 -1       396 7.30512E+08-4.11323E+08-4.37549E+07-4.14009E+08-8.65200E+07 2.02448E+08
 -1       397-1.94951E+08-2.68546E+08 6.48405E+07-1.72778E+08 1.02380E+08 4.22811E+07
 -1       398 8.40110E+05-3.27434E+07-6.19033E+07-2.00907E+06-1.37414E+07-9.20121E+06
 -1       399-4.30951E+07-1.30262E+07 7.37914E+06-5.36324E+06 6.24107E+06 9.45741E+06
 -1       400-4.12966E+07-1.49271E+07 7.65900E+06 6.06589E+06 7.17604E+06-1.11674E+07
 -1       401-2.15502E+07-4.76692E+07-7.15153E+07-5.92326E+06-1.98932E+07 7.24325E+03
 -1       402-1.81903E+08-3.62130E+08 6.50461E+07 1.70654E+08 6.81479E+07-3.27801E+07
 -1       403 6.89273E+07-1.91677E+08-1.74132E+08 1.98395E+08-8.85466E+06 7.37312E+06
 -1       404-2.81193E+08-1.25405E+08 1.49066E+08-3.75684E+08 1.18172E+07 1.28856E+08
 -1       405-9.93332E+08-3.86296E+08-3.86296E+08-2.53967E+07-6.15595E+02 1.16081E+08
 -1       406-8.90179E+08-3.46181E+08-3.46181E+08 1.15826E+07 3.17141E+02-1.44518E+08
 -1       407-7.05946E+08-2.64999E+08-1.84152E+08 1.31039E+08-2.26160E+07 7.65182E+06
 -1       408-1.86896E+08-8.64429E+07 9.88917E+07 2.12995E+08-2.12064E+07-1.20806E+08
 -1       409 2.39700E+08-7.50223E+07 5.37764E+07 5.28417E+07 1.97988E+07 4.10372E+07
 -1       410 5.29591E+08-1.66613E+08-5.84599E+07-7.27309E+07-1.48599E+07-4.99433E+06
 -1       411 6.79683E+08-6.42082E+07 5.06334E+07-1.92583E+08-1.00507E+08-1.35570E+08
 -1       412 3.24874E+08-2.29997E+08-5.67403E+07-4.50944E+08-1.62518E+08 7.98335E+07
 -1       413 7.31055E+07 2.26182E+06-7.68673E+07 5.08815E+07 9.32749E+07-1.05596E+07
 -1       414-4.53264E+07-1.75812E+07-7.00334E+07 5.19696E+06-3.02275E+06-1.81775E+07
 -1       415-7.67017E+07-6.63227E+07 2.59816E+07-4.89546E+07 3.42896E+07 4.03471E+07
 -1       416-7.37642E+06-1.69244E+07 2.07680E+07-1.29107E+07 1.62858E+07 5.06745E+06
 -1       417-3.46327E+07-1.55478E+07-6.10072E+06-2.44484E+06 1.10133E+07-3.67845E+05
 -1       418-4.26387E+07-1.52588E+07-1.10081E+07 1.60122E+06 1.02837E+07-6.24004E+05
 -1       419-3.46902E+07-1.24555E+07-5.25807E+06 5.18816E+06 1.08432E+07-1.33105E+06
 -1       420-1.25341E+07-2.32772E+07 1.88840E+07 1.09836E+07 1.83986E+07-2.90155E+06
 -1       421-6.57121E+07-7.90445E+07 2.59282E+07 5.08508E+07 3.99987E+07-3.54585E+07
 -1       422-3.08434E+07 5.64784E+06-6.14584E+07 4.24637E+06-1.23646E+07 1.26434E+07
 -1       423 4.95561E+07 1.30393E+06-8.50895E+07-5.25505E+07 9.08436E+07 9.52047E+06
 -1       424-2.24012E+08-1.24121E+08 1.58406E+07 1.57067E+08-1.07419E+08 1.52968E+08
 -1       425-2.78648E+08-1.31325E+08 6.30805E+07-1.00159E+08-2.28281E+07 1.26891E+07
 -1       426-4.38245E+08-2.32318E+08 5.46699E+07-3.35417E+08 6.98153E+06-7.83861E+06
 -1       427-5.22686E+08-2.15696E+08-8.55335E+07-1.83314E+08-7.21893E+06 1.48826E+06
 -1       428-5.83749E+08-2.27013E+08-2.27014E+08-1.75459E+07 3.84479E+02 6.68807E+07
 -1       429-6.79266E+08-2.64159E+08-2.64159E+08 1.12343E+07-3.88257E+02-7.78142E+07
 -1       430-2.28983E+08-1.06100E+08 9.46881E+07 1.84317E+08 1.29991E+06-9.05323E+07
 -1       431 5.53999E+07-8.14605E+07-8.80676E+07-1.24222E+08-8.41658E+06-3.00111E+07
 -1       432 6.11698E+07-3.15777E+05-1.93876E+05 1.21682E+07 5.21827E+07 1.76197E+07
 -1       433-2.25612E+07-1.13562E+07 1.84245E+07-1.05619E+07 1.84778E+06 1.92288E+07
 -1       434-3.28625E+07-2.42742E+07-2.09935E+06-3.96424E+06 8.73393E+05 4.28938E+06
 -1       435-3.30087E+07-2.53184E+07-2.15257E+06 5.22968E+06 5.76446E+05-5.02360E+06
 -1       436-1.56017E+07-5.19073E+06 2.08320E+07 1.49917E+07 4.31740E+06-1.71066E+07
 -1       437 5.19435E+07 2.38173E+06 2.97481E+06-1.77234E+07 5.50207E+07-1.55566E+07
 -1       438-2.78899E+08-2.72162E+08 3.55866E+07-2.11422E+08 5.37946E+07 7.77186E+07
 -1       439-3.62306E+08-1.40896E+08-1.40897E+08-1.01660E+07-2.40639E+02-1.40718E+07
 -1       440-4.95279E+08-1.92608E+08-1.92609E+08 1.03062E+07 2.24628E+02-7.21723E+07
 -1       441-4.15069E+08-1.71327E+08-6.33934E+07 7.70341E+07 1.14593E+06 3.36510E+06
 -1       442-2.94228E+08-1.66435E+08 7.26101E+07 1.53365E+08 5.20911E+06-2.02846E+06
 -1       443-1.76303E+08-6.73289E+07 3.18572E+07 5.32167E+07-1.84747E+07-6.71204E+06
 -1       444-2.02994E+08-9.83501E+07-8.58239E+07-1.09791E+08-4.48457E+07-5.57895E+07
 -1       445-2.51603E+07-2.91702E+07 6.69739E+06 8.08912E+05 2.33754E+07 9.56261E+06
 -1       446-1.39297E+07-3.91099E+07 9.27888E+06-5.57619E+06 7.90030E+06 7.58369E+06
 -1       447-1.27389E+07-3.27242E+07-6.47527E+06-4.61614E+06-1.22894E+06 1.17305E+07
 -1       448-2.52889E+07-3.20364E+07-2.58519E+06-4.28512E+06 2.39260E+06 2.16486E+06
 -1       449-2.88013E+07-2.80764E+07 9.75713E+05-1.26323E+05 1.95476E+06 4.08663E+06
 -1       450-2.99568E+07-2.81141E+07 7.56501E+05 5.49659E+05 2.29159E+06 4.44618E+04
 -1       451-2.82922E+07-2.85088E+07 9.43696E+05 1.29337E+06 2.04323E+06-4.28938E+06
 -1       452-2.44250E+07-3.20929E+07-2.58514E+06 5.67948E+06 1.97147E+06-2.37184E+06
 -1       453-1.43936E+07-3.24321E+07-6.96983E+06 4.59353E+06-2.37481E+06-1.15793E+07
 -1       454-1.20103E+07-4.04031E+07 9.24574E+06 6.58400E+06 8.18164E+06-6.99210E+06
 -1       455-1.38364E+07-2.12136E+07 8.37115E+06 5.32624E+06 2.14318E+07-1.20361E+07
 -1       456-1.30768E+08-2.07251E+08 4.26950E+07-4.73185E+07 1.40955E+07 4.47199E+06
 -1       457-1.69662E+08-1.07225E+08-8.85819E+06-2.51477E+07-1.44718E+07-1.15302E+07
 -1       458-2.42418E+08-9.42735E+07-9.42741E+07-2.08431E+06-4.66668E+01 9.12762E+07
 -1       459-4.32989E+08-1.68384E+08-1.68385E+08 7.26192E+05-1.51869E+01 8.41348E+06
 -1       460-3.21016E+08-2.47455E+08 3.16214E+07 2.29879E+07 3.94938E+06-8.44016E+07
 -1       461-2.02215E+07-4.65525E+07 2.57923E+06-1.94866E+06 2.58849E+06 1.24071E+07
 -1       462-1.36605E+07-3.80747E+07-8.78626E+06-1.04324E+06-1.63114E+06 1.11925E+07
 -1       463-2.79151E+07-2.90167E+07 3.47012E+05 1.04940E+04-1.97757E+06 4.45573E+06
 -1       464-2.74232E+07-2.88614E+07 4.57547E+05 1.08678E+06-1.85331E+06-4.64145E+06
 -1       465-1.52560E+07-3.98939E+07-9.71296E+06 1.30713E+06-2.03136E+06-1.12767E+07
 -1       466-1.80734E+07-4.88324E+07 1.82990E+06 2.73708E+06 3.75855E+06-1.24453E+07
 -1       467-1.75326E+08-1.71185E+08 3.79222E+07 7.35998E+07-3.43104E+07 5.54156E+07
 -1       468-2.55195E+08-9.92420E+07-9.92425E+07 5.16800E+06 1.84250E+02 1.55533E+06
 -1       469-4.57391E+08-1.77874E+08-1.77874E+08-8.11404E+06-2.02875E+02-6.97766E+07
 -1       470-3.77490E+08-1.54446E+08-5.89467E+07-5.23357E+07-7.96598E+06 3.86924E+06
 -1       471-2.57529E+08-1.40084E+08 6.86596E+07-1.05941E+08-1.57801E+06-8.92266E+06
 -1       472-1.40764E+08-3.99919E+07 3.22617E+07-3.54427E+07 9.87279E+06-3.04523E+06
 -1       473-1.58679E+08-6.20616E+07-7.60523E+07 8.56773E+07 2.75790E+07-4.77316E+07
 -1       474-1.55166E+07-2.90236E+07-9.06806E+05 4.96242E+05-2.09074E+07 9.59156E+06
 -1       475-1.27456E+07-3.76971E+07 3.13776E+06 4.22361E+06-1.06625E+07 5.89357E+06
 -1       476-1.35584E+07-3.12474E+07-2.71308E+06 2.48478E+06-3.27445E+06 1.19268E+07
 -1       477-2.26276E+07-2.97475E+07-9.58167E+05 3.15728E+06-6.73439E+06 2.29231E+06
 -1       478-2.74511E+07-2.73761E+07 2.72725E+05 4.45984E+05-6.31739E+06 4.14984E+06
 -1       479-2.81967E+07-2.68766E+07 7.19570E+04 5.17974E+05-6.69708E+06-8.18790E+04
 -1       480-2.74784E+07-2.74322E+07 1.49481E+05 5.34245E+05-6.42229E+06-4.38270E+06
 -1       481-2.25579E+07-2.98767E+07-8.65682E+05-2.36883E+06-6.84901E+06-2.19845E+06
 -1       482-1.26288E+07-3.12964E+07-2.05628E+06-1.49287E+06-3.44710E+06-1.18114E+07
 -1       483-1.24155E+07-3.71780E+07 2.73170E+06-3.47045E+06-1.08851E+07-5.96222E+06
 -1       484-1.66201E+07-3.02007E+07-1.31521E+06-1.26576E+06-1.85744E+07-9.14486E+06
 -1       485-1.61607E+08-5.20406E+07-5.01261E+07-7.93895E+07 2.51687E+07 4.38788E+07
 -1       486-1.66711E+08-3.64578E+07 1.42355E+07 4.10785E+07 6.64504E+06 4.19779E+06
 -1       487-2.44611E+08-1.02398E+08 3.53878E+07 1.47821E+08-3.24137E+06-2.73654E+05
 -1       488-2.99077E+08-1.12340E+08-4.89215E+07 8.02336E+07-6.85576E+06-3.62230E+05
 -1       489-3.36302E+08-1.30784E+08-1.30784E+08 7.56895E+06-1.99685E+02 3.37617E+07
 -1       490-5.84681E+08-2.27376E+08-2.27376E+08-8.25339E+06 3.21802E+02-7.14493E+07
 -1       491-1.99225E+08-7.82689E+07 8.39349E+07-1.26650E+08-2.76724E+06-7.45602E+07
 -1       492 3.53264E+07-4.01711E+07-7.62708E+07 1.03523E+08 9.29526E+06-2.62406E+07
 -1       493 4.79912E+07-2.27773E+06 5.15490E+06-9.11600E+06-4.38563E+07 1.43226E+07
 -1       494-1.88363E+07-1.24171E+07 1.36461E+07 8.77706E+06-4.35032E+06 1.67444E+07
 -1       495-2.92715E+07-2.23500E+07-1.38610E+06 3.67548E+06-3.73276E+06 4.18774E+06
 -1       496-2.91689E+07-2.23652E+07-1.32910E+06-2.73012E+06-3.74563E+06-4.46406E+06
 -1       497-1.78984E+07-1.21861E+07 1.35792E+07-7.76504E+06-4.36693E+06-1.65090E+07
 -1       498 4.57431E+07-2.39715E+06 5.41457E+06 8.94597E+06-4.11117E+07-1.38727E+07
 -1       499 3.14076E+07-2.45799E+07-5.78166E+07-8.90545E+07 1.29330E+07 3.10123E+07
 -1       500-1.84857E+08-5.07469E+07 6.67540E+07 1.45351E+08 1.04817E+06 6.17478E+07
 -1       501-4.99946E+08-1.94423E+08-1.94424E+08 8.07972E+06 2.59223E+02 5.94827E+07
 -1       502-7.28054E+08-2.83132E+08-2.83132E+08-7.71024E+06-2.30561E+02-1.12623E+08
 -1       503-5.77734E+08-2.12190E+08-1.49541E+08-8.88668E+07 1.51772E+07 5.73941E+06
 -1       504-1.65261E+08-6.11384E+07 7.98836E+07-1.41946E+08 1.63393E+07-9.69962E+07
 -1       505 1.69320E+08-3.93770E+07 4.02300E+07-1.95941E+07-1.58520E+07 3.35773E+07
 -1       506 3.97960E+08-9.78583E+07-5.15552E+07 7.88652E+07 1.05798E+07-1.01178E+07
 -1       507 5.25191E+08-2.85578E+07 4.19326E+07 1.61546E+08 7.04032E+07-1.10243E+08
 -1       508 2.64281E+08-1.53698E+08-2.77030E+07 3.38729E+08 1.23313E+08 5.24545E+07
 -1       509 5.44292E+07 1.38026E+06-4.51172E+07-3.75972E+07-7.81942E+07-7.26449E+06
 -1       510-3.17218E+07-1.24033E+07-4.66702E+07-1.61095E+06-8.97043E+05-1.19311E+07
 -1       511-5.84128E+07-5.46363E+07 1.64360E+07 3.80485E+07-3.12999E+07 3.17312E+07
 -1       512-9.63644E+06-1.60466E+07 1.40576E+07 1.01846E+07-1.69344E+07 3.87846E+06
 -1       513-2.94694E+07-1.26931E+07-3.58952E+06 3.07476E+06-1.23556E+07 8.53743E+05
 -1       514-3.61353E+07-1.40535E+07-7.79692E+06 4.53134E+05-1.20708E+07-5.69247E+04
 -1       515-2.93707E+07-1.27011E+07-3.26912E+06-2.13679E+06-1.24638E+07-1.11429E+06
 -1       516-1.00591E+07-1.61732E+07 1.35657E+07-8.99890E+06-1.69844E+07-3.84253E+06
 -1       517-5.67090E+07-5.37351E+07 1.56606E+07-3.62368E+07-3.09927E+07-3.09803E+07
 -1       518-3.02571E+07-1.17179E+07-4.46795E+07 1.62638E+06-9.25414E+05 1.12430E+07
 -1       519 5.24150E+07 1.18678E+06-4.37884E+07 3.67674E+07-7.49339E+07 6.57262E+06
 -1       520 2.45092E+08-1.44607E+08-2.52196E+07-3.26246E+08 1.15533E+08-4.82168E+07
 -1       521 4.89395E+08-2.42018E+07 3.90005E+07-1.52131E+08 6.57333E+07 1.04399E+08
 -1       522 3.66060E+08-8.51084E+07-5.04854E+07-6.48820E+07 7.48910E+06 5.76840E+06
 -1       523 1.56571E+08-2.89075E+07 3.76176E+07 3.44193E+07-1.33333E+07-2.95131E+07
 -1       524-1.42530E+08-4.32155E+07 8.08871E+07 1.53689E+08 1.34698E+07 9.24628E+07
 -1       525-5.28583E+08-1.93075E+08-1.35617E+08 9.52490E+07 2.12208E+07-7.68600E+06
 -1       526-6.72175E+08-2.61401E+08-2.61402E+08 9.74103E+06-1.90756E+02 1.00369E+08
 -1       527-9.32728E+08-3.62728E+08-3.62728E+08-1.06238E+07 1.13087E+02-1.31622E+08
 -1       528-9.88309E+07-5.50126E+07 1.33914E+08-1.91946E+08-1.56947E+07-1.20993E+08
 -1       529 5.48990E+08-7.57422E+07-8.62212E+07 1.80658E+07 2.58752E+07-4.95998E+07
 -1       530 5.41030E+08-2.99911E+08-3.96534E+07 3.15574E+08 6.72080E+07 1.55918E+08
 -1       531-1.49766E+08-2.21197E+08 3.07966E+07 1.29491E+08-8.01401E+07 3.37381E+07
 -1       532-3.58093E+06-2.65183E+07-4.38304E+07 1.57513E+06 9.45490E+06-3.87494E+06
 -1       533-3.55044E+07-1.12346E+07 4.82763E+06 4.59579E+06-6.44263E+06 8.71506E+06
 -1       534-3.52397E+07-1.11932E+07 4.43173E+06-3.90169E+06-6.35157E+06-8.55834E+06
 -1       535-4.80265E+06-2.64580E+07-4.26912E+07-8.62022E+05 9.19278E+06 3.07728E+06
 -1       536-1.44273E+08-2.17418E+08 2.96020E+07-1.25043E+08-7.57347E+07-3.26477E+07
 -1       537 5.14748E+08-2.78850E+08-3.70482E+07-3.02201E+08 6.43188E+07-1.46732E+08
 -1       538 5.19533E+08-6.52245E+07-8.27053E+07-8.94860E+06 2.23480E+07 4.60137E+07
 -1       539-8.85108E+07-4.89288E+07 1.27989E+08 1.99398E+08-1.66236E+07 1.14165E+08
 -1       540-8.82070E+08-3.43027E+08-3.43028E+08 1.15475E+07 1.37095E+02 1.24970E+08
 -1       541-1.16691E+09-4.53800E+08-4.53800E+08-1.99559E+07-2.74173E+01-2.20404E+08
 -1       542-8.79162E+08-3.47689E+08-2.38166E+08-1.42021E+08 2.79311E+07 2.43948E+07
 -1       543-7.37368E+07-8.26150E+07 1.66928E+08-2.45807E+08-4.13903E+06-1.62102E+08
 -1       544 4.44375E+08-6.56464E+06 7.70009E+07-1.45709E+08-2.54223E+07 8.66844E+06
 -1       545 6.74844E+08-1.66180E+07-1.17575E+08-2.12315E+07-1.69512E+07-7.06566E+07
 -1       546 1.02125E+09 7.67716E+07 7.86743E+07 1.98267E+07 1.75956E+07-5.19228E+06
 -1       547 8.30889E+08-7.71843E+07 5.53705E+07-7.78560E+07-4.78634E+07 1.21543E+08
 -1       548-6.55937E+08-6.07837E+08-1.90025E+08 9.39786E+07-8.58194E+07 1.22649E+08
 -1       549-1.10060E+09-1.00125E+09-3.00959E+08 5.02128E+08-4.46558E+08 4.80539E+08
 -1       550-2.52909E+08-1.43662E+08 3.09213E+07 1.27904E+08-3.04769E+07 6.63363E+07
 -1       551 1.37077E+06 4.61946E+07-4.85271E+07-3.81541E+07 6.65565E+06 7.47707E+07
 -1       552-2.87479E+05 4.33477E+07 6.74196E+06-1.13181E+07-1.32711E+07 4.37467E+07
 -1       553-2.43020E+07-1.36837E+07 1.64793E+06 2.82054E+06-9.75523E+06 1.90990E+07
 -1       554-4.38447E+07-1.57570E+07 1.75522E+05 3.15199E+05-1.13750E+07 1.33351E+06
 -1       555-2.47756E+07-1.34613E+07 1.35147E+06-2.41298E+06-9.59066E+06-1.67731E+07
 -1       556-8.73454E+05 4.24697E+07 6.51392E+06 1.08265E+07-1.32024E+07-4.07589E+07
 -1       557 1.18941E+06 4.56041E+07-4.64076E+07 3.70044E+07 6.19101E+06-7.17915E+07
 -1       558-2.41747E+08-1.39548E+08 2.96828E+07-1.23801E+08-3.01959E+07-6.49430E+07
 -1       559-1.05473E+09-9.77762E+08-2.91314E+08-4.88001E+08-4.35282E+08-4.61381E+08
 -1       560-6.24150E+08-5.86818E+08-1.82100E+08-1.02050E+08-8.64194E+07-1.15100E+08
 -1       561 7.95669E+08-5.93009E+07 5.33393E+07 7.05578E+07-4.80418E+07-1.14985E+08
 -1       562 9.75940E+08 8.30754E+07 7.47668E+07-1.62142E+07 1.80158E+07 4.99470E+06
 -1       563 6.47117E+08-1.01460E+07-1.12320E+08 2.81907E+07-1.58339E+07 6.82420E+07
 -1       564 4.28426E+08-1.47973E+06 7.42336E+07 1.50585E+08-2.48811E+07-8.21304E+06
 -1       565-7.01639E+07-7.84006E+07 1.58450E+08 2.48618E+08-2.50263E+06 1.55725E+08
 -1       566-8.42127E+08-3.32444E+08-2.28856E+08 1.43231E+08 2.76175E+07-2.22423E+07
 -1       567-1.11771E+09-4.34665E+08-4.34665E+08 1.95337E+07-4.63916E+01 2.12642E+08
 -1       568-1.47622E+09-5.74087E+08-5.74088E+08-1.53307E+07 1.83652E+02-2.54517E+08
 -1       569-9.38348E+07-5.59111E+07 1.73502E+08-3.09684E+08 1.79816E+07-2.43686E+08
 -1       570 8.25633E+08-3.80591E+07-1.53450E+08 5.03945E+07-3.19552E+06-6.58925E+07
 -1       571 6.12784E+08 5.36718E+07 5.80312E+06-1.72709E+08-6.66545E+07 2.38973E+08
 -1       572-6.41896E+08-5.77489E+08-1.76637E+08 1.49988E+08-1.04946E+08 1.08957E+08
 -1       573-6.13748E+08-5.62799E+08-1.72093E+08-1.45145E+08-1.01221E+08-1.03993E+08
 -1       574 5.92640E+08 6.33984E+07 5.91902E+06 1.61458E+08-6.64361E+07-2.29233E+08
 -1       575 7.97568E+08-3.08618E+07-1.47871E+08-4.39863E+07-2.50420E+06 6.24711E+07
 -1       576-9.02716E+07-5.36086E+07 1.67002E+08 3.08926E+08 1.74931E+07 2.35590E+08
 -1       577-1.42874E+09-5.55622E+08-5.55623E+08 1.52038E+07 1.85276E+02 2.47799E+08
 -1       578-1.81030E+09-7.04005E+08-7.04006E+08-2.60028E+06-2.68338E+02-3.73166E+08
 -1       579-1.33943E+09-4.74095E+08-3.97709E+08-1.94139E+08-7.81737E+07 9.96870E+06
 -1       580-8.99557E+07-7.93668E+06 1.92745E+08-3.65419E+08-2.09830E+07-3.64426E+08
 -1       581 1.00056E+09 1.81828E+08 2.18115E+08-2.06200E+08 1.13374E+07-1.86332E+07
 -1       582 1.01500E+09 1.10428E+08-1.30942E+08 1.96259E+08-3.35872E+07-3.73346E+07
 -1       583 8.30557E+08 3.28530E+08-1.45842E+06 1.08593E+08-4.26958E+07 3.09774E+06
 -1       584 3.44216E+08 3.24098E+08-1.88144E+07-5.56981E+07-6.29032E+06-2.56534E+06
 -1       585 9.98592E+07 5.63134E+08 5.79278E+06-1.55714E+08-2.19393E+08 9.36985E+07
 -1       586 6.96018E+06 7.29916E+08 5.25769E+07-6.14535E+07-9.63367E+07 5.34895E+07
 -1       587-2.42147E+08 4.54908E+08-2.83355E+07 2.66415E+08-1.23154E+08-5.77947E+07
 -1       588-1.26951E+08 1.92568E+08-3.69582E+06 2.92842E+08-3.47387E+07-1.02601E+08
 -1       589-1.22522E+08 1.90920E+08-4.28999E+06-2.88715E+08-3.36357E+07 1.00190E+08
 -1       590-2.34498E+08 4.48684E+08-2.78013E+07-2.64242E+08-1.21697E+08 5.76054E+07
 -1       591 4.68280E+06 7.19013E+08 5.05300E+07 5.73385E+07-9.59111E+07-5.18643E+07
 -1       592 9.80602E+07 5.55361E+08 5.55542E+06 1.48316E+08-2.14300E+08-8.76502E+07
 -1       593 3.37507E+08 3.23103E+08-1.77293E+07 4.98942E+07-5.42101E+06 1.50305E+06
 -1       594 8.04838E+08 3.25841E+08-1.97250E+06-1.06602E+08-4.07017E+07-3.97145E+06
 -1       595 9.83393E+08 1.13308E+08-1.27350E+08-1.88565E+08-3.19544E+07 3.73615E+07
 -1       596 9.72515E+08 1.80578E+08 2.12917E+08 2.04112E+08 1.14946E+07 1.91738E+07
 -1       597-8.53021E+07-6.58849E+06 1.88799E+08 3.61099E+08-2.06401E+07 3.55914E+08
 -1       598-1.30162E+09-4.61149E+08-3.86312E+08 1.92780E+08-7.48772E+07-8.72636E+06
 -1       599-1.76196E+09-6.85205E+08-6.85206E+08 3.15439E+06-2.64017E+02 3.64657E+08
 -1       600 4.73865E+08 1.92931E+08-2.96442E+07 5.02991E+08-1.75427E+08-8.06672E+07
 -1       601 3.47658E+08 7.74423E+08-4.49274E+06 9.26945E+07-9.55896E+06 3.77405E+07
 -1       602 1.09730E+08 9.00259E+08 7.17736E+07-1.24503E+07 2.01496E+06-2.41263E+07
 -1       603-3.59468E+07 3.76659E+08 2.75333E+07 1.10004E+08 8.34290E+07-5.73766E+07
 -1       604-3.32025E+07 3.72705E+08 2.70922E+07-1.10083E+08 8.27608E+07 5.57778E+07
 -1       605 1.07991E+08 8.85601E+08 7.02308E+07 8.25740E+06 2.27731E+06 2.26476E+07
 -1       606 3.39985E+08 7.62221E+08-4.35400E+06-9.47752E+07-9.21082E+06-3.71348E+07
 -1       607 4.60060E+08 1.90309E+08-2.91499E+07-4.88954E+08-1.72472E+08 7.87894E+07
 -1       608 5.76496E+07 6.57244E+07 4.79127E+07 6.48369E+08-1.05962E+08 8.97825E+07
 -1       609 1.92936E+08 4.39264E+08-3.20041E+07 4.79474E+08 7.99320E+07 1.82527E+08
 -1       610 1.39666E+08 9.50527E+08-1.26155E+08 1.68247E+08 4.46226E+07 2.98402E+07
 -1       611-1.45833E+07 7.57126E+08-1.41942E+08 1.54889E+07 5.11017E+07-2.43760E+06
 -1       612-9.21824E+06 5.85097E+08-1.07052E+08-7.35584E+07 5.72771E+07 2.53568E+07
 -1       613-4.43063E+07 4.82539E+08-6.82760E+07-4.89952E+07 5.20742E+07-1.93089E+07
 -1       614-1.02587E+08 3.98117E+08-3.09152E+07-1.69184E+07 5.61215E+06 4.73208E+06
 -1       615-9.99593E+07 3.92594E+08-3.05581E+07 1.30399E+07 6.28613E+06-4.81116E+06
 -1       616-4.28085E+07 4.74577E+08-6.72754E+07 4.44145E+07 5.16695E+07 1.93389E+07
 -1       617-7.61381E+06 5.75348E+08-1.04880E+08 6.82109E+07 5.59336E+07-2.37504E+07
 -1       618-1.43415E+07 7.44182E+08-1.39189E+08-1.82878E+07 5.06075E+07 1.74561E+06
 -1       619 1.35686E+08 9.34724E+08-1.23529E+08-1.67900E+08 4.40406E+07-2.92167E+07
 -1       620 1.90563E+08 4.33814E+08-3.08363E+07-4.71132E+08 7.83039E+07-1.78030E+08
 -1       621 5.87230E+07 6.50403E+07 4.65729E+07-6.33324E+08-1.00610E+08-8.81418E+07
 -1       622 1.94985E+08 9.54117E+08 2.16203E+08-2.28850E+08 2.19260E+07-1.11465E+07
 -1       623-9.95374E+05 3.93825E+08 5.92136E+07-1.87289E+08 6.59578E+06 2.31948E+07
 -1       624-8.36024E+07 1.25252E+08 2.87144E+07-7.98748E+07-5.78899E+07 2.68655E+07
 -1       625-8.11889E+07 1.21365E+08 2.81737E+07 7.49486E+07-5.60089E+07-2.64381E+07
 -1       626 5.33403E+04 3.86970E+08 5.83213E+07 1.80662E+08 6.71346E+06-2.23713E+07
 -1       627 1.90641E+08 9.36842E+08 2.11885E+08 2.22306E+08 2.08775E+07 1.14031E+07
 -1       628-2.87533E+06-8.42824E+07 1.95914E+08-3.87987E+08 3.63072E+08 1.93766E+07
 -1       629-4.48321E+07-8.16062E+07 1.58127E+08-3.43920E+08 2.24572E+08-1.76670E+07
 -1       630-5.78445E+07-4.64250E+07 1.37545E+08-2.91740E+08 1.35069E+08 2.64808E+06
 -1       631-3.31173E+07-8.75055E+07 1.23480E+08-2.45342E+08 1.08751E+08 2.05507E+07
 -1       632-9.31432E+07-2.25412E+08 5.85731E+07-2.19115E+08 6.48451E+07 3.55425E+06
 -1       633-1.60685E+08-1.88318E+08 1.52196E+07-1.76645E+08 5.08766E+07 4.22822E+07
 -1       634-1.36437E+08-8.28149E+07 1.67221E+07-8.74732E+07-4.67088E+06 1.33502E+07
 -1       635-1.22831E+08-5.71361E+07 2.75157E+07 2.76087E+05 3.18357E+07-1.26212E+05
 -1       636-1.35113E+08-8.26304E+07 1.67320E+07 8.78378E+07-4.16860E+06-1.32487E+07
 -1       637-1.56550E+08-1.86913E+08 1.58526E+07 1.74906E+08 5.04487E+07-4.22803E+07
 -1       638-8.94381E+07-2.24402E+08 5.84693E+07 2.14101E+08 6.48427E+07-3.76830E+06
 -1       639-3.08336E+07-8.73551E+07 1.21957E+08 2.38562E+08 1.07091E+08-2.00228E+07
 -1       640-5.60729E+07-4.56736E+07 1.35266E+08 2.83605E+08 1.32984E+08-2.66647E+06
 -1       641-4.36101E+07-7.98156E+07 1.55131E+08 3.34838E+08 2.20449E+08 1.74290E+07
 -1       642-2.07951E+06-8.20686E+07 1.92063E+08 3.78313E+08 3.55604E+08-1.91014E+07
 -1       643-4.57118E+08-1.28681E+09-3.78142E+08-2.09499E+08-4.08947E+06 6.80670E+07
 -1       644-3.04215E+08-7.78408E+08-2.19764E+08-1.70115E+08-2.26433E+07-2.94852E+07
 -1       645-1.44665E+08-3.81552E+08-7.34566E+07-1.33940E+08-2.19933E+06-1.37776E+07
 -1       646-6.37024E+07-9.22438E+07-4.60869E+06-4.47560E+07-3.38635E+06-3.61926E+06
 -1       647-6.36693E+07-9.27003E+07-4.93348E+06 4.49268E+07-3.53145E+06 3.06782E+06
 -1       648-1.42538E+08-3.79115E+08-7.28907E+07 1.31460E+08-2.36925E+06 1.34144E+07
 -1       649-2.99113E+08-7.65875E+08-2.16320E+08 1.65428E+08-2.25328E+07 2.89736E+07
 -1       650-4.47548E+08-1.26071E+09-3.70500E+08 2.03948E+08-4.28396E+06-6.69060E+07
 -1       651-6.82523E+08-1.75506E+09-6.82523E+08-6.69480E+06 3.74538E+08 2.92194E+02
 -1       652-5.40001E+08-1.38857E+09-5.40001E+08-1.73097E+07 2.46964E+08-2.21773E+02
 -1       653-4.03371E+08-1.03724E+09-4.03371E+08-2.16502E+07 1.94732E+08 1.23324E+02
 -1       654-2.83561E+08-7.29157E+08-2.83561E+08-1.68296E+07 1.02094E+08-2.82163E+02
 -1       655-1.72909E+08-4.44623E+08-1.72909E+08-1.69196E+07 5.59400E+07 1.58220E+02
 -1       656-9.87982E+07-2.54053E+08-9.87985E+07-1.01992E+07-7.22564E+05-1.61589E+02
 -1       657-4.81937E+07-1.23927E+08-4.81941E+07-1.71574E+06 5.18419E+07 1.72931E+01
 -1       658-3.89162E+07-1.00071E+08-3.89165E+07 6.25930E+03 2.12577E+06 7.57574E-01
 -1       659-4.84725E+07-1.24644E+08-4.84728E+07 1.71265E+06 5.14703E+07-1.86331E+01
 -1       660-9.86618E+07-2.53702E+08-9.86621E+07 1.02140E+07 2.49996E+04 1.60692E+02
 -1       661-1.71878E+08-4.41973E+08-1.71879E+08 1.67207E+07 5.47591E+07-1.50541E+02
 -1       662-2.80045E+08-7.20115E+08-2.80045E+08 1.64382E+07 1.01177E+08 2.73034E+02
 -1       663-3.96994E+08-1.02084E+09-3.96994E+08 2.10926E+07 1.91386E+08-1.17600E+02
 -1       664-5.29788E+08-1.36231E+09-5.29788E+08 1.68132E+07 2.42030E+08 2.14320E+02
 -1       665-6.68441E+08-1.71885E+09-6.68442E+08 6.31919E+06 3.66167E+08-2.83301E+02
 -1       666-7.71359E-05-1.80542E-04-9.42275E-05-3.06182E-05-5.16413E+08 2.29962E+02
 -1       667-3.97004E-05-1.02043E-04-3.99416E-05-8.28877E-08-2.85285E+08-4.17644E+02
 -1       668-8.47504E-06-2.03513E-05-1.01053E-05-9.06177E-07-1.11769E+08-2.99360E+02
 -1       669 9.43430E-06 1.99601E-05 1.38111E-05-7.48504E-06-7.26681E+07 1.90941E+01
 -1       670-8.36328E-06-2.20276E-05-7.85664E-06-1.18893E-05-8.73915E+07 1.23631E+02
 -1       671 2.04891E-08-1.17868E-05 1.19456E-05-7.10227E-06-1.54237E+08 3.52832E+02
 -1       672 1.69799E-05 2.91392E-05 3.16659E-05-7.93673E-06-3.06356E+08 3.30092E+02
 -1       673-1.18837E-05-1.19507E-05-3.00892E-05-5.18560E-06-5.39556E+08-2.62290E+02
 -1       674-2.14018E-05-1.51034E-04 3.26098E-05 4.45981E-06-5.08157E+08 7.61722E+05
 -1       675-3.23970E-05-8.41978E-05-4.71852E-05-4.11007E-06-1.75600E+08 2.19905E+07
 -1       676 1.09497E-05-2.11925E-05 2.16861E-05-8.04389E-06-4.85182E+07-1.33166E+07
 -1       677 4.24759E-05 4.34729E-05 6.50114E-05-1.59248E-05-3.39033E+07-5.64934E+06
 -1       678-1.36641E-06-1.52389E-05 3.51477E-05-3.03673E-06-7.46715E+06-4.96312E+06
 -1       679-7.83661E-06 2.24914E-06-7.41030E-06-1.35920E-05-1.32151E+08 2.36085E+07
 -1       680 3.56233E-05 4.13805E-05 1.19505E-04-1.42753E-05-2.31406E+08-7.37223E+06
 -1       681-2.69273E-05-6.91414E-06-1.44119E-04-1.36122E-05-5.30769E+08-3.45188E+07
 -1       682-2.86281E-04-1.84268E-04-8.97489E-04 2.20519E-05 2.00664E+08 1.50354E+08
 -1       683 7.60456E-06-6.15170E-06 1.24399E-04-4.54312E-05-6.48374E+07 9.28018E+07
 -1       684 1.05341E-04 8.18974E-06 3.03826E-04-5.57055E-06-6.72840E+07 3.84642E+07
 -1       685 5.75692E-05 2.66880E-05 7.88132E-05-1.86098E-05-6.68135E+07-7.39575E+07
 -1       686 3.57628E-05-6.70552E-06 6.15790E-06 8.02614E-06-1.11619E+08-5.18880E+07
 -1       687-2.35066E-06-2.54773E-05-7.74767E-06-1.42194E-05-6.69553E+07 4.24491E+07
 -1       688 1.73223E-05 2.42814E-05-2.20682E-05-8.36204E-06-1.22697E+07 1.25211E+07
 -1       689 5.02067E-05 4.50425E-05 1.68357E-04-1.50683E-05-1.15660E+08-2.04356E+07
 -1       690 1.30817E-04 1.44484E-04 3.73806E-04 1.90937E-05-6.18742E+07-3.27750E+07
 -1       691-1.98081E-04-2.15732E-04-6.36836E-04 2.58163E-05 1.41916E+08-2.02571E+08
 -1       692-2.13534E-04-8.60542E-05-9.33670E-05-3.56771E-05 2.27682E+02-5.20709E+08
 -1       693-4.69871E-05 8.16025E-05 2.58693E-04 1.27777E-05 3.27069E+07-5.10102E+08
 -1       694-4.49369E-05 9.34986E-05-1.20583E-04-1.81429E-05 2.98478E+07-6.17522E+07
 -1       695 2.66545E-05-9.66806E-06 1.79474E-04-4.22988E-05-4.03283E+06-3.76510E+07
 -1       696 7.95722E-05-1.24678E-04 3.04077E-04 3.10019E-05 2.05617E+08 1.90615E+08
 -1       697 1.06983E-04 1.15007E-04 4.82096E-04 7.52881E-06 8.40005E+07 1.67629E+08
 -1       698-1.23555E-06-8.61958E-05 4.17596E-05-9.11548E-06 1.97638E+08-1.10467E+08
 -1       699-1.13929E-05 4.19212E-05 1.23666E-04 3.72347E-05-3.59161E+07-1.99815E+06
 -1       700-1.18847E-04-1.45836E-04-2.41557E-04-3.87865E-06 8.36053E+07 6.61013E+07
 -1       701 4.67040E-05-4.64292E-05-9.04649E-05-6.06710E-06 6.19408E+05 5.32509E+08
 -1       702 2.49341E-04 1.91651E-04 4.38079E-04-4.35766E-06 1.56868E+02 5.32084E+08
 -1       703-6.75544E-05-2.19103E-05-1.04089E-05-3.52040E-06-3.36448E+02-2.90579E+08
 -1       704-4.42611E-05 4.71175E-05 1.02725E-04-2.23054E-05 6.32633E+06-2.18253E+08
 -1       705-1.30873E-04-1.16117E-05-1.63354E-04-6.39248E-06 2.43943E+07-1.12609E+08
 -1       706-2.44652E-05 3.44043E-05 1.20029E-04 4.56721E-05 1.13855E+08 1.84309E+08
 -1       707-2.76920E-04-3.22235E-04-4.67405E-05-2.11912E-04 4.53416E+08 5.57635E+08
 -1       708-8.02188E-05-3.72400E-05-1.64772E-04 1.93868E-05-4.85647E+06 1.31591E+08
 -1       709-2.22886E-05-2.99264E-05-1.25865E-04-6.75515E-06-1.12822E+07-6.99432E+06
 -1       710-6.14107E-05-7.59882E-05-2.31002E-04-5.15718E-06-2.37891E+07-9.30707E+06
 -1       711 5.39296E-05 3.74622E-05 5.62830E-05-1.11372E-05-9.41550E+06-1.30976E+08
 -1       712 1.03855E-04-2.84706E-04 1.02175E-04 7.59272E-05 5.77602E+08-4.50268E+08
 -1       713 2.53454E-04 1.51695E-04 3.54698E-04-2.90507E-05 1.95673E+08-1.81148E+08
 -1       714-1.09732E-04-2.25120E-04-4.84101E-04-8.47007E-06 2.66458E+07 6.70575E+07
 -1       715 4.75673E-05 4.59747E-06 6.66673E-05 1.16280E-05 7.14165E+06 1.68179E+08
 -1       716 1.30601E-04 1.00644E-04 2.28951E-04 6.38189E-06-4.57047E+02 2.52679E+08
 -1       717-3.05474E-05-1.08797E-05-8.01822E-06-3.76906E-06-3.59131E+02-1.41567E+08
 -1       718-4.24660E-05-2.35320E-05-1.26750E-04-1.91991E-05-2.18554E+07-1.22157E+08
 -1       719 3.30210E-05 3.60419E-05 3.61952E-05-1.56180E-05-1.11447E+07-8.33228E+06
 -1       720 7.66218E-05 3.50624E-05 1.38246E-04 7.30157E-07-1.60842E+08 8.11294E+07
 -1       721-2.80218E-06-4.22176E-05-2.85078E-05 3.73472E-06 1.25600E+08-7.96757E+06
 -1       722-1.67005E-05-2.08574E-05 2.38843E-06-1.91967E-05 7.30664E+07 8.95640E+07
 -1       723 4.53389E-05 4.21322E-05 1.72087E-04-2.56060E-06 1.09333E+07-8.55031E+06
 -1       724 1.32287E-04 1.12769E-04 3.11725E-04 1.80306E-06 8.90837E+06 5.25750E+06
 -1       725 2.15942E-05 2.20679E-05 1.09223E-04 8.37097E-06 9.17903E+07-7.32228E+07
 -1       726-2.15806E-05-6.80117E-05-6.92264E-05-2.87101E-06 1.35043E+08 3.84270E+06
 -1       727-8.33981E-05-7.27102E-05-1.36012E-04-1.49421E-05-9.88924E+07 1.55146E+08
 -1       728 5.54944E-06 7.57352E-06 9.39829E-06 3.42494E-06 5.93089E+06-9.83400E+06
 -1       729 4.20008E-05 3.38550E-05 7.93007E-05 7.96909E-06-2.57244E+02 6.27987E+07
 -1       730 1.72500E-05 8.44710E-06 1.31903E-05-1.50623E-05-1.31414E+02-6.87778E+07
 -1       731 3.88759E-05 2.37459E-05-2.01485E-05-1.90378E-05 5.38147E+06-9.06121E+05
 -1       732 1.74180E-04 1.35288E-04 4.25726E-04 6.92159E-06-4.21732E+07-5.92114E+07
 -1       733-6.08805E-05-5.41997E-05-1.32060E-04-1.32560E-06 4.49358E+06-2.23408E+07
 -1       734 2.91109E-05 4.10416E-05 1.65456E-04-6.39815E-06-7.39645E+06 9.90288E+06
 -1       735-9.29533E-05-9.46532E-05-3.40476E-04-7.60387E-06 3.59233E+05 2.64801E+06
 -1       736-4.70649E-05-1.61841E-05-7.00077E-05 2.72653E-06 7.94089E+05-2.65395E+06
 -1       737-6.92256E-05-7.75021E-05-2.46847E-04 8.02566E-06-1.06986E+07-1.07928E+07
 -1       738-3.66733E-05-2.00254E-05-1.95993E-05 1.44844E-06-4.56930E+06 1.21833E+07
 -1       739-6.53043E-06-2.81339E-05-3.71188E-05-3.60492E-06 1.31699E+07 2.15900E+06
 -1       740-3.10875E-06 1.31857E-05 4.98341E-05 1.80618E-05-1.52043E+02 8.89632E+07
 -1       741-1.17850E-05-2.74368E-06 1.86713E-06-1.45966E-05 4.26395E+01-6.67460E+07
 -1       742-3.77099E-05-2.43104E-05-2.96463E-06-1.22633E-05-2.11156E+06-7.99333E+06
 -1       743-7.56234E-07 4.04916E-05 3.60641E-05 1.06888E-05 2.55348E+07-5.10050E+07
 -1       744-3.56137E-05-3.57134E-05-1.48828E-04-4.05774E-06-4.59858E+06-1.08851E+07
 -1       745 2.92050E-05 4.00125E-05 1.20777E-04-4.06885E-06 2.23702E+06 1.18245E+07
 -1       746 3.75935E-05 2.10642E-05 7.62490E-05-2.22699E-06-5.10755E+06 3.07502E+06
 -1       747 1.57776E-05 1.73212E-05 6.53452E-05 4.75313E-06-5.34962E+06-3.44358E+06
 -1       748 1.78812E-05 1.35325E-05 1.41890E-05 7.73087E-06 2.51966E+06-1.13144E+07
 -1       749-1.60226E-05-1.66367E-05-1.81601E-05 6.40380E-06-1.05383E+06 1.09622E+07
 -1       750 4.49158E-05 1.69314E-05 7.04546E-05-4.10341E-06 2.28296E+07 4.59497E+07
 -1       751-7.76273E-05-7.65235E-05-2.31167E-05 4.47944E-05-3.26426E+06-1.07127E+06
 -1       752-1.46106E-05 1.20811E-05 5.72838E-05 1.75503E-05 5.76008E+01 3.15299E+07
 -1       753-1.77212E-05-7.48690E-06-8.97469E-06-1.04532E-05 2.46420E+02-1.10213E+08
 -1       754-1.21016E-05-1.11458E-05-2.60613E-05-1.53203E-05 1.65982E+07-9.81408E+07
 -1       755 6.54906E-06 3.53043E-05 1.55646E-04-2.72098E-05 8.03146E+06-1.28185E+07
 -1       756 9.30578E-05 1.43271E-04 3.05701E-04 8.95187E-06 1.21681E+08 5.37517E+07
 -1       757 3.03931E-05 5.68342E-05 2.71453E-05-1.15694E-05-1.04772E+08-6.86187E+06
 -1       758 1.61643E-06 1.09985E-05 3.45339E-05-3.66830E-06-6.21237E+07 6.67592E+07
 -1       759-3.83838E-05-5.69941E-05-1.72075E-04 8.22707E-06-1.18397E+07-5.19485E+06
 -1       760 1.10435E-05 1.52614E-05 7.23330E-05 3.91479E-06-1.19780E+07 4.81259E+06
 -1       761 5.44191E-05 4.48773E-05 1.25379E-04 1.73934E-05-6.13573E+07-6.45463E+07
 -1       762 8.73464E-06 2.27373E-05 4.97550E-05-6.33998E-06-1.01407E+08 5.77986E+06
 -1       763 7.01249E-05 9.09576E-05 3.14251E-04 9.09902E-07 1.13858E+08-4.94950E+07
 -1       764 1.65257E-05 7.51531E-06 1.33151E-04 1.64610E-05 4.89600E+06 8.28661E+06
 -1       765-5.68582E-05-9.44221E-05-2.40371E-04 2.70553E-05 1.40385E+07 9.35530E+07
 -1       766 5.58943E-05 5.10104E-05 1.26116E-04 1.27999E-05 2.92287E+02 9.81331E+07
 -1       767 1.39326E-06 8.31299E-06 2.82638E-05-6.92904E-06 2.12874E+02-2.16860E+08
 -1       768-1.67005E-05-5.11156E-06-3.30209E-05 1.13866E-06-3.49163E+06-1.64650E+08
 -1       769-5.24763E-05-3.57626E-05-1.28659E-04-1.35365E-05-1.95665E+07-7.37442E+07
 -1       770-8.12546E-05 6.86503E-05 2.25548E-04-6.10948E-07-4.89759E+07 1.26778E+08
 -1       771-3.37556E-04 1.49588E-04-8.01143E-05 2.79828E-05-3.93863E+08 4.22950E+08
 -1       772 2.36486E-05 6.14386E-05 1.46381E-04 1.77597E-06 4.41400E+06 1.05483E+08
 -1       773-1.40693E-05 6.57106E-06 6.07789E-05 2.77633E-06 9.40420E+06 6.12571E+05
 -1       774 2.76603E-07 1.61809E-05 3.81190E-06 1.81918E-06 9.05345E+06 1.12672E+06
 -1       775 7.77524E-05 6.49740E-05 1.76815E-04-1.31056E-05 4.26160E+06-1.01089E+08
 -1       776 2.85653E-04 2.98594E-04 2.08283E-04 1.78145E-04-3.83701E+08-4.06047E+08
 -1       777 2.06331E-04 7.69142E-05 1.06270E-05-1.01362E-04-4.91635E+07-1.20016E+08
 -1       778-2.41399E-05-2.01639E-04-3.43132E-04 1.52633E-05-1.84054E+07 7.12159E+07
 -1       779-2.05524E-05-1.25952E-04-2.93365E-04 3.96917E-05-1.81517E+06 1.58179E+08
 -1       780 1.62393E-04 1.10626E-04 2.32417E-04 2.20183E-05 2.17539E+02 2.09277E+08
 -1       781 5.39273E-05 2.54512E-05 3.64315E-05-8.35583E-06-2.05505E+02-3.69465E+08
 -1       782 3.15905E-05 9.02312E-06 6.90393E-05-5.35487E-06-2.08243E+07-3.68190E+08
 -1       783-1.07307E-04-1.07575E-04-3.64128E-04 2.24976E-05-3.26279E+07-3.83802E+07
 -1       784 7.32458E-05 3.54555E-05 1.53847E-04 2.31975E-05-8.61619E+06-9.95950E+04
 -1       785 3.01317E-05 1.18424E-04-2.52887E-04 2.47281E-05-1.01204E+08 5.48188E+07
 -1       786-1.79815E-05-5.42402E-05-9.93852E-05-2.98939E-05-3.62829E+07-1.00384E+08
 -1       787-4.17391E-05-4.34443E-05 4.14411E-05 1.23018E-05-3.51371E+07 9.80236E+07
 -1       788-2.39831E-05 1.45609E-04-2.51658E-04-5.55959E-05-1.00645E+08-5.31585E+07
 -1       789-4.44443E-05 2.02612E-05-2.03824E-04 1.89021E-05-7.70181E+06-8.78370E+05
 -1       790-1.33011E-05-1.67819E-04 5.36902E-05 2.23095E-05-3.10637E+07 3.84044E+07
 -1       791 1.04800E-04-9.72115E-05-2.19170E-04-1.29910E-05-2.03966E+07 3.59579E+08
 -1       792 3.68774E-04 1.66893E-04 2.27332E-04 4.59030E-05-1.83531E+02 3.61050E+08
 -1       793-3.16866E-04-2.77169E-04-9.51761E-04-4.39659E-05-9.82239E+07 8.22911E+07
 -1       794 1.29367E-04 1.53390E-04 4.57631E-04-5.52849E-06 4.57513E+07 2.91757E+07
 -1       795 4.95908E-05 1.71277E-04 2.70840E-04-1.51044E-05 5.99781E+07 2.80335E+07
 -1       796 9.05851E-06 1.89613E-05-8.11904E-06 1.95388E-05 7.04352E+06 7.33643E+06
 -1       797 9.75877E-05 6.78729E-05 2.61599E-04-1.59754E-05 7.71708E+06-7.36018E+06
 -1       798 3.05222E-05 8.22600E-05 8.09444E-05 1.90968E-06 5.85956E+07-2.63681E+07
 -1       799-1.66323E-05 1.34747E-04-7.59843E-06 5.03411E-06 4.51524E+07-2.85645E+07
 -1       800-3.98606E-05-1.21437E-04-2.84300E-05-1.97887E-05-9.30925E+07-8.08124E+07
 -1       801 9.68110E-07 8.22209E-05-7.25854E-05 1.74390E-05 3.66712E+08 1.84745E+07
 -1       802-5.61168E-06 5.69334E-05-8.87690E-06-1.56722E-05 1.37334E+08 2.03707E+06
 -1       803 5.51436E-06 5.55776E-05 4.75538E-05 1.84231E-06 6.46557E+07 2.94985E+06
 -1       804-1.28406E-06-2.22400E-06 7.59144E-06-2.47703E-06-5.98631E+06 1.27600E+07
 -1       805-7.57165E-07 7.14231E-06 1.27573E-05 4.66243E-08-5.47708E+06-1.26740E+07
 -1       806 1.26163E-05-1.74791E-05 5.31555E-05 7.54387E-06 6.46548E+07-3.18714E+06
 -1       807 1.92374E-05 8.70042E-05 7.56057E-05-1.44630E-05 1.35211E+08-2.08299E+06
 -1       808-6.04466E-05 9.47639E-05-1.49995E-04-1.21891E-05 3.59175E+08-1.82280E+07
 -1       809 8.46833E-05 1.45435E-04 1.55862E-04-2.16411E-05 3.70834E+08 8.09391E+01
 -1       810 1.02390E-05 3.67984E-05-3.77186E-07-3.58094E-07 1.91929E+08-2.99956E+02
 -1       811-1.76672E-06 1.45584E-05-2.10097E-05 3.46429E-06 5.34525E+07-1.89878E+02
 -1       812 8.83359E-07 3.65358E-06-5.01517E-07 4.68513E-07 5.05265E+07-1.30625E+01
 -1       813 8.11275E-06 3.76813E-06 2.55946E-05 1.85461E-06 5.01619E+07 6.21650E+00
 -1       814 6.63288E-06 3.29316E-06 2.07759E-05-2.67243E-06 5.22955E+07 1.85142E+02
 -1       815 3.23653E-05 5.57676E-05 6.02491E-05-7.93254E-06 1.88632E+08 2.92938E+02
 -1       816-4.12464E-05 3.70741E-05-1.85221E-04 1.10269E-05 3.62542E+08-8.40718E+01
 -1       817 9.75363E+08 2.50808E+09 9.75364E+08-9.75277E+06-5.21708E+08 4.76064E+02
 -1       818 7.72530E+08 1.98651E+09 7.72531E+08-2.35025E+07-3.38455E+08-2.43703E+02
 -1       819 5.97008E+08 1.53516E+09 5.97008E+08-3.19445E+07-2.90746E+08 9.77807E+01
 -1       820 4.67773E+08 1.20284E+09 4.67773E+08-1.77300E+07-1.25266E+08-4.04643E+02
 -1       821 3.64617E+08 9.37588E+08 3.64618E+08-3.74291E+06-1.15638E+08 2.40660E+02
 -1       822 2.99866E+08 7.71085E+08 2.99867E+08-7.40011E+06-8.60944E+07-1.51794E+02
 -1       823 2.37115E+08 6.09725E+08 2.37116E+08-1.32948E+07-7.68943E+07 1.59277E+02
 -1       824 2.13542E+08 5.49108E+08 2.13542E+08-1.68776E+06 1.06294E+07-4.83942E+01
 -1       825 2.31266E+08 5.94684E+08 2.31266E+08 1.14594E+07-9.13222E+07-2.42397E+02
 -1       826 3.00171E+08 7.71869E+08 3.00172E+08 1.18021E+07-9.11017E+07 4.32241E+02
 -1       827 3.80046E+08 9.77262E+08 3.80047E+08 1.11038E+07-1.57482E+08-3.37552E+02
 -1       828 4.97869E+08 1.28024E+09 4.97870E+08 1.59468E+07-1.79434E+08 2.11636E+02
 -1       829 6.34248E+08 1.63092E+09 6.34248E+08 2.93810E+07-3.11317E+08-7.36945E+01
 -1       830 8.15584E+08 2.09722E+09 8.15584E+08 2.37040E+07-3.65982E+08 3.09529E+02
 -1       831 1.01035E+09 2.59805E+09 1.01035E+09 5.47901E+06-5.44770E+08-4.06223E+02
 -1       832 6.81170E+08 1.86173E+09 5.54541E+08-3.01411E+08 3.32328E+07 9.74028E+07
 -1       833 4.51366E+08 1.17076E+09 2.91904E+08-2.03195E+08 3.27270E+07-3.10843E+07
 -1       834 2.97168E+08 7.76190E+08 1.85602E+08-1.00558E+08-1.61235E+06-2.11714E+07
 -1       835 1.90403E+08 5.11850E+08 7.11440E+07-8.03691E+07 3.59193E+06 2.93687E+06
 -1       836 2.03716E+08 4.89459E+08 7.73680E+07 7.14223E+07 6.15480E+06-3.24367E+06
 -1       837 2.89380E+08 7.75980E+08 2.01863E+08 1.30612E+08 7.61026E+06 2.12934E+07
 -1       838 4.89756E+08 1.22894E+09 3.33726E+08 2.14201E+08 3.40253E+07 3.82130E+07
 -1       839 6.76988E+08 1.91478E+09 5.70633E+08 2.89351E+08 1.23414E+07-1.13246E+08
 -1       840 6.84416E+07 1.36178E+08-2.57647E+08-5.59941E+08-5.03085E+08 5.98309E+05
 -1       841 1.04280E+08 1.56268E+08-2.46808E+08-4.56615E+08-3.32226E+08-7.75217E+06
 -1       842 1.10611E+08 1.32263E+08-2.56578E+08-3.41408E+08-1.72263E+08 2.27068E+07
 -1       843 1.59892E+08 2.57026E+08-1.60493E+08-2.51304E+08-1.59942E+08-9.56463E+06
 -1       844 1.47179E+08 3.28008E+08-9.68251E+07-1.73567E+08-4.85280E+07-1.26963E+07
 -1       845 8.91567E+07 3.56423E+08-1.15663E+08-1.58297E+08-6.17187E+07 1.78612E+07
 -1       846 1.63769E+08 4.23715E+08-8.64786E+07-1.45570E+08-3.51719E+07-5.78775E+06
 -1       847 2.96741E+08 4.07244E+08-4.50927E+07-1.56127E+07-1.04515E+08 1.02266E+07
 -1       848 1.89468E+08 3.29659E+08-8.80871E+07 1.45307E+08-8.70087E+06-4.40928E+06
 -1       849 1.17262E+08 2.56571E+08-1.08486E+08 1.81891E+08-1.01858E+08-3.41640E+06
 -1       850 9.34627E+07 2.12299E+08-1.07262E+08 2.10770E+08-1.30654E+08 2.30895E+07
 -1       851 8.42135E+07 1.23583E+08-1.85764E+08 2.88858E+08-1.70231E+08-2.23628E+07
 -1       852 1.22071E+08 9.25980E+07-2.34912E+08 3.72003E+08-2.27735E+08-8.35962E+06
 -1       853 8.03636E+07 1.25016E+08-2.45066E+08 4.61268E+08-3.47824E+08 2.81560E+07
 -1       854 6.02913E+06 1.19034E+08-2.75107E+08 5.41242E+08-5.25479E+08-3.47726E+07
 -1       855-2.33347E+08-1.39008E+09-3.11521E+08-2.99908E+08-6.99218E+07 4.44515E+07
 -1       856 1.41947E+08-5.30434E+08-7.33530E+07-1.21949E+08-2.35649E+07 1.84016E+07
 -1       857 9.37863E+07 6.71306E+07-7.06147E+07-3.87051E+07-1.06164E+07-1.13254E+07
 -1       858 8.28067E+07 3.05734E+08-4.32248E+06-7.24822E+07 3.44488E+07 4.35220E+06
 -1       859 6.61214E+07 1.81898E+08-4.05680E+07 5.11811E+07-6.28347E+06 1.76878E+07
 -1       860 7.24056E+07-2.51912E+08-5.80384E+07 4.00412E+07 4.49196E+07-2.15032E+07
 -1       861 1.27044E+07-6.45452E+08-1.07227E+08 2.31604E+08 9.50170E+06-3.41906E+07
 -1       862-2.53412E+08-1.43383E+09-3.14081E+08 3.14052E+08-3.21391E+07 2.28603E+07
 -1       863-9.90284E+07-1.18400E+08-8.95834E+07 9.01473E+08 2.11215E+08 1.60961E+08
 -1       864-2.70318E+08-6.10738E+08 3.94600E+07 7.08714E+08-1.42847E+08 2.43219E+08
 -1       865-1.31454E+08-1.34615E+09 1.87288E+08 3.02062E+08-6.26330E+07 9.40274E+07
 -1       866 1.93033E+08-1.19815E+09 2.16790E+08 7.36156E+07-8.03520E+07-2.23739E+07
 -1       867 2.74121E+08-9.39588E+08 2.09098E+08 4.87845E+07-5.97048E+07 3.39258E+07
 -1       868 2.34323E+08-1.59279E+08 2.17994E+08 1.82564E+08 1.59083E+07-3.52859E+07
 -1       869 8.47623E+07 7.81941E+07 4.41627E+07 9.67120E+07-6.29636E+07-7.70795E+07
 -1       870 1.90506E+07 1.35531E+08 5.49234E+07 3.02954E+07-5.14292E+07 3.13636E+07
 -1       871 1.92550E+07 1.90661E+08 8.35228E+07-1.59078E+07-1.06973E+08-5.14465E+07
 -1       872 9.84213E+07 2.14162E+08 1.00940E+08-1.19051E+08-6.27950E+07 4.52104E+07
 -1       873 7.67671E+07-5.76609E+07 1.00719E+08-1.40760E+08-3.14071E+07 9.49894E+06
 -1       874 1.63400E+08-5.67677E+08 6.41246E+07-9.39967E+07-8.58043E+06 1.63335E+07
 -1       875 1.36975E+08-7.76410E+08 1.27071E+08-7.89063E+06-7.11507E+07 3.84186E+07
 -1       876 3.03551E+07-9.63507E+08 1.73621E+08 4.93473E+07-1.11509E+08-1.66493E+07
 -1       877 4.67840E+07-1.19909E+09 2.08214E+08-4.80488E+07-8.41647E+07-1.27036E+07
 -1       878-1.33816E+08-1.45553E+09 1.81799E+08-2.69999E+08-5.97573E+07-3.42811E+07
 -1       879-2.65450E+08-6.74710E+08 3.73841E+07-7.28414E+08-1.30003E+08-2.48651E+08
 -1       880-1.26594E+08-1.08990E+08-9.15203E+07-9.28063E+08 1.52754E+08-2.13558E+08
 -1       881-6.33069E+08-2.52430E+08 3.65811E+07 6.94755E+08 2.42036E+08-1.24237E+08
 -1       882-4.85439E+08-1.16568E+09 7.82613E+06 1.26013E+08 7.77651E+07 2.91854E+07
 -1       883-5.50973E+08-1.79378E+09-3.06436E+08-3.37589E+08 1.15525E+08-5.26412E+07
 -1       884 5.61976E+07-7.32895E+08-5.39525E+07-2.14177E+08-1.48316E+08 1.04307E+08
 -1       885-8.05844E+07-1.45179E+09-1.12817E+08-2.48713E+07 8.90649E+06 7.46280E+06
 -1       886-4.94512E+08-1.19866E+09 1.26533E+07-1.30218E+08 5.81213E+06-7.35610E+07
 -1       887-6.17812E+08-2.94563E+08 4.07173E+07-7.20139E+08 2.55559E+08 1.42884E+08
 -1       888 2.49204E+09 9.69126E+08 9.69127E+08-6.29296E+06 4.03478E+02-5.25717E+08
 -1       889 1.83414E+09 6.49298E+08 5.46411E+08-2.83953E+08 1.07409E+08 9.88618E+06
 -1       890 1.15727E+08 7.64027E+06-2.63364E+08-5.28356E+08 3.30313E+07-5.05058E+08
 -1       891-1.36515E+09-2.46157E+08-3.01246E+08-3.10690E+08-2.06088E+07-3.32279E+07
 -1       892-1.38008E+09-1.34524E+08 1.73656E+08 2.44799E+08 3.12736E+07-5.96240E+07
 -1       893-1.13614E+09-4.83127E+08 1.51103E+07 1.04939E+08 7.11905E+07 8.24642E+06
 -1       894-5.71652E+08-5.82760E+08 1.60300E+07-1.45331E+08-7.55900E+06-4.01233E+07
 -1       895-4.08295E+08-7.66377E+08-6.89489E+06-3.60718E+08 3.54171E+08 1.39880E+08
 -1       896-5.69756E+08-7.10485E+08-5.37064E+07-4.89453E+08 1.95993E+08 1.90027E+08
 -1       897 2.35000E+08-3.53692E+08 6.04903E+07-4.79778E+08 8.25899E+07 1.69376E+08
 -1       898 4.24186E+08-7.77251E+08 4.67998E+07-4.45131E+08 2.17272E+08 9.53108E+07
 -1       899 1.90770E+08-1.18504E+09-8.08047E+07 9.90137E+07 1.89651E+08-1.08206E+08
 -1       900-6.16365E+07-9.23704E+08-3.76482E+06 2.47723E+08 3.27691E+08-3.00657E+07
 -1       901-5.90326E+08-5.99270E+08 1.35829E+07 1.26687E+08-3.85721E+07 1.54698E+06
 -1       902-1.16401E+09-5.17580E+08 1.14504E+07-1.37630E+08 2.74313E+07-7.51928E+07
 -1       903-1.36214E+09-1.76657E+08 1.87059E+08-3.04927E+08 8.46891E+07 6.38641E+07
 -1       904-1.42734E+09-2.78379E+08-3.30062E+08 3.23845E+08 3.89056E+07 7.12329E+07
 -1       905 1.19769E+08 4.01531E+07-2.78067E+08 6.04447E+08 1.28301E+06 5.27294E+08
 -1       906 1.89378E+09 6.92714E+08 5.62797E+08 3.28726E+08 8.20640E+07-2.76698E+07
 -1       907 2.56449E+09 9.97301E+08 9.97301E+08 1.50913E+07 3.92600E+02 5.37512E+08
 -1       908 1.99930E+09 7.77505E+08 7.77506E+08-2.34351E+07-3.13001E+02-3.50721E+08
 -1       909 1.19496E+08 7.76531E+07-2.33057E+08-4.54113E+08-2.67068E+07-3.30737E+08
 -1       910-1.14027E+09 3.99545E+07 1.96607E+08 3.07579E+07 1.00284E+07-7.69751E+07
 -1       911-8.81369E+08-5.63778E+07-1.46211E+06-2.51514E+08 3.70986E+07 3.10630E+08
 -1       912 8.79043E+08 1.24215E+09 3.73232E+08 3.44583E+08 7.42404E+07 1.39215E+08
 -1       913 8.54370E+08 9.77149E+08 2.37069E+08-2.40827E+08 8.79705E+07-1.09214E+07
 -1       914-7.76354E+08-4.22662E+08-6.36355E+06 3.27844E+08 1.49379E+08-3.42821E+08
 -1       915-1.18079E+09 1.46535E+08 2.15789E+08-7.37869E+07-1.94615E+07 7.76910E+07
 -1       916 1.48751E+08 7.68183E+07-2.39963E+08 5.18882E+08-9.05569E+06 3.27303E+08
 -1       917 1.98239E+09 7.70928E+08 7.70929E+08 2.60378E+07-1.90191E+02 3.42018E+08
 -1       918 1.53751E+09 5.97921E+08 5.97921E+08-2.87668E+07 9.42713E+01-2.95264E+08
 -1       919 1.15856E+09 4.62492E+08 3.14588E+08-2.12717E+08-3.68904E+07 3.11458E+07
 -1       920 8.53252E+07 1.17502E+08-2.21819E+08-3.70118E+08 7.35780E+06-2.14779E+08
 -1       921-6.12005E+08 1.51142E+07-1.00612E+08-2.37475E+08 3.39111E+07 8.29156E+06
 -1       922-9.10502E+08 3.34607E+07 1.66074E+08-6.55302E+07 2.07077E+07-1.08719E+08
 -1       923-1.37223E+09-7.49708E+07-1.07920E+08 9.76051E+06-9.12707E+06 1.22825E+07
 -1       924-1.12314E+09 1.78680E+08-8.14986E+07-9.94677E+07 1.11537E+08 1.76517E+08
 -1       925 9.29652E+08 8.76588E+08 2.24138E+08 2.56026E+08 6.83459E+06 7.65411E+07
 -1       926 1.54060E+09 1.37480E+09 3.56382E+08 7.67364E+08 5.34553E+08 6.39358E+08
 -1       927 3.42762E+08 1.81440E+08-6.61302E+07 1.68640E+08 3.38212E+07 7.19727E+07
 -1       928 2.02669E+04-5.15860E+07 8.36624E+07-5.17307E+07-9.40630E+06 8.97900E+07
 -1       929-4.69866E+04-5.36773E+07-1.38894E+06-1.66585E+07 1.61793E+07 5.12032E+07
 -1       930 2.48277E+07 1.29694E+07-6.46711E+06 3.93334E+06 1.22346E+07 1.82008E+07
 -1       931 5.25057E+07 2.19336E+07-4.03923E+06-6.41667E+04 1.34514E+07-4.56661E+06
 -1       932 3.41461E+07 2.80216E+07-3.83151E+06 8.15473E+05 9.27161E+06-2.90163E+07
 -1       933 1.08082E+06-6.40334E+07 4.19900E+05 1.08264E+07 1.79260E+07-5.66058E+07
 -1       934-2.86899E+06-7.85243E+07 7.49447E+07 5.13240E+07-1.12633E+07-9.95472E+07
 -1       935 2.59596E+08 2.01146E+08-6.39029E+07-1.76147E+08 4.38078E+07-1.11797E+08
 -1       936 1.34024E+09 1.60392E+09 3.63380E+08-7.76705E+08 6.62954E+08-5.29850E+08
 -1       937 1.16579E+09 9.02449E+08 3.60582E+08-3.82904E+08 1.54322E+08-6.80919E+07
 -1       938-7.28771E+08-5.96003E+08-5.88851E+07 4.33205E+08 1.95082E+08-1.71523E+08
 -1       939-1.74208E+09-5.77261E+08-2.96969E+08 3.02008E+08-5.89840E+07-1.07882E+08
 -1       940-8.67293E+08 2.34336E+08 2.15613E+08-4.53916E+07 2.12747E+07 5.99142E+07
 -1       941-4.86607E+08 8.74544E+07-5.70419E+07 1.63872E+08 3.13559E+07 3.16007E+07
 -1       942 1.29148E+08 7.80013E+07-2.25398E+08 4.27896E+08 7.81882E+06 1.64863E+08
 -1       943 1.11128E+09 4.19325E+08 2.86869E+08 2.55156E+08-4.09896E+07-3.65911E+07
 -1       944 1.45444E+09 5.65615E+08 5.65616E+08 3.34924E+07 1.99235E+02 2.57446E+08
 -1       945 1.19066E+09 4.63034E+08 4.63034E+08-1.61003E+07-2.33930E+02-1.66109E+08
 -1       946 1.09645E+08 8.19533E+07-1.73371E+08-2.89260E+08 2.23024E+07-1.59507E+08
 -1       947-7.30581E+08 1.37586E+08 1.19831E+08-9.71790E+06-3.51821E+07-6.60544E+07
 -1       948-7.30512E+08 4.11323E+08 4.37549E+07 4.14009E+08-8.65200E+07 2.02448E+08
 -1       949 1.94951E+08 2.68546E+08-6.48405E+07 1.72778E+08 1.02380E+08 4.22811E+07
 -1       950-8.40110E+05 3.27434E+07 6.19033E+07 2.00907E+06-1.37414E+07-9.20121E+06
 -1       951 4.30951E+07 1.30262E+07-7.37914E+06 5.36324E+06 6.24107E+06 9.45741E+06
 -1       952 4.12966E+07 1.49271E+07-7.65900E+06-6.06589E+06 7.17604E+06-1.11674E+07
 -1       953 2.15502E+07 4.76692E+07 7.15153E+07 5.92326E+06-1.98932E+07 7.24325E+03
 -1       954 1.81903E+08 3.62130E+08-6.50461E+07-1.70654E+08 6.81479E+07-3.27801E+07
 -1       955-6.89273E+07 1.91677E+08 1.74132E+08-1.98395E+08-8.85466E+06 7.37312E+06
 -1       956 2.81193E+08 1.25405E+08-1.49066E+08 3.75684E+08 1.18172E+07 1.28856E+08
 -1       957 9.93332E+08 3.86296E+08 3.86296E+08 2.53967E+07-6.15595E+02 1.16081E+08
 -1       958 8.90179E+08 3.46181E+08 3.46181E+08-1.15826E+07 3.17141E+02-1.44518E+08
 -1       959 7.05946E+08 2.64999E+08 1.84152E+08-1.31039E+08-2.26160E+07 7.65182E+06
 -1       960 1.86896E+08 8.64429E+07-9.88917E+07-2.12995E+08-2.12064E+07-1.20806E+08
 -1       961-2.39700E+08 7.50223E+07-5.37764E+07-5.28417E+07 1.97988E+07 4.10372E+07
 -1       962-5.29591E+08 1.66613E+08 5.84599E+07 7.27309E+07-1.48599E+07-4.99433E+06
 -1       963-6.79683E+08 6.42082E+07-5.06334E+07 1.92583E+08-1.00507E+08-1.35570E+08
 -1       964-3.24874E+08 2.29997E+08 5.67403E+07 4.50944E+08-1.62518E+08 7.98335E+07
 -1       965-7.31055E+07-2.26182E+06 7.68673E+07-5.08815E+07 9.32749E+07-1.05596E+07
 -1       966 4.53264E+07 1.75812E+07 7.00334E+07-5.19696E+06-3.02275E+06-1.81775E+07
 -1       967 7.67017E+07 6.63227E+07-2.59816E+07 4.89546E+07 3.42896E+07 4.03471E+07
 -1       968 7.37642E+06 1.69244E+07-2.07680E+07 1.29107E+07 1.62858E+07 5.06745E+06
 -1       969 3.46327E+07 1.55478E+07 6.10072E+06 2.44484E+06 1.10133E+07-3.67845E+05
 -1       970 4.26387E+07 1.52588E+07 1.10081E+07-1.60122E+06 1.02837E+07-6.24004E+05
 -1       971 3.46902E+07 1.24555E+07 5.25807E+06-5.18816E+06 1.08432E+07-1.33105E+06
 -1       972 1.25341E+07 2.32772E+07-1.88840E+07-1.09836E+07 1.83986E+07-2.90155E+06
 -1       973 6.57121E+07 7.90445E+07-2.59282E+07-5.08508E+07 3.99987E+07-3.54585E+07
 -1       974 3.08434E+07-5.64784E+06 6.14584E+07-4.24637E+06-1.23646E+07 1.26434E+07
 -1       975-4.95561E+07-1.30393E+06 8.50895E+07 5.25505E+07 9.08436E+07 9.52047E+06
 -1       976 2.24012E+08 1.24121E+08-1.58406E+07-1.57067E+08-1.07419E+08 1.52968E+08
 -1       977 2.78648E+08 1.31325E+08-6.30805E+07 1.00159E+08-2.28281E+07 1.26891E+07
 -1       978 4.38245E+08 2.32318E+08-5.46699E+07 3.35417E+08 6.98153E+06-7.83861E+06
 -1       979 5.22686E+08 2.15696E+08 8.55335E+07 1.83314E+08-7.21893E+06 1.48826E+06
 -1       980 5.83749E+08 2.27013E+08 2.27014E+08 1.75459E+07 3.84479E+02 6.68807E+07
 -1       981 6.79266E+08 2.64159E+08 2.64159E+08-1.12343E+07-3.88257E+02-7.78142E+07
 -1       982 2.28983E+08 1.06100E+08-9.46881E+07-1.84317E+08 1.29991E+06-9.05323E+07
 -1       983-5.53999E+07 8.14605E+07 8.80676E+07 1.24222E+08-8.41658E+06-3.00111E+07
 -1       984-6.11698E+07 3.15777E+05 1.93876E+05-1.21682E+07 5.21827E+07 1.76197E+07
 -1       985 2.25612E+07 1.13562E+07-1.84245E+07 1.05619E+07 1.84778E+06 1.92288E+07
 -1       986 3.28625E+07 2.42742E+07 2.09935E+06 3.96424E+06 8.73393E+05 4.28938E+06
 -1       987 3.30087E+07 2.53184E+07 2.15257E+06-5.22968E+06 5.76446E+05-5.02360E+06
 -1       988 1.56017E+07 5.19073E+06-2.08320E+07-1.49917E+07 4.31740E+06-1.71066E+07
 -1       989-5.19435E+07-2.38173E+06-2.97481E+06 1.77234E+07 5.50207E+07-1.55566E+07
 -1       990 2.78899E+08 2.72162E+08-3.55866E+07 2.11422E+08 5.37946E+07 7.77186E+07
 -1       991 3.62306E+08 1.40896E+08 1.40897E+08 1.01660E+07-2.40639E+02-1.40718E+07
 -1       992 4.95279E+08 1.92608E+08 1.92609E+08-1.03062E+07 2.24628E+02-7.21723E+07
 -1       993 4.15069E+08 1.71327E+08 6.33934E+07-7.70341E+07 1.14593E+06 3.36510E+06
 -1       994 2.94228E+08 1.66435E+08-7.26101E+07-1.53365E+08 5.20911E+06-2.02846E+06
 -1       995 1.76303E+08 6.73289E+07-3.18572E+07-5.32167E+07-1.84747E+07-6.71204E+06
 -1       996 2.02994E+08 9.83501E+07 8.58239E+07 1.09791E+08-4.48457E+07-5.57895E+07
 -1       997 2.51603E+07 2.91702E+07-6.69739E+06-8.08912E+05 2.33754E+07 9.56261E+06
 -1       998 1.39297E+07 3.91099E+07-9.27888E+06 5.57619E+06 7.90030E+06 7.58369E+06
 -1       999 1.27389E+07 3.27242E+07 6.47527E+06 4.61614E+06-1.22894E+06 1.17305E+07
 -1      1000 2.52889E+07 3.20364E+07 2.58519E+06 4.28512E+06 2.39260E+06 2.16486E+06
 -1      1001 2.88013E+07 2.80764E+07-9.75713E+05 1.26323E+05 1.95476E+06 4.08663E+06
 -1      1002 2.99568E+07 2.81141E+07-7.56501E+05-5.49659E+05 2.29159E+06 4.44618E+04
 -1      1003 2.82922E+07 2.85088E+07-9.43696E+05-1.29337E+06 2.04323E+06-4.28938E+06
 -1      1004 2.44250E+07 3.20929E+07 2.58514E+06-5.67948E+06 1.97147E+06-2.37184E+06
 -1      1005 1.43936E+07 3.24321E+07 6.96983E+06-4.59353E+06-2.37481E+06-1.15793E+07
 -1      1006 1.20103E+07 4.04031E+07-9.24574E+06-6.58400E+06 8.18164E+06-6.99210E+06
 -1      1007 1.38364E+07 2.12136E+07-8.37115E+06-5.32624E+06 2.14318E+07-1.20361E+07
 -1      1008 1.30768E+08 2.07251E+08-4.26950E+07 4.73185E+07 1.40955E+07 4.47199E+06
 -1      1009 1.69662E+08 1.07225E+08 8.85819E+06 2.51477E+07-1.44718E+07-1.15302E+07
 -1      1010 2.42418E+08 9.42735E+07 9.42741E+07 2.08431E+06-4.66668E+01 9.12762E+07
 -1      1011 4.32989E+08 1.68384E+08 1.68385E+08-7.26192E+05-1.51869E+01 8.41348E+06
 -1      1012 3.21016E+08 2.47455E+08-3.16214E+07-2.29879E+07 3.94938E+06-8.44016E+07
 -1      1013 2.02215E+07 4.65525E+07-2.57923E+06 1.94866E+06 2.58849E+06 1.24071E+07
 -1      1014 1.36605E+07 3.80747E+07 8.78626E+06 1.04324E+06-1.63114E+06 1.11925E+07
 -1      1015 2.79151E+07 2.90167E+07-3.47012E+05-1.04940E+04-1.97757E+06 4.45573E+06
 -1      1016 2.74232E+07 2.88614E+07-4.57547E+05-1.08678E+06-1.85331E+06-4.64145E+06
 -1      1017 1.52560E+07 3.98939E+07 9.71296E+06-1.30713E+06-2.03136E+06-1.12767E+07
 -1      1018 1.80734E+07 4.88324E+07-1.82990E+06-2.73708E+06 3.75855E+06-1.24453E+07
 -1      1019 1.75326E+08 1.71185E+08-3.79222E+07-7.35998E+07-3.43104E+07 5.54156E+07
 -1      1020 2.55195E+08 9.92420E+07 9.92425E+07-5.16800E+06 1.84250E+02 1.55533E+06
 -1      1021 4.57391E+08 1.77874E+08 1.77874E+08 8.11404E+06-2.02875E+02-6.97766E+07
 -1      1022 3.77490E+08 1.54446E+08 5.89467E+07 5.23357E+07-7.96598E+06 3.86924E+06
 -1      1023 2.57529E+08 1.40084E+08-6.86596E+07 1.05941E+08-1.57801E+06-8.92266E+06
 -1      1024 1.40764E+08 3.99919E+07-3.22617E+07 3.54427E+07 9.87279E+06-3.04523E+06
 -1      1025 1.58679E+08 6.20616E+07 7.60523E+07-8.56773E+07 2.75790E+07-4.77316E+07
 -1      1026 1.55166E+07 2.90236E+07 9.06806E+05-4.96242E+05-2.09074E+07 9.59156E+06
 -1      1027 1.27456E+07 3.76971E+07-3.13776E+06-4.22361E+06-1.06625E+07 5.89357E+06
 -1      1028 1.35584E+07 3.12474E+07 2.71308E+06-2.48478E+06-3.27445E+06 1.19268E+07
 -1      1029 2.26276E+07 2.97475E+07 9.58167E+05-3.15728E+06-6.73439E+06 2.29231E+06
 -1      1030 2.74511E+07 2.73761E+07-2.72725E+05-4.45984E+05-6.31739E+06 4.14984E+06
 -1      1031 2.81967E+07 2.68766E+07-7.19570E+04-5.17974E+05-6.69708E+06-8.18790E+04
 -1      1032 2.74784E+07 2.74322E+07-1.49481E+05-5.34245E+05-6.42229E+06-4.38270E+06
 -1      1033 2.25579E+07 2.98767E+07 8.65682E+05 2.36883E+06-6.84901E+06-2.19845E+06
 -1      1034 1.26288E+07 3.12964E+07 2.05628E+06 1.49287E+06-3.44710E+06-1.18114E+07
 -1      1035 1.24155E+07 3.71780E+07-2.73170E+06 3.47045E+06-1.08851E+07-5.96222E+06
 -1      1036 1.66201E+07 3.02007E+07 1.31521E+06 1.26576E+06-1.85744E+07-9.14486E+06
 -1      1037 1.61607E+08 5.20406E+07 5.01261E+07 7.93895E+07 2.51687E+07 4.38788E+07
 -1      1038 1.66711E+08 3.64578E+07-1.42355E+07-4.10785E+07 6.64504E+06 4.19779E+06
 -1      1039 2.44611E+08 1.02398E+08-3.53878E+07-1.47821E+08-3.24137E+06-2.73654E+05
 -1      1040 2.99077E+08 1.12340E+08 4.89215E+07-8.02336E+07-6.85576E+06-3.62230E+05
 -1      1041 3.36302E+08 1.30784E+08 1.30784E+08-7.56895E+06-1.99685E+02 3.37617E+07
 -1      1042 5.84681E+08 2.27376E+08 2.27376E+08 8.25339E+06 3.21802E+02-7.14493E+07
 -1      1043 1.99225E+08 7.82689E+07-8.39349E+07 1.26650E+08-2.76724E+06-7.45602E+07
 -1      1044-3.53264E+07 4.01711E+07 7.62708E+07-1.03523E+08 9.29526E+06-2.62406E+07
 -1      1045-4.79912E+07 2.27773E+06-5.15490E+06 9.11600E+06-4.38563E+07 1.43226E+07
 -1      1046 1.88363E+07 1.24171E+07-1.36461E+07-8.77706E+06-4.35032E+06 1.67444E+07
 -1      1047 2.92715E+07 2.23500E+07 1.38610E+06-3.67548E+06-3.73276E+06 4.18774E+06
 -1      1048 2.91689E+07 2.23652E+07 1.32910E+06 2.73012E+06-3.74563E+06-4.46406E+06
 -1      1049 1.78984E+07 1.21861E+07-1.35792E+07 7.76504E+06-4.36693E+06-1.65090E+07
 -1      1050-4.57431E+07 2.39715E+06-5.41457E+06-8.94597E+06-4.11117E+07-1.38727E+07
 -1      1051-3.14076E+07 2.45799E+07 5.78166E+07 8.90545E+07 1.29330E+07 3.10123E+07
 -1      1052 1.84857E+08 5.07469E+07-6.67540E+07-1.45351E+08 1.04817E+06 6.17478E+07
 -1      1053 4.99946E+08 1.94423E+08 1.94424E+08-8.07972E+06 2.59223E+02 5.94827E+07
 -1      1054 7.28054E+08 2.83132E+08 2.83132E+08 7.71024E+06-2.30561E+02-1.12623E+08
 -1      1055 5.77734E+08 2.12190E+08 1.49541E+08 8.88668E+07 1.51772E+07 5.73941E+06
 -1      1056 1.65261E+08 6.11384E+07-7.98836E+07 1.41946E+08 1.63393E+07-9.69962E+07
 -1      1057-1.69320E+08 3.93770E+07-4.02300E+07 1.95941E+07-1.58520E+07 3.35773E+07
 -1      1058-3.97960E+08 9.78583E+07 5.15552E+07-7.88652E+07 1.05798E+07-1.01178E+07
 -1      1059-5.25191E+08 2.85578E+07-4.19326E+07-1.61546E+08 7.04032E+07-1.10243E+08
 -1      1060-2.64281E+08 1.53698E+08 2.77030E+07-3.38729E+08 1.23313E+08 5.24545E+07
 -1      1061-5.44292E+07-1.38026E+06 4.51172E+07 3.75972E+07-7.81942E+07-7.26449E+06
 -1      1062 3.17218E+07 1.24033E+07 4.66702E+07 1.61095E+06-8.97043E+05-1.19311E+07
 -1      1063 5.84128E+07 5.46363E+07-1.64360E+07-3.80485E+07-3.12999E+07 3.17312E+07
 -1      1064 9.63644E+06 1.60466E+07-1.40576E+07-1.01846E+07-1.69344E+07 3.87846E+06
 -1      1065 2.94694E+07 1.26931E+07 3.58952E+06-3.07476E+06-1.23556E+07 8.53743E+05
 -1      1066 3.61353E+07 1.40535E+07 7.79692E+06-4.53134E+05-1.20708E+07-5.69247E+04
 -1      1067 2.93707E+07 1.27011E+07 3.26912E+06 2.13679E+06-1.24638E+07-1.11429E+06
 -1      1068 1.00591E+07 1.61732E+07-1.35657E+07 8.99890E+06-1.69844E+07-3.84253E+06
 -1      1069 5.67090E+07 5.37351E+07-1.56606E+07 3.62368E+07-3.09927E+07-3.09803E+07
 -1      1070 3.02571E+07 1.17179E+07 4.46795E+07-1.62638E+06-9.25414E+05 1.12430E+07
 -1      1071-5.24150E+07-1.18678E+06 4.37884E+07-3.67674E+07-7.49339E+07 6.57262E+06
 -1      1072-2.45092E+08 1.44607E+08 2.52196E+07 3.26246E+08 1.15533E+08-4.82168E+07
 -1      1073-4.89395E+08 2.42018E+07-3.90005E+07 1.52131E+08 6.57333E+07 1.04399E+08
 -1      1074-3.66060E+08 8.51084E+07 5.04854E+07 6.48820E+07 7.48910E+06 5.76840E+06
 -1      1075-1.56571E+08 2.89075E+07-3.76176E+07-3.44193E+07-1.33333E+07-2.95131E+07
 -1      1076 1.42530E+08 4.32155E+07-8.08871E+07-1.53689E+08 1.34698E+07 9.24628E+07
 -1      1077 5.28583E+08 1.93075E+08 1.35617E+08-9.52490E+07 2.12208E+07-7.68600E+06
 -1      1078 6.72175E+08 2.61401E+08 2.61402E+08-9.74103E+06-1.90756E+02 1.00369E+08
 -1      1079 9.32728E+08 3.62728E+08 3.62728E+08 1.06238E+07 1.13087E+02-1.31622E+08
 -1      1080 9.88309E+07 5.50126E+07-1.33914E+08 1.91946E+08-1.56947E+07-1.20993E+08
 -1      1081-5.48990E+08 7.57422E+07 8.62212E+07-1.80658E+07 2.58752E+07-4.95998E+07
 -1      1082-5.41030E+08 2.99911E+08 3.96534E+07-3.15574E+08 6.72080E+07 1.55918E+08
 -1      1083 1.49766E+08 2.21197E+08-3.07966E+07-1.29491E+08-8.01401E+07 3.37381E+07
 -1      1084 3.58093E+06 2.65183E+07 4.38304E+07-1.57513E+06 9.45490E+06-3.87494E+06
 -1      1085 3.55044E+07 1.12346E+07-4.82763E+06-4.59579E+06-6.44263E+06 8.71506E+06
 -1      1086 3.52397E+07 1.11932E+07-4.43173E+06 3.90169E+06-6.35157E+06-8.55834E+06
 -1      1087 4.80265E+06 2.64580E+07 4.26912E+07 8.62022E+05 9.19278E+06 3.07728E+06
 -1      1088 1.44273E+08 2.17418E+08-2.96020E+07 1.25043E+08-7.57347E+07-3.26477E+07
 -1      1089-5.14748E+08 2.78850E+08 3.70482E+07 3.02201E+08 6.43188E+07-1.46732E+08
 -1      1090-5.19533E+08 6.52245E+07 8.27053E+07 8.94860E+06 2.23480E+07 4.60137E+07
 -1      1091 8.85108E+07 4.89288E+07-1.27989E+08-1.99398E+08-1.66236E+07 1.14165E+08
 -1      1092 8.82070E+08 3.43027E+08 3.43028E+08-1.15475E+07 1.37095E+02 1.24970E+08
 -1      1093 1.16691E+09 4.53800E+08 4.53800E+08 1.99559E+07-2.74173E+01-2.20404E+08
 -1      1094 8.79162E+08 3.47689E+08 2.38166E+08 1.42021E+08 2.79311E+07 2.43948E+07
 -1      1095 7.37368E+07 8.26150E+07-1.66928E+08 2.45807E+08-4.13903E+06-1.62102E+08
 -1      1096-4.44375E+08 6.56464E+06-7.70009E+07 1.45709E+08-2.54223E+07 8.66844E+06
 -1      1097-6.74844E+08 1.66180E+07 1.17575E+08 2.12315E+07-1.69512E+07-7.06566E+07
 -1      1098-1.02125E+09-7.67716E+07-7.86743E+07-1.98267E+07 1.75956E+07-5.19228E+06
 -1      1099-8.30889E+08 7.71843E+07-5.53705E+07 7.78560E+07-4.78634E+07 1.21543E+08
 -1      1100 6.55937E+08 6.07837E+08 1.90025E+08-9.39786E+07-8.58194E+07 1.22649E+08
 -1      1101 1.10060E+09 1.00125E+09 3.00959E+08-5.02128E+08-4.46558E+08 4.80539E+08
 -1      1102 2.52909E+08 1.43662E+08-3.09213E+07-1.27904E+08-3.04769E+07 6.63363E+07
 -1      1103-1.37077E+06-4.61946E+07 4.85271E+07 3.81541E+07 6.65565E+06 7.47707E+07
 -1      1104 2.87479E+05-4.33477E+07-6.74196E+06 1.13181E+07-1.32711E+07 4.37467E+07
 -1      1105 2.43020E+07 1.36837E+07-1.64793E+06-2.82054E+06-9.75523E+06 1.90990E+07
 -1      1106 4.38447E+07 1.57570E+07-1.75522E+05-3.15199E+05-1.13750E+07 1.33351E+06
 -1      1107 2.47756E+07 1.34613E+07-1.35147E+06 2.41298E+06-9.59066E+06-1.67731E+07
 -1      1108 8.73454E+05-4.24697E+07-6.51392E+06-1.08265E+07-1.32024E+07-4.07589E+07
 -1      1109-1.18941E+06-4.56041E+07 4.64076E+07-3.70044E+07 6.19101E+06-7.17915E+07
 -1      1110 2.41747E+08 1.39548E+08-2.96828E+07 1.23801E+08-3.01959E+07-6.49430E+07
 -1      1111 1.05473E+09 9.77762E+08 2.91314E+08 4.88001E+08-4.35282E+08-4.61381E+08
 -1      1112 6.24150E+08 5.86818E+08 1.82100E+08 1.02050E+08-8.64194E+07-1.15100E+08
 -1      1113-7.95669E+08 5.93009E+07-5.33393E+07-7.05578E+07-4.80418E+07-1.14985E+08
 -1      1114-9.75940E+08-8.30754E+07-7.47668E+07 1.62142E+07 1.80158E+07 4.99470E+06
 -1      1115-6.47117E+08 1.01460E+07 1.12320E+08-2.81907E+07-1.58339E+07 6.82420E+07
 -1      1116-4.28426E+08 1.47973E+06-7.42336E+07-1.50585E+08-2.48811E+07-8.21304E+06
 -1      1117 7.01639E+07 7.84006E+07-1.58450E+08-2.48618E+08-2.50263E+06 1.55725E+08
 -1      1118 8.42127E+08 3.32444E+08 2.28856E+08-1.43231E+08 2.76175E+07-2.22423E+07
 -1      1119 1.11771E+09 4.34665E+08 4.34665E+08-1.95337E+07-4.63916E+01 2.12642E+08
 -1      1120 1.47622E+09 5.74087E+08 5.74088E+08 1.53307E+07 1.83652E+02-2.54517E+08
 -1      1121 9.38348E+07 5.59111E+07-1.73502E+08 3.09684E+08 1.79816E+07-2.43686E+08
 -1      1122-8.25633E+08 3.80591E+07 1.53450E+08-5.03945E+07-3.19552E+06-6.58925E+07
 -1      1123-6.12784E+08-5.36718E+07-5.80312E+06 1.72709E+08-6.66545E+07 2.38973E+08
 -1      1124 6.41896E+08 5.77489E+08 1.76637E+08-1.49988E+08-1.04946E+08 1.08957E+08
 -1      1125 6.13748E+08 5.62799E+08 1.72093E+08 1.45145E+08-1.01221E+08-1.03993E+08
 -1      1126-5.92640E+08-6.33984E+07-5.91902E+06-1.61458E+08-6.64361E+07-2.29233E+08
 -1      1127-7.97568E+08 3.08618E+07 1.47871E+08 4.39863E+07-2.50420E+06 6.24711E+07
 -1      1128 9.02716E+07 5.36086E+07-1.67002E+08-3.08926E+08 1.74931E+07 2.35590E+08
 -1      1129 1.42874E+09 5.55622E+08 5.55623E+08-1.52038E+07 1.85276E+02 2.47799E+08
 -1      1130 1.81030E+09 7.04005E+08 7.04006E+08 2.60028E+06-2.68338E+02-3.73166E+08
 -1      1131 1.33943E+09 4.74095E+08 3.97709E+08 1.94139E+08-7.81737E+07 9.96870E+06
 -1      1132 8.99557E+07 7.93668E+06-1.92745E+08 3.65419E+08-2.09830E+07-3.64426E+08
 -1      1133-1.00056E+09-1.81828E+08-2.18115E+08 2.06200E+08 1.13374E+07-1.86332E+07
 -1      1134-1.01500E+09-1.10428E+08 1.30942E+08-1.96259E+08-3.35872E+07-3.73346E+07
 -1      1135-8.30557E+08-3.28530E+08 1.45842E+06-1.08593E+08-4.26958E+07 3.09774E+06
 -1      1136-3.44216E+08-3.24098E+08 1.88144E+07 5.56981E+07-6.29032E+06-2.56534E+06
 -1      1137-9.98592E+07-5.63134E+08-5.79278E+06 1.55714E+08-2.19393E+08 9.36985E+07
 -1      1138-6.96018E+06-7.29916E+08-5.25769E+07 6.14535E+07-9.63367E+07 5.34895E+07
 -1      1139 2.42147E+08-4.54908E+08 2.83355E+07-2.66415E+08-1.23154E+08-5.77947E+07
 -1      1140 1.26951E+08-1.92568E+08 3.69582E+06-2.92842E+08-3.47387E+07-1.02601E+08
 -1      1141 1.22522E+08-1.90920E+08 4.28999E+06 2.88715E+08-3.36357E+07 1.00190E+08
 -1      1142 2.34498E+08-4.48684E+08 2.78013E+07 2.64242E+08-1.21697E+08 5.76054E+07
 -1      1143-4.68280E+06-7.19013E+08-5.05300E+07-5.73385E+07-9.59111E+07-5.18643E+07
 -1      1144-9.80602E+07-5.55361E+08-5.55542E+06-1.48316E+08-2.14300E+08-8.76502E+07
 -1      1145-3.37507E+08-3.23103E+08 1.77293E+07-4.98942E+07-5.42101E+06 1.50305E+06
 -1      1146-8.04838E+08-3.25841E+08 1.97250E+06 1.06602E+08-4.07017E+07-3.97145E+06
 -1      1147-9.83393E+08-1.13308E+08 1.27350E+08 1.88565E+08-3.19544E+07 3.73615E+07
 -1      1148-9.72515E+08-1.80578E+08-2.12917E+08-2.04112E+08 1.14946E+07 1.91738E+07
 -1      1149 8.53021E+07 6.58849E+06-1.88799E+08-3.61099E+08-2.06401E+07 3.55914E+08
 -1      1150 1.30162E+09 4.61149E+08 3.86312E+08-1.92780E+08-7.48772E+07-8.72636E+06
 -1      1151 1.76196E+09 6.85205E+08 6.85206E+08-3.15439E+06-2.64017E+02 3.64657E+08
 -1      1152-4.73865E+08-1.92931E+08 2.96442E+07-5.02991E+08-1.75427E+08-8.06672E+07
 -1      1153-3.47658E+08-7.74423E+08 4.49274E+06-9.26945E+07-9.55896E+06 3.77405E+07
 -1      1154-1.09730E+08-9.00259E+08-7.17736E+07 1.24503E+07 2.01496E+06-2.41263E+07
 -1      1155 3.59468E+07-3.76659E+08-2.75333E+07-1.10004E+08 8.34290E+07-5.73766E+07
 -1      1156 3.32025E+07-3.72705E+08-2.70922E+07 1.10083E+08 8.27608E+07 5.57778E+07
 -1      1157-1.07991E+08-8.85601E+08-7.02308E+07-8.25740E+06 2.27731E+06 2.26476E+07
 -1      1158-3.39985E+08-7.62221E+08 4.35400E+06 9.47752E+07-9.21082E+06-3.71348E+07
 -1      1159-4.60060E+08-1.90309E+08 2.91499E+07 4.88954E+08-1.72472E+08 7.87894E+07
 -1      1160-5.76496E+07-6.57244E+07-4.79127E+07-6.48369E+08-1.05962E+08 8.97825E+07
 -1      1161-1.92936E+08-4.39264E+08 3.20041E+07-4.79474E+08 7.99320E+07 1.82527E+08
 -1      1162-1.39666E+08-9.50527E+08 1.26155E+08-1.68247E+08 4.46226E+07 2.98402E+07
 -1      1163 1.45833E+07-7.57126E+08 1.41942E+08-1.54889E+07 5.11017E+07-2.43760E+06
 -1      1164 9.21824E+06-5.85097E+08 1.07052E+08 7.35584E+07 5.72771E+07 2.53568E+07
 -1      1165 4.43063E+07-4.82539E+08 6.82760E+07 4.89952E+07 5.20742E+07-1.93089E+07
 -1      1166 1.02587E+08-3.98117E+08 3.09152E+07 1.69184E+07 5.61215E+06 4.73208E+06
 -1      1167 9.99593E+07-3.92594E+08 3.05581E+07-1.30399E+07 6.28613E+06-4.81116E+06
 -1      1168 4.28085E+07-4.74577E+08 6.72754E+07-4.44145E+07 5.16695E+07 1.93389E+07
 -1      1169 7.61381E+06-5.75348E+08 1.04880E+08-6.82109E+07 5.59336E+07-2.37504E+07
 -1      1170 1.43415E+07-7.44182E+08 1.39189E+08 1.82878E+07 5.06075E+07 1.74561E+06
 -1      1171-1.35686E+08-9.34724E+08 1.23529E+08 1.67900E+08 4.40406E+07-2.92167E+07
 -1      1172-1.90563E+08-4.33814E+08 3.08363E+07 4.71132E+08 7.83039E+07-1.78030E+08
 -1      1173-5.87230E+07-6.50403E+07-4.65729E+07 6.33324E+08-1.00610E+08-8.81418E+07
 -1      1174-1.94985E+08-9.54117E+08-2.16203E+08 2.28850E+08 2.19260E+07-1.11465E+07
 -1      1175 9.95374E+05-3.93825E+08-5.92136E+07 1.87289E+08 6.59578E+06 2.31948E+07
 -1      1176 8.36024E+07-1.25252E+08-2.87144E+07 7.98748E+07-5.78899E+07 2.68655E+07
 -1      1177 8.11889E+07-1.21365E+08-2.81737E+07-7.49486E+07-5.60089E+07-2.64381E+07
 -1      1178-5.33403E+04-3.86970E+08-5.83213E+07-1.80662E+08 6.71346E+06-2.23713E+07
 -1      1179-1.90641E+08-9.36842E+08-2.11885E+08-2.22306E+08 2.08775E+07 1.14031E+07
 -1      1180 2.87533E+06 8.42824E+07-1.95914E+08 3.87987E+08 3.63072E+08 1.93766E+07
 -1      1181 4.48321E+07 8.16062E+07-1.58127E+08 3.43920E+08 2.24572E+08-1.76670E+07
 -1      1182 5.78445E+07 4.64250E+07-1.37545E+08 2.91740E+08 1.35069E+08 2.64808E+06
 -1      1183 3.31173E+07 8.75055E+07-1.23480E+08 2.45342E+08 1.08751E+08 2.05507E+07
 -1      1184 9.31432E+07 2.25412E+08-5.85731E+07 2.19115E+08 6.48451E+07 3.55425E+06
 -1      1185 1.60685E+08 1.88318E+08-1.52196E+07 1.76645E+08 5.08766E+07 4.22822E+07
 -1      1186 1.36437E+08 8.28149E+07-1.67221E+07 8.74732E+07-4.67088E+06 1.33502E+07
 -1      1187 1.22831E+08 5.71361E+07-2.75157E+07-2.76087E+05 3.18357E+07-1.26212E+05
 -1      1188 1.35113E+08 8.26304E+07-1.67320E+07-8.78378E+07-4.16860E+06-1.32487E+07
 -1      1189 1.56550E+08 1.86913E+08-1.58526E+07-1.74906E+08 5.04487E+07-4.22803E+07
 -1      1190 8.94381E+07 2.24402E+08-5.84693E+07-2.14101E+08 6.48427E+07-3.76830E+06
 -1      1191 3.08336E+07 8.73551E+07-1.21957E+08-2.38562E+08 1.07091E+08-2.00228E+07
 -1      1192 5.60729E+07 4.56736E+07-1.35266E+08-2.83605E+08 1.32984E+08-2.66647E+06
 -1      1193 4.36101E+07 7.98156E+07-1.55131E+08-3.34838E+08 2.20449E+08 1.74290E+07
 -1      1194 2.07951E+06 8.20686E+07-1.92063E+08-3.78313E+08 3.55604E+08-1.91014E+07
 -1      1195 4.57118E+08 1.28681E+09 3.78142E+08 2.09499E+08-4.08947E+06 6.80670E+07
 -1      1196 3.04215E+08 7.78408E+08 2.19764E+08 1.70115E+08-2.26433E+07-2.94852E+07
 -1      1197 1.44665E+08 3.81552E+08 7.34566E+07 1.33940E+08-2.19933E+06-1.37776E+07
 -1      1198 6.37024E+07 9.22438E+07 4.60869E+06 4.47560E+07-3.38635E+06-3.61926E+06
 -1      1199 6.36693E+07 9.27003E+07 4.93348E+06-4.49268E+07-3.53145E+06 3.06782E+06
 -1      1200 1.42538E+08 3.79115E+08 7.28907E+07-1.31460E+08-2.36925E+06 1.34144E+07
 -1      1201 2.99113E+08 7.65875E+08 2.16320E+08-1.65428E+08-2.25328E+07 2.89736E+07
 -1      1202 4.47548E+08 1.26071E+09 3.70500E+08-2.03948E+08-4.28396E+06-6.69060E+07
 -1      1203 6.82523E+08 1.75506E+09 6.82523E+08 6.69480E+06 3.74538E+08 2.92194E+02
 -1      1204 5.40001E+08 1.38857E+09 5.40001E+08 1.73097E+07 2.46964E+08-2.21773E+02
 -1      1205 4.03371E+08 1.03724E+09 4.03371E+08 2.16502E+07 1.94732E+08 1.23324E+02
 -1      1206 2.83561E+08 7.29157E+08 2.83561E+08 1.68296E+07 1.02094E+08-2.82163E+02
 -1      1207 1.72909E+08 4.44623E+08 1.72909E+08 1.69196E+07 5.59400E+07 1.58220E+02
 -1      1208 9.87982E+07 2.54053E+08 9.87985E+07 1.01992E+07-7.22564E+05-1.61589E+02
 -1      1209 4.81937E+07 1.23927E+08 4.81941E+07 1.71574E+06 5.18419E+07 1.72931E+01
 -1      1210 3.89162E+07 1.00071E+08 3.89165E+07-6.25930E+03 2.12577E+06 7.57574E-01
 -1      1211 4.84725E+07 1.24644E+08 4.84728E+07-1.71265E+06 5.14703E+07-1.86331E+01
 -1      1212 9.86618E+07 2.53702E+08 9.86621E+07-1.02140E+07 2.49996E+04 1.60692E+02
 -1      1213 1.71878E+08 4.41973E+08 1.71879E+08-1.67207E+07 5.47591E+07-1.50541E+02
 -1      1214 2.80045E+08 7.20115E+08 2.80045E+08-1.64382E+07 1.01177E+08 2.73034E+02
 -1      1215 3.96994E+08 1.02084E+09 3.96994E+08-2.10926E+07 1.91386E+08-1.17600E+02
 -1      1216 5.29788E+08 1.36231E+09 5.29788E+08-1.68132E+07 2.42030E+08 2.14320E+02
 -1      1217 6.68441E+08 1.71885E+09 6.68442E+08-6.31919E+06 3.66167E+08-2.83301E+02
 -1      1218 7.13318E+08 6.22737E+08 5.69958E+08 3.09094E+08 5.99773E+08 6.95401E+08
 -1      1219 5.46253E+07-3.30427E+07 1.73095E+07-1.07247E+07 1.54928E+07 6.63531E+07
 -1      1220 8.22582E+07 2.01577E+07 3.40420E+07 2.41016E+06 2.68492E+07 3.77151E+07
 -1      1221 8.31034E+07 2.54506E+07 2.88439E+07-1.03598E+06 3.37786E+07-4.19280E+07
 -1      1222 3.83206E+07-5.50126E+07-2.71093E+06 1.13825E+07 1.84023E+07-8.04809E+07
 -1      1223 6.15349E+08 7.41931E+08 5.79555E+08-3.13757E+08 7.23474E+08-5.91898E+08
 -1      1224-5.15646E+07 3.91175E+07-4.90852E+05-1.15931E+07 7.43297E+07 1.79143E+07
 -1      1225 6.19439E+07 5.41476E+07-5.45474E+07 5.53268E+07-1.30344E+07-1.82969E+07
 -1      1226 6.63206E+07 3.12966E+07 3.25445E+06 8.61705E+06 1.15022E+07 9.94611E+06
 -1      1227 6.62763E+07 3.01230E+07 3.44228E+06-1.27328E+07 1.32454E+07-1.00872E+07
 -1      1228 5.36560E+07 6.25522E+07-5.53677E+07-5.83120E+07-2.11513E+07 1.11109E+07
 -1      1229-3.07834E+07 5.55354E+07 2.00654E+07 1.02421E+07 6.61002E+07-1.46863E+07
 -1      1230 2.53601E+07 7.87690E+07 3.08690E+07 8.56315E+05 3.64774E+07 3.22157E+07
 -1      1231 2.99601E+07 6.29998E+07 4.54556E+06 1.13793E+07 7.15823E+06 1.40243E+07
 -1      1232 5.76769E+07 5.64051E+07 1.35309E+06 1.93876E+06 3.24910E+06 4.83833E+06
 -1      1233 5.68836E+07 5.70674E+07 1.43136E+06-4.22524E+06 2.96919E+06-5.19790E+06
 -1      1234 3.00593E+07 6.28571E+07 4.30241E+06-1.25676E+07 8.26189E+06-1.28294E+07
 -1      1235 2.21992E+07 7.88395E+07 3.69571E+07-4.09904E+06 4.15692E+07-2.64298E+07
 -1      1236 1.52933E+07 7.08077E+07 2.18311E+07-7.79293E+05-3.20056E+07 2.41705E+07
 -1      1237 2.85972E+07 5.97971E+07 1.71530E+06-7.41916E+06-1.01947E+07 1.18522E+07
 -1      1238 5.40627E+07 5.38855E+07 1.03160E+06-2.15475E+06-6.63072E+06 4.71424E+06
 -1      1239 5.38801E+07 5.39370E+07 1.10312E+06 2.90433E+05-6.60546E+06-4.81306E+06
 -1      1240 2.76300E+07 5.97216E+07 9.91692E+05 5.66015E+06-1.07945E+07-1.20587E+07
 -1      1241 1.52463E+07 7.08115E+07 2.03780E+07 7.95477E+05-3.09741E+07-2.38098E+07
 -1      1242-3.45517E+07 3.93926E+07 2.84027E+06 7.01858E+06-6.21176E+07 1.47253E+07
 -1      1243 4.83883E+07 4.60428E+07-4.19763E+07-4.39142E+07 6.67461E+06-1.04494E+07
 -1      1244 5.69986E+07 2.71905E+07 2.46596E+06-8.64720E+06-1.27213E+07 8.46550E+06
 -1      1245 5.67100E+07 2.71106E+07 2.13169E+06 6.79348E+06-1.27367E+07-8.51816E+06
 -1      1246 4.74336E+07 4.57514E+07-4.03638E+07 4.13258E+07 6.38740E+06 9.53131E+06
 -1      1247-3.28289E+07 3.96014E+07 3.97871E+06-7.06640E+06-5.89142E+07-1.41001E+07
 -1      1248 5.25290E+08 4.85939E+08 4.45986E+08-2.32469E+08-4.75200E+08 5.15632E+08
 -1      1249 4.37978E+07-2.75515E+07 9.71772E+06 6.71506E+06-1.31203E+07 5.67805E+07
 -1      1250 6.77791E+07 1.61853E+07 2.50044E+07-2.31855E+06-2.22319E+07 3.26843E+07
 -1      1251 6.71404E+07 1.54637E+07 2.36380E+07 1.73564E+06-2.19037E+07-3.00613E+07
 -1      1252 4.24729E+07-2.74663E+07 8.67286E+06-6.78038E+06-1.31710E+07-5.46737E+07
 -1      1253 5.03962E+08 4.73475E+08 4.30835E+08 2.24922E+08-4.63936E+08-4.95014E+08
 -1      1254 2.36887E+08 1.88547E+08 2.79398E+08 1.16393E+08 3.49402E+08 4.08252E+08
 -1      1255 1.63576E+08 4.11906E+07-3.38538E+06 8.20881E+07 3.55105E+07 1.02701E+08
 -1      1256 1.36749E+08 3.55237E+06 6.50383E+06 3.11043E+07 1.94864E+07 6.02390E+07
 -1      1257 7.69798E+07-2.56252E+07-2.99035E+07 8.70421E+06 2.06887E+06 2.64814E+07
 -1      1258 1.17435E+08 6.41274E+06 1.85278E+07 8.28714E+05 1.38042E+07 2.13611E+07
 -1      1259 1.06271E+08 1.32575E+06 1.04199E+07-8.36407E+05 1.19085E+07-2.14651E+06
 -1      1260 1.13596E+08 5.53575E+06 1.41582E+07-2.80970E+06 1.82476E+07-2.55257E+07
 -1      1261 7.71906E+07-2.36876E+07-2.63643E+07-1.23065E+07-1.54575E+06-3.47037E+07
 -1      1262 1.13767E+08-6.85229E+06-5.82390E+06-3.00213E+07 2.19739E+07-7.21913E+07
 -1      1263 1.15705E+08 4.57249E+07 1.25632E+07-8.11696E+07 4.18313E+07-1.08816E+08
 -1      1264 1.82388E+08 2.50556E+08 2.84127E+08-1.18156E+08 4.25323E+08-3.44264E+08
 -1      1265 4.42367E+07 1.21087E+08 9.70896E+06 7.98517E+07 1.05277E+08 4.07981E+07
 -1      1266 1.11614E+08 4.57482E+07 3.59152E+07 5.22028E+07 1.84702E+07 3.27059E+07
 -1      1267 1.17296E+08 2.46816E+07-6.04227E+05 9.92883E+06 1.58544E+06-4.35482E+05
 -1      1268 1.14235E+08 2.48675E+07-5.76080E+05-1.42901E+07 1.25639E+06-1.69025E+06
 -1      1269 1.10113E+08 4.75632E+07 3.34737E+07-5.24223E+07 2.72389E+07-2.85046E+07
 -1      1270 4.09772E+07 1.72572E+08-6.07620E+06-8.41793E+07 1.04502E+08-3.48750E+07
 -1      1271-5.70126E+06 1.14405E+08-4.42383E+06 2.90301E+07 6.68932E+07 2.16059E+07
 -1      1272 4.76474E+07 1.08308E+08 3.36318E+07 5.00456E+07 2.76630E+07 2.59097E+07
 -1      1273 6.31433E+07 5.80339E+07-3.52952E+07 6.04927E+07-7.23575E+06-9.16612E+06
 -1      1274 8.52628E+07 5.34164E+07-6.82006E+06 3.42696E+07 6.72170E+06-4.57694E+06
 -1      1275 9.94730E+07 4.84870E+07 2.51343E+06 1.53650E+07 1.05212E+07 7.17554E+06
 -1      1276 1.01274E+08 4.80490E+07 5.04722E+06-2.79765E+06 1.27927E+07 1.25035E+05
 -1      1277 9.87216E+07 4.87452E+07 2.51059E+06-2.09157E+07 1.13973E+07-7.50530E+06
 -1      1278 8.27689E+07 5.58345E+07-7.78099E+06-3.82664E+07 6.29045E+06 3.13900E+06
 -1      1279 5.80645E+07 6.24302E+07-3.58399E+07-6.45725E+07-1.09445E+07 6.04364E+06
 -1      1280 4.60549E+07 1.10242E+08 3.70499E+07-5.56619E+07 3.27727E+07-1.77777E+07
 -1      1281 5.08755E+06 1.39122E+08 8.21456E+06-3.28389E+07 5.98553E+07-1.90881E+07
 -1      1282-2.36932E+07 7.30326E+07-2.61925E+07 1.10287E+07 3.10575E+07-9.46042E+05
 -1      1283 5.56673E+07 8.02027E+07-7.43415E+06 3.53605E+07-4.31467E+06 7.38343E+06
 -1      1284 8.94935E+07 6.72510E+07 3.13729E+05 8.06720E+06 2.64042E+05 2.96125E+06
 -1      1285 8.86337E+07 6.78731E+07 1.22199E+05-1.19771E+07 5.14153E+05-3.26547E+06
 -1      1286 5.26496E+07 8.23122E+07-6.68874E+06-3.90638E+07-5.68459E+06-7.70341E+06
 -1      1287-2.62294E+07 7.19489E+07-3.08628E+07-9.74586E+06 2.85294E+07-2.49769E+06
 -1      1288 6.20124E+06 1.07663E+08 1.59682E+07 2.43908E+06 2.14620E+07 1.68630E+07
 -1      1289 2.40077E+07 1.07643E+08-1.22818E+06 1.29209E+07-2.55358E+05 1.52553E+06
 -1      1290 4.79909E+07 9.40595E+07 3.08332E+06 1.87397E+07 5.28020E+06 1.21583E+07
 -1      1291 6.76243E+07 8.58089E+07 2.14811E+05 9.55986E+06 1.44213E+06 1.45927E+06
 -1      1292 8.61098E+07 8.43100E+07 2.27765E+06 3.52321E+06 2.15234E+06 3.43273E+06
 -1      1293 8.38786E+07 8.09523E+07 1.04188E+06-1.70546E+06 1.43774E+06-1.54317E+04
 -1      1294 8.49958E+07 8.51396E+07 2.29767E+06-6.92543E+06 2.01454E+06-3.72758E+06
 -1      1295 6.63832E+07 8.64823E+07 2.69878E+05-1.26526E+07 1.39621E+06-1.32975E+06
 -1      1296 4.69440E+07 9.45822E+07 3.07712E+06-2.11165E+07 5.67692E+06-1.15539E+07
 -1      1297 2.36227E+07 1.10455E+08-1.14181E+06-1.41489E+07-1.56038E+06-1.45640E+06
 -1      1298 7.37146E+06 1.11622E+08 2.04043E+07-2.90727E+06 2.44858E+07-1.30453E+07
 -1      1299 6.06824E+05 9.60971E+07 8.46472E+06 9.24642E+05 1.70389E+06 1.12160E+07
 -1      1300 4.53181E+07 9.31468E+07 4.33625E+06 2.81481E+06-8.05507E+05 1.29584E+07
 -1      1301 7.97926E+07 8.08566E+07 9.90417E+05-6.26454E+04-1.27165E+06 2.89347E+06
 -1      1302 7.89958E+07 8.10747E+07 9.71451E+05-2.96732E+06-1.25307E+06-3.13683E+06
 -1      1303 4.47117E+07 9.39300E+07 4.35338E+06-5.21867E+06-4.82311E+05-1.24979E+07
 -1      1304 9.19527E+05 9.75597E+07 9.40793E+06-1.74792E+06 3.53569E+06-1.02998E+07
 -1      1305 3.25819E+06 1.00237E+08 1.07392E+07-9.64094E+05-1.92637E+07 1.34462E+07
 -1      1306 2.22953E+07 1.02357E+08-1.29047E+05-8.47570E+06-2.62700E+06 2.14980E+06
 -1      1307 4.43044E+07 8.89862E+07 1.45040E+06-1.28257E+07-7.67951E+06 1.03773E+07
 -1      1308 6.33500E+07 8.18210E+07 2.52014E+05-6.84551E+06-4.56849E+06 1.32037E+06
 -1      1309 8.06328E+07 8.03434E+07 1.89395E+06-3.66946E+06-4.97429E+06 3.49697E+06
 -1      1310 7.89067E+07 7.69327E+07 9.07144E+05-1.38403E+06-4.55811E+06-2.22799E+04
 -1      1311 8.02360E+07 8.03932E+07 1.89857E+06 9.25196E+05-5.00755E+06-3.59211E+06
 -1      1312 6.26896E+07 8.19254E+07 1.49015E+05 4.30201E+06-4.75383E+06-1.40027E+06
 -1      1313 4.34335E+07 8.89110E+07 1.07533E+06 1.02831E+07-7.98950E+06-1.03526E+07
 -1      1314 2.21564E+07 1.02412E+08 4.00052E+05 6.73532E+06-2.47384E+06-1.87768E+06
 -1      1315 2.86013E+06 9.99469E+07 9.51750E+06 2.36688E+05-1.84899E+07-1.34731E+07
 -1      1316-1.93765E+07 6.83493E+07-2.15038E+07-8.58305E+06-2.54409E+07 6.88310E+05
 -1      1317 4.81151E+07 7.34605E+07-6.05131E+06-2.75493E+07 1.56228E+06 7.19859E+06
 -1      1318 7.99746E+07 6.17589E+07 2.26728E+05-7.97640E+06-2.32759E+06 2.94612E+06
 -1      1319 7.96298E+07 6.17515E+07 2.20154E+05 5.34745E+06-2.31257E+06-3.12904E+06
 -1      1320 4.73481E+07 7.33120E+07-5.91293E+06 2.47724E+07 1.40868E+06-7.32713E+06
 -1      1321-1.91059E+07 6.80640E+07-2.14130E+07 7.74450E+06-2.36675E+07-1.18750E+06
 -1      1322-2.93320E+06 9.89750E+07-1.50615E+06-2.45526E+07-5.54532E+07 1.67163E+07
 -1      1323 3.84233E+07 9.08856E+07 2.63974E+07-4.10619E+07-2.46168E+07 1.83917E+07
 -1      1324 5.20143E+07 5.11125E+07-2.74113E+07-4.89118E+07 2.55143E+06-4.60607E+06
 -1      1325 7.18202E+07 4.66079E+07-5.68643E+06-2.86339E+07-8.23468E+06-2.90160E+06
 -1      1326 8.52021E+07 4.23146E+07 1.89544E+06-1.46651E+07-1.10853E+07 6.08368E+06
 -1      1327 8.67703E+07 4.15947E+07 3.66928E+06-1.38477E+06-1.24254E+07 1.17113E+04
 -1      1328 8.47488E+07 4.21774E+07 1.69104E+06 1.18805E+07-1.10401E+07-6.15974E+06
 -1      1329 7.11763E+07 4.64405E+07-5.55492E+06 2.57016E+07-8.29904E+06 2.67787E+06
 -1      1330 5.13131E+07 5.09306E+07-2.64137E+07 4.55645E+07 2.23570E+06 4.01594E+06
 -1      1331 3.75483E+07 8.93369E+07 2.54907E+07 3.87490E+07-2.43667E+07-1.75974E+07
 -1      1332-2.48579E+06 9.79817E+07-7.31140E+05 2.35611E+07-5.27839E+07-1.60379E+07
 -1      1333 3.27965E+07 1.02720E+08 5.36831E+06-6.27019E+07-8.50903E+07 3.15969E+07
 -1      1334 8.98860E+07 3.80962E+07 2.75258E+07-4.21923E+07-1.57295E+07 2.53186E+07
 -1      1335 9.70823E+07 2.11242E+07-4.43891E+05-9.89157E+06-1.98948E+06 7.91359E+05
 -1      1336 9.65689E+07 2.10981E+07-2.78280E+05 7.97130E+06-2.02983E+06-8.62757E+05
 -1      1337 8.81765E+07 3.74642E+07 2.64983E+07 3.96010E+07-1.55745E+07-2.45988E+07
 -1      1338 3.15709E+07 1.01555E+08 4.70230E+06 6.05739E+07-8.18465E+07-3.05448E+07
 -1      1339 1.73660E+08 1.52283E+08 2.19414E+08-8.86634E+07-2.79470E+08 3.04386E+08
 -1      1340 1.19830E+08 3.12033E+07-5.15052E+05-6.36340E+07-2.94952E+07 8.36436E+07
 -1      1341 1.05650E+08 6.50135E+05 2.76726E+06-2.55085E+07-1.56007E+07 5.08592E+07
 -1      1342 6.41194E+07-2.01538E+07-2.29258E+07-8.08987E+06-1.99252E+06 2.39905E+07
 -1      1343 9.59442E+07 4.24245E+06 1.29328E+07-1.79959E+06-1.18140E+07 1.97391E+07
 -1      1344 8.85713E+07 3.34212E+05 7.76856E+06-4.32676E+05-9.31423E+06 9.92776E+05
 -1      1345 9.51086E+07 3.84125E+06 1.20678E+07 1.01546E+06-1.17858E+07-1.78368E+07
 -1      1346 6.38510E+07-1.96180E+07-2.21800E+07 7.35851E+06-2.02547E+06-2.22756E+07
 -1      1347 1.02429E+08 5.48925E+04 2.18329E+06 2.42131E+07-1.54067E+07-4.90307E+07
 -1      1348 1.14582E+08 3.03132E+07 1.25145E+05 6.12693E+07-2.89826E+07-8.06243E+07
 -1      1349 1.65429E+08 1.48830E+08 2.11791E+08 8.57354E+07-2.73006E+08-2.92193E+08
 -1      1350 1.40049E+08 9.90581E+07 8.91419E+07 1.14194E+08 1.29150E+08 1.52038E+08
 -1      1351 1.76494E+08 7.23701E+06-5.22223E+06 5.41091E+07 9.58611E+06 2.47758E+07
 -1      1352 1.43429E+08-2.05988E+06-5.46814E+06 6.09407E+06 4.96317E+06 4.29311E+06
 -1      1353 1.40166E+08-1.65525E+06-5.56739E+06-9.68332E+06 5.84882E+06-8.36778E+06
 -1      1354 1.53021E+08 6.63993E+05-9.46807E+06-5.39840E+07 1.12524E+07-3.41957E+07
 -1      1355 9.28275E+07 1.50692E+08 9.07329E+07-1.16123E+08 1.58514E+08-1.27098E+08
 -1      1356 1.43860E+06 1.53297E+08-8.63234E+06 5.21862E+07 3.06403E+07 1.09993E+07
 -1      1357 9.53569E+07 8.96062E+07-3.91978E+06 7.78427E+07 8.95600E+06 9.70563E+06
 -1      1358 1.33146E+08 6.48153E+07 2.49376E+06 1.93205E+07 6.18350E+06 2.74793E+06
 -1      1359 1.31650E+08 6.52005E+07 1.94532E+06-2.64497E+07 6.36454E+06-3.01383E+06
 -1      1360 9.00078E+07 9.44257E+07-3.96341E+06-8.31410E+07 9.15281E+06-9.67354E+06
 -1      1361 8.31558E+06 1.78438E+08-4.52141E+06-5.67121E+07 2.38516E+07-9.37305E+06
 -1      1362-1.46691E+06 1.31843E+08-4.74826E+06 8.67675E+06 5.84259E+06 5.38655E+06
 -1      1363 6.37285E+07 1.25084E+08 1.92653E+06 2.37567E+07 1.98845E+06 6.64248E+06
 -1      1364 1.11866E+08 1.09592E+08 6.33320E+05 4.90160E+06 1.46760E+06 2.16786E+06
 -1      1365 1.10411E+08 1.10564E+08 5.75669E+05-9.41721E+06 1.30335E+06-2.41968E+06
 -1      1366 6.24148E+07 1.26387E+08 2.50184E+06-2.69744E+07 2.13487E+06-6.43044E+06
 -1      1367-2.07840E+06 1.34342E+08-5.27764E+06-9.18826E+06 5.61416E+06-4.55694E+06
 -1      1368-1.82441E+06 1.25590E+08-4.58945E+06-5.60221E+06-5.99544E+06 4.91283E+06
 -1      1369 5.92838E+07 1.18851E+08 1.64403E+06-1.60288E+07-3.30753E+06 6.28490E+06
 -1      1370 1.05068E+08 1.04654E+08 7.13634E+05-5.06378E+06-3.05111E+06 2.16453E+06
 -1      1371 1.04521E+08 1.04707E+08 6.93633E+05 1.44704E+06-3.10245E+06-2.22551E+06
 -1      1372 5.83568E+07 1.18977E+08 1.60193E+06 1.26820E+07-3.35143E+06-6.24179E+06
 -1      1373-2.09234E+06 1.25160E+08-5.20277E+06 4.37217E+06-5.60038E+06-4.93704E+06
 -1      1374 1.63743E+06 1.30913E+08-6.47977E+06-4.29476E+07-2.61128E+07 8.58680E+06
 -1      1375 7.81920E+07 7.73920E+07-3.46408E+06-6.29294E+07-8.95248E+06 8.42076E+06
 -1      1376 1.13714E+08 5.63560E+07 1.75150E+06-1.85811E+07-6.40685E+06 2.55475E+06
 -1      1377 1.13155E+08 5.62386E+07 1.67127E+06 1.49315E+07-6.43471E+06-2.57078E+06
 -1      1378 7.69448E+07 7.67561E+07-3.34330E+06 5.86191E+07-8.91131E+06-8.34600E+06
 -1      1379 1.67471E+06 1.29214E+08-6.22049E+06 4.10959E+07-2.48717E+07-8.32605E+06
 -1      1380 1.01283E+08 8.31228E+07 7.01883E+07-8.89246E+07-1.05302E+08 1.14910E+08
 -1      1381 1.37236E+08 3.90342E+06-4.89959E+06-4.39355E+07-7.98161E+06 2.24535E+07
 -1      1382 1.18254E+08-1.94090E+06-4.54173E+06-6.57998E+06-4.32796E+06 5.53665E+06
 -1      1383 1.17651E+08-1.98885E+06-4.55664E+06 5.25305E+06-4.36398E+06-4.70284E+06
 -1      1384 1.33433E+08 3.39312E+06-4.95933E+06 4.17784E+07-7.88707E+06-2.17702E+07
 -1      1385 9.59100E+07 8.17993E+07 6.77128E+07 8.59848E+07-1.02890E+08-1.10310E+08
 -1      1386 1.24145E+08 8.90313E+07 6.27160E+07 1.24749E+08 5.67577E+07 7.19998E+07
 -1      1387 1.89253E+08 4.83127E+07-6.34045E+06 1.21008E+08-7.89681E+06 2.60368E+07
 -1      1388 2.31306E+08 1.93851E+07 5.11368E+06 8.02621E+07 2.19871E+07 1.84404E+07
 -1      1389 1.73959E+08-4.84292E+06 1.51705E+05 2.84635E+07 1.05593E+07 1.27353E+07
 -1      1390 1.79875E+08-1.33737E+06-7.54709E+06 1.14038E+07 5.88682E+05-3.50991E+06
 -1      1391 1.89082E+08 3.17876E+06 4.03557E+06-2.57824E+06 2.23966E+06-6.90017E+05
 -1      1392 1.75937E+08-1.05068E+06-7.90789E+06-1.66448E+07 7.82157E+05 6.60406E+05
 -1      1393 1.69239E+08-3.27004E+06 5.59230E+05-3.37882E+07 1.05658E+07-1.22584E+07
 -1      1394 2.02903E+08 1.22579E+07-4.68721E+04-8.19160E+07 2.51682E+07-2.15042E+07
 -1      1395 1.43596E+08 4.90854E+07-4.37798E+05-1.22030E+08-1.07280E+07-2.73920E+07
 -1      1396 8.35663E+07 1.33257E+08 6.37953E+07-1.27073E+08 7.58445E+07-5.48414E+07
 -1      1397 4.83215E+07 1.48321E+08-1.44352E+06 1.19309E+08 2.65766E+07-9.79904E+06
 -1      1398 1.76856E+08 6.21628E+07 1.13791E+07 9.71919E+07 7.23204E+06-1.26370E+04
 -1      1399 1.85446E+08 3.63436E+07-4.39835E+06 1.97532E+07-3.11664E+06-2.82664E+06
 -1      1400 1.82049E+08 3.73610E+07-3.71450E+06-2.72449E+07-3.34611E+06 2.08366E+06
 -1      1401 1.68151E+08 6.31187E+07 1.08135E+07-1.01376E+08 1.01370E+07 2.59389E+06
 -1      1402 4.84799E+07 1.97088E+08-7.46558E+06-1.24323E+08 2.67932E+07 7.69252E+06
 -1      1403 1.29958E+07 2.03208E+08 8.63056E+05 7.90953E+07 1.98432E+07 2.44518E+07
 -1      1404 6.35565E+07 1.66399E+08 1.08170E+07 9.65683E+07-2.21804E+06 9.43906E+06
 -1      1405 1.11891E+08 1.05624E+08-8.79784E+06 9.57804E+07 9.60039E+06 8.70211E+06
 -1      1406 1.43573E+08 8.91456E+07-4.95020E+06 5.22967E+07 6.41360E+06-8.18228E+05
 -1      1407 1.67133E+08 8.17871E+07 3.16608E+06 2.33904E+07 3.27233E+06 3.56728E+06
 -1      1408 1.65243E+08 7.76360E+07 1.61049E+05-4.44050E+06 3.14873E+06 2.07330E+04
 -1      1409 1.65003E+08 8.25943E+07 2.80175E+06-3.21856E+07 3.69589E+06-3.61012E+06
 -1      1410 1.38515E+08 9.21663E+07-4.86471E+06-6.00029E+07 5.90725E+06-5.91201E+05
 -1      1411 1.06117E+08 1.10538E+08-8.91718E+06-1.02349E+08 8.40553E+06-1.02794E+07
 -1      1412 6.24448E+07 1.75235E+08 1.16939E+07-1.02651E+08-1.81399E+05-7.10409E+06
 -1      1413 2.05785E+07 2.33494E+08 6.24913E+06-8.37150E+07 1.82108E+07-2.19768E+07
 -1      1414-3.86935E+06 1.62425E+08 4.75257E+05 3.12958E+07 1.22838E+07 1.03854E+07
 -1      1415 9.19292E+07 1.34706E+08-4.73514E+06 5.51346E+07 3.56908E+05 6.03352E+06
 -1      1416 1.49427E+08 1.13782E+08 2.15437E+06 1.32364E+07-1.89602E+06 2.10771E+06
 -1      1417 1.47693E+08 1.14706E+08 2.11761E+06-1.99589E+07-1.65736E+06-2.11788E+06
 -1      1418 8.79725E+07 1.39032E+08-4.96200E+06-5.99176E+07-6.11736E+05-6.64490E+06
 -1      1419-5.63422E+06 1.66362E+08 2.29313E+04-3.14971E+07 1.42046E+07-1.04433E+07
 -1      1420-1.07600E+06 1.65365E+08-6.87446E+06 1.49761E+07-1.85536E+06 4.25317E+05
 -1      1421 3.58443E+07 1.71454E+08-3.73622E+06 2.48221E+07-2.65981E+06-3.28638E+06
 -1      1422 8.05927E+07 1.56845E+08 2.75970E+06 2.89647E+07 3.15902E+06 3.50492E+06
 -1      1423 1.14192E+08 1.43031E+08 2.14387E+06 1.58853E+07 1.77273E+06-1.71404E+06
 -1      1424 1.38487E+08 1.35770E+08-6.96206E+04 6.18277E+06 1.49355E+06 1.46215E+06
 -1      1425 1.38528E+08 1.31830E+08-2.68125E+05-2.85248E+06 1.38613E+06 1.95472E+04
 -1      1426 1.36734E+08 1.36887E+08-1.45069E+05-1.18043E+07 1.13607E+06-1.69536E+06
 -1      1427 1.12277E+08 1.44547E+08 2.23580E+06-2.06894E+07 1.97605E+06 2.00511E+06
 -1      1428 7.87575E+07 1.58817E+08 3.29775E+06-3.30062E+07 3.85425E+06-3.08591E+06
 -1      1429 3.42431E+07 1.73992E+08-4.65027E+06-2.73106E+07-3.97127E+06 3.20683E+06
 -1      1430-1.84925E+06 1.67813E+08-7.44598E+06-1.57113E+07-3.27400E+06-2.43215E+04
 -1      1431 2.19230E+06 1.71072E+08 3.02095E+06 2.22250E+06 6.00620E+05 2.20900E+06
 -1      1432 7.34052E+07 1.52333E+08 1.60244E+05 4.67048E+06 1.44766E+05 3.19938E+06
 -1      1433 1.29901E+08 1.33570E+08-2.59781E+05-7.33174E+04 7.39580E+04 1.54576E+06
 -1      1434 1.28756E+08 1.34081E+08-2.07423E+05-4.87926E+06 3.27874E+04-1.71275E+06
 -1      1435 7.19635E+07 1.53230E+08 5.36012E+04-8.68771E+06 4.49482E+05-3.01056E+06
 -1      1436 2.63214E+06 1.73139E+08 3.98559E+06-3.49175E+06 8.32786E+05-2.13747E+06
 -1      1437-9.13958E+05 1.58289E+08-6.05776E+06-1.02060E+07 8.13359E+05 1.25022E+06
 -1      1438 3.34517E+07 1.63392E+08-2.96296E+06-1.65656E+07 9.89256E+05-2.60448E+06
 -1      1439 7.46104E+07 1.48774E+08 2.16452E+06-1.93285E+07-3.03094E+06 3.40284E+06
 -1      1440 1.06556E+08 1.36021E+08 1.65812E+06-1.13849E+07-2.08965E+06-1.62073E+06
 -1      1441 1.30196E+08 1.29632E+08 1.76412E+05-6.37725E+06-1.70646E+06 1.43134E+06
 -1      1442 1.30589E+08 1.25390E+08-1.81893E+05-2.26444E+06-1.88850E+06 5.35417E+03
 -1      1443 1.29497E+08 1.29710E+08 1.66478E+05 1.89587E+06-1.72609E+06-1.46099E+06
 -1      1444 1.05422E+08 1.36251E+08 1.63838E+06 7.20166E+06-2.14979E+06 1.52533E+06
 -1      1445 7.35028E+07 1.48956E+08 2.16496E+06 1.51626E+07-3.05742E+06-3.49833E+06
 -1      1446 3.29901E+07 1.63110E+08-2.93334E+06 1.34977E+07 7.18148E+05 2.56681E+06
 -1      1447-1.29441E+06 1.57489E+08-6.80397E+06 8.49092E+06 9.67814E+05-1.33344E+06
 -1      1448-3.59668E+06 1.46775E+08 1.61765E+05-2.47096E+07-9.05864E+06 8.74207E+06
 -1      1449 7.97657E+07 1.23058E+08-3.88285E+06-4.27409E+07 2.08402E+05 5.39392E+06
 -1      1450 1.33162E+08 1.03865E+08 1.74877E+06-1.31113E+07 1.66813E+06 1.95144E+06
 -1      1451 1.32515E+08 1.03796E+08 1.69359E+06 8.79089E+06 1.65365E+06-1.94214E+06
 -1      1452 7.86057E+07 1.22762E+08-3.79628E+06 3.82772E+07 3.74386E+05-5.37590E+06
 -1      1453-3.58543E+06 1.45844E+08 5.45582E+04 2.27097E+07-8.24793E+06-8.54032E+06
 -1      1454 1.05428E+07 1.72332E+08 1.28130E+06-6.42435E+07-1.68647E+07 1.87838E+07
 -1      1455 5.16395E+07 1.40631E+08 8.63841E+06-7.79466E+07 9.77032E+05 6.88854E+06
 -1      1456 9.24015E+07 9.16748E+07-7.11086E+06-7.74587E+07-8.31536E+06 7.60620E+06
 -1      1457 1.20870E+08 7.75842E+07-3.86171E+06-4.41262E+07-5.67461E+06-4.17454E+05
 -1      1458 1.42522E+08 7.08766E+07 2.35572E+06-2.26157E+07-3.13144E+06 3.16232E+06
 -1      1459 1.41809E+08 6.69677E+07 3.00262E+04-2.25975E+06-2.97035E+06 8.50548E+04
 -1      1460 1.41792E+08 7.07055E+07 2.24671E+06 1.80816E+07-3.22318E+06-2.99721E+06
 -1      1461 1.19728E+08 7.72759E+07-3.74759E+06 3.94795E+07-5.58022E+06 5.50147E+05
 -1      1462 9.10210E+07 9.10041E+07-6.87825E+06 7.21521E+07-8.04228E+06-7.42348E+06
 -1      1463 5.06168E+07 1.38621E+08 8.29826E+06 7.35748E+07 6.21369E+05-6.50460E+06
 -1      1464 1.03055E+07 1.69929E+08 1.34075E+06 6.13745E+07-1.63562E+07-1.81360E+07
 -1      1465 3.75907E+07 1.26892E+08-2.14633E+06-9.56263E+07-2.11806E+07-7.12791E+06
 -1      1466 1.41084E+08 5.14807E+07 8.88627E+06-7.85541E+07-5.98592E+06-3.68134E+05
 -1      1467 1.54096E+08 3.09783E+07-3.30120E+06-1.91943E+07 2.60961E+06-2.04870E+06
 -1      1468 1.53406E+08 3.09962E+07-3.14587E+06 1.57549E+07 2.54284E+06 1.67413E+06
 -1      1469 1.38321E+08 5.07464E+07 8.55235E+06 7.40227E+07-5.78899E+06 2.38595E+05
 -1      1470 3.64757E+07 1.25417E+08-2.23609E+06 9.21514E+07-2.03491E+07 6.66814E+06
 -1      1471 9.18546E+07 7.62274E+07 4.95854E+07-9.91781E+07-4.70246E+07 5.34508E+07
 -1      1472 1.42699E+08 3.72942E+07-4.32986E+06-9.63860E+07 6.10201E+06 2.10783E+07
 -1      1473 1.79796E+08 1.29220E+07 3.31751E+06-6.49985E+07-1.78440E+07 1.56131E+07
 -1      1474 1.41281E+08-4.60656E+06-7.53884E+04-2.47028E+07-8.53893E+06 9.94626E+06
 -1      1475 1.48341E+08-1.50855E+06-6.08380E+06-1.14775E+07-6.93866E+05-1.50569E+06
 -1      1476 1.56981E+08 1.81380E+06 3.27224E+06-9.64684E+05-2.07122E+06 2.39077E+05
 -1      1477 1.47697E+08-1.50087E+06-6.03644E+06 9.55184E+06-8.26219E+05 1.69339E+06
 -1      1478 1.39838E+08-4.44466E+06-7.38643E+04 2.27210E+07-8.39332E+06-9.17731E+06
 -1      1479 1.74951E+08 1.21473E+07 2.97889E+06 6.18915E+07-1.74275E+07-1.51466E+07
 -1      1480 1.37276E+08 3.61608E+07-3.99613E+06 9.26945E+07 5.83362E+06-2.02388E+07
 -1      1481 8.72144E+07 7.50657E+07 4.78543E+07 9.59061E+07-4.61298E+07-5.11267E+07
 -3
    1PSTEP                        19           1           1          
    1PGM                1.000000E+00                                  
    1PGK                1.381566E+12                                  
    1PHID                         -1                                  
    1PSUBC                         0                                  
    1PMODE                         5                                  
  100CL  105 187070.7844        1481                     2    5MODAL      1
 -4  TOSTRAIN    6    1
 -5  EXX         1    4    1    1
 -5  EYY         1    4    2    2
 -5  EZZ         1    4    3    3
 -5  EXY         1    4    1    2
 -5  EYZ         1    4    2    3
 -5  EZX         1    4    3    1
 -1         1-4.80327E+02-2.15943E+02-1.78040E+01-9.39286E+02 4.27352E+02 5.42116E+02
 -1         2-1.04412E+03 1.70747E+01 4.28581E+02-9.11116E+02-5.94584E+01 1.96042E+02
 -1         3-1.32027E+03 2.75368E+02 3.82823E+02-6.04326E+02 1.65550E+02 1.38845E+02
 -1         4-1.03102E+03 3.15259E+02 2.77653E+02-2.14313E+02 7.95050E+01 9.58897E+01
 -1         5-1.07272E+03 2.91702E+02 3.38457E+02-8.58636E+01 4.43243E+00-2.64275E+01
 -1         6-1.10037E+03 2.99378E+02 2.92926E+02 1.94126E+01 1.68633E+01-5.19542E+00
 -1         7-1.04968E+03 2.82934E+02 3.34565E+02 1.25326E+02 5.88918E+00 4.97247E+00
 -1         8-9.99990E+02 2.98904E+02 2.70071E+02 2.54406E+02 7.95542E+01-9.22989E+01
 -1         9-1.17343E+03 2.62010E+02 3.54658E+02 6.16779E+02 1.89502E+02-1.61914E+02
 -1        10-7.64557E+02-5.29479E+01 3.19933E+02 9.18813E+02-8.07755E+01-2.06246E+02
 -1        11-1.67009E+02-5.41153E+02-1.81455E+01 9.56786E+02 5.71065E+02-4.12924E+02
 -1        12-4.23280E+01-7.95268E+02 3.32374E+02-8.98325E+02 2.00106E+02-7.37810E+01
 -1        13-9.19199E+02-5.56296E+01 3.26742E+02-7.31798E+02 5.44530E+01-9.51494E-02
 -1        14-1.03824E+03 8.44099E+01 3.91172E+02-1.48730E+02-2.34665E+01-2.12830E+01
 -1        15-1.01546E+03 7.39571E+01 3.83231E+02 2.05138E+02-2.51943E+01 1.56888E+01
 -1        16-8.67350E+02-7.65222E+01 3.17305E+02 7.63298E+02 7.63253E+01 1.95305E+01
 -1        17 2.71441E+01-1.09179E+03 4.48380E+02 9.36081E+02 2.01737E+02 5.79202E+01
 -1        18 2.59671E+02-1.17251E+03 3.51023E+02-5.95541E+02 1.49408E+02 1.84108E+02
 -1        19-8.19762E+01-8.56322E+02 3.15121E+02-7.27102E+02-1.67006E+01 7.10706E+01
 -1        20-4.98707E+02-4.51516E+02 4.10013E+02-7.21170E+02 7.22853E+01 6.55218E+01
 -1        21-7.05871E+02-2.96066E+02 4.12420E+02-3.93763E+02 4.82906E+01-6.16078E+00
 -1        22-8.43214E+02-2.00608E+02 3.91363E+02-1.76116E+02 2.46387E+01 2.68595E+01
 -1        23-8.43883E+02-1.84252E+02 3.99089E+02 3.34343E+01 2.37081E+01 1.56107E-01
 -1        24-8.29953E+02-2.09465E+02 3.91326E+02 2.42339E+02 2.78279E+01-2.71821E+01
 -1        25-6.71002E+02-3.22025E+02 4.08561E+02 4.51786E+02 4.44781E+01-4.45140E+00
 -1        26-4.56844E+02-4.90128E+02 4.09298E+02 7.70625E+02 6.32887E+01-7.73976E+01
 -1        27-5.94402E+01-9.08681E+02 3.22684E+02 7.72901E+02-1.36583E+00-5.34896E+01
 -1        28 2.73820E+02-1.32930E+03 3.81712E+02 6.30325E+02 1.37117E+02-1.65473E+02
 -1        29 2.91067E+02-9.61032E+02 2.58355E+02-2.35639E+02 9.24899E+01 7.81958E+01
 -1        30-3.26690E+02-6.48776E+02 4.01136E+02-4.15131E+02 2.68731E+00 4.54289E+01
 -1        31-6.88025E+02-4.19644E+02 4.20847E+02-9.96622E+01-1.42759E+01 1.58698E+01
 -1        32-6.76365E+02-4.27992E+02 4.19729E+02 1.50279E+02-1.24790E+01-1.59464E+01
 -1        33-2.96663E+02-6.81114E+02 4.03079E+02 4.51144E+02-4.60601E+00-5.00322E+01
 -1        34 3.07189E+02-9.87845E+02 2.64594E+02 2.37155E+02 1.06952E+02-7.86317E+01
 -1        35 2.67372E+02-9.85829E+02 3.11031E+02-1.12761E+02-1.39698E+01 3.20238E+00
 -1        36 6.53928E+01-9.55672E+02 3.63411E+02-1.86896E+02-2.00268E+01-2.47445E+01
 -1        37-2.11196E+02-7.85333E+02 3.74841E+02-2.18087E+02 2.37856E+01 2.63900E+01
 -1        38-4.32604E+02-6.49748E+02 4.11050E+02-1.19607E+02 1.33476E+01-1.29057E+01
 -1        39-5.91123E+02-5.70664E+02 4.52126E+02-4.65526E+01 1.12455E+01 1.10091E+01
 -1        40-5.98180E+02-5.47749E+02 4.46873E+02 2.14775E+01 1.04367E+01 1.47179E-01
 -1        41-5.79097E+02-5.80247E+02 4.51524E+02 8.88795E+01 8.55395E+00-1.27651E+01
 -1        42-4.18691E+02-6.61670E+02 4.09853E+02 1.55779E+02 1.48785E+01 1.50973E+01
 -1        43-1.96267E+02-7.99068E+02 3.71901E+02 2.48517E+02 2.90202E+01-2.32351E+01
 -1        44 7.74854E+01-9.74741E+02 3.70330E+02 2.05633E+02-2.99013E+01 2.41455E+01
 -1        45 2.75011E+02-1.00244E+03 3.17151E+02 1.18297E+02-2.46513E+01-1.83127E-01
 -1        46 2.73846E+02-9.97721E+02 2.67607E+02-1.67341E+01 4.52232E+00 1.66325E+01
 -1        47-1.80629E+02-7.74913E+02 3.70862E+02-3.51659E+01 1.09000E+00 2.40895E+01
 -1        48-5.44555E+02-5.72180E+02 4.35481E+02 5.52037E-01 5.56860E-01 1.16386E+01
 -1        49-5.36892E+02-5.76986E+02 4.34129E+02 3.67380E+01 2.46870E-01-1.28960E+01
 -1        50-1.70848E+02-7.82736E+02 3.70591E+02 6.54133E+01 3.38434E+00-2.26677E+01
 -1        51 2.76251E+02-1.00756E+03 2.66060E+02 2.62908E+01 6.27039E+00-1.60939E+01
 -1        52 2.56110E+02-9.42594E+02 2.94840E+02 7.68452E+01 6.12411E+00 9.41343E+00
 -1        53 6.74623E+01-9.10915E+02 3.41643E+02 1.24730E+02 7.44852E+00-1.96102E+01
 -1        54-1.90281E+02-7.48686E+02 3.55194E+02 1.45533E+02-2.28212E+01 2.56214E+01
 -1        55-4.00036E+02-6.21890E+02 3.89786E+02 8.57216E+01-1.57338E+01-1.22032E+01
 -1        56-5.52057E+02-5.47808E+02 4.26914E+02 4.80169E+01-1.28486E+01 1.07771E+01
 -1        57-5.61947E+02-5.22798E+02 4.22682E+02 1.70499E+01-1.42193E+01 4.03137E-02
 -1        58-5.47833E+02-5.49435E+02 4.25949E+02-1.42748E+01-1.29964E+01-1.10004E+01
 -1        59-3.93019E+02-6.25143E+02 3.88413E+02-5.42242E+01-1.61866E+01 1.14848E+01
 -1        60-1.83465E+02-7.51581E+02 3.53667E+02-1.14165E+02-2.30206E+01-2.63404E+01
 -1        61 6.97610E+01-9.09966E+02 3.40243E+02-1.01629E+02 5.40723E+00 1.93266E+01
 -1        62 2.55801E+02-9.39745E+02 2.97285E+02-6.39316E+01 7.28707E+00-1.00400E+01
 -1        63 2.63171E+02-8.69042E+02 2.34872E+02 1.86048E+02-6.82062E+01 6.58226E+01
 -1        64-2.72922E+02-5.98884E+02 3.56902E+02 3.21814E+02 1.56915E+00 4.06131E+01
 -1        65-6.09352E+02-3.88765E+02 3.80110E+02 9.87203E+01 1.25601E+01 1.46932E+01
 -1        66-6.05754E+02-3.89516E+02 3.79257E+02-6.61902E+01 1.24510E+01-1.46232E+01
 -1        67-2.66443E+02-5.98914E+02 3.53996E+02-2.88205E+02 2.81891E+00-4.04773E+01
 -1        68 2.61394E+02-8.63721E+02 2.33987E+02-1.70991E+02-6.21020E+01-6.43036E+01
 -1        69 2.23934E+02-9.94241E+02 2.93668E+02 4.83716E+02-1.26981E+02 1.41431E+02
 -1        70-5.79059E+01-7.27961E+02 2.65867E+02 5.86892E+02 7.35648E+00 5.18666E+01
 -1        71-4.04256E+02-3.98785E+02 3.45013E+02 5.83218E+02-6.26098E+01 5.72702E+01
 -1        72-5.89574E+02-2.63658E+02 3.49582E+02 3.32244E+02-4.27265E+01-3.14318E+00
 -1        73-7.17749E+02-1.78298E+02 3.37623E+02 1.70283E+02-2.35779E+01 2.38104E+01
 -1        74-7.23822E+02-1.60310E+02 3.43691E+02 1.70146E+01-2.23650E+01 6.40413E-01
 -1        75-7.13911E+02-1.78675E+02 3.36779E+02-1.36144E+02-2.42686E+01-2.25673E+01
 -1        76-5.83176E+02-2.63538E+02 3.46522E+02-2.97258E+02-4.20158E+01 4.14229E+00
 -1        77-3.96858E+02-3.96730E+02 3.40266E+02-5.43263E+02-6.05537E+01-5.58945E+01
 -1        78-5.57613E+01-7.18381E+02 2.62873E+02-5.53975E+02 4.67854E+00-4.89758E+01
 -1        79 2.21471E+02-9.80400E+02 2.88970E+02-4.62114E+02-1.23152E+02-1.36554E+02
 -1        80-1.56577E+01-6.88047E+02 2.83539E+02 7.20010E+02-1.59478E+02-5.36690E+01
 -1        81-7.30478E+02-5.58175E+01 2.64893E+02 5.91466E+02-4.50704E+01-2.77184E+00
 -1        82-8.60859E+02 6.61419E+01 3.24247E+02 1.44522E+02 1.96489E+01-1.54255E+01
 -1        83-8.56517E+02 6.51565E+01 3.22226E+02-1.18625E+02 1.91461E+01 1.26052E+01
 -1        84-7.15987E+02-5.65984E+01 2.61098E+02-5.57347E+02-4.35877E+01 1.79648E+00
 -1        85-1.16771E+01-6.81350E+02 2.79800E+02-6.93846E+02-1.53217E+02 5.02072E+01
 -1        86-3.33100E+02-2.15436E+02-1.48378E+01 7.46753E+02-3.54068E+02 4.02453E+02
 -1        87-7.85109E+02 8.52392E+00 3.21928E+02 7.25730E+02 4.59445E+01 1.58707E+02
 -1        88-1.03088E+03 2.25588E+02 2.97904E+02 4.89400E+02-1.34355E+02 1.17558E+02
 -1        89-8.38774E+02 2.59671E+02 2.25554E+02 1.85998E+02-6.42931E+01 7.48895E+01
 -1        90-8.85097E+02 2.43179E+02 2.77628E+02 8.64186E+01-5.22440E+00-1.13370E+01
 -1        91-9.15038E+02 2.53276E+02 2.42295E+02 7.26350E+00-1.55951E+01 1.80011E+00
 -1        92-8.81221E+02 2.42152E+02 2.76302E+02-7.19197E+01-6.22094E+00 1.27502E+01
 -1        93-8.30019E+02 2.56345E+02 2.23435E+02-1.71076E+02-6.31967E+01-6.90998E+01
 -1        94-1.00421E+03 2.21607E+02 2.90640E+02-4.66007E+02-1.31219E+02-1.14045E+02
 -1        95-7.54530E+02 6.80945E+00 3.09167E+02-6.97935E+02 4.39237E+01-1.52386E+02
 -1        96-3.10569E+02-2.19097E+02-1.42110E+01-7.22116E+02-3.47330E+02-3.84954E+02
 -1        97-5.13838E+02-2.05205E+02-1.30542E+02-8.59814E+02 9.72426E+02 1.14476E+03
 -1        98-1.03488E+03 2.39525E+02 3.33335E+02-4.07410E+02 7.21777E+01 1.86547E+02
 -1        99-8.56098E+02 2.39346E+02 2.65008E+02-4.58848E+01 3.73697E+01 3.23246E+01
 -1       100-8.36404E+02 2.31429E+02 2.60885E+02 7.29097E+01 4.40382E+01-6.30044E+01
 -1       101-9.14625E+02 2.32534E+02 3.08823E+02 4.06467E+02 8.47239E+01-2.57474E+02
 -1       102-1.48403E+02-5.84088E+02-1.32632E+02 8.74341E+02 1.19352E+03-9.56974E+02
 -1       103 2.29809E+02-9.13596E+02 3.05637E+02-3.92932E+02 2.30703E+02 8.28180E+01
 -1       104-4.19793E+02-3.76493E+02 3.27703E+02-5.86110E+02 6.74334E+01 7.30777E+01
 -1       105-6.72348E+02-1.57860E+02 3.11384E+02-1.45472E+02 4.65581E+01 2.06903E+01
 -1       106-6.63817E+02-1.63494E+02 3.12781E+02 1.99151E+02 4.79213E+01-2.26924E+01
 -1       107-3.80461E+02-4.13725E+02 3.27087E+02 6.26003E+02 6.89152E+01-7.28361E+01
 -1       108 2.37536E+02-1.04339E+03 3.34191E+02 4.27009E+02 1.79588E+02-7.05736E+01
 -1       109 2.17962E+02-7.85786E+02 2.42669E+02-6.53309E+01 4.39912E+01 4.05576E+01
 -1       110-1.65680E+02-6.27651E+02 2.99653E+02-1.78874E+02 1.49719E+01 5.00139E+01
 -1       111-4.76491E+02-4.59363E+02 3.61029E+02-3.69062E+01 1.10501E+01 1.63227E+01
 -1       112-4.66425E+02-4.67575E+02 3.60573E+02 7.09061E+01 9.81345E+00-1.82188E+01
 -1       113-1.54859E+02-6.36529E+02 2.96250E+02 2.03102E+02 1.60743E+01-4.84174E+01
 -1       114 2.24802E+02-8.02362E+02 2.48891E+02 6.91822E+01 4.22713E+01-3.43111E+01
 -1       115 2.10026E+02-7.49326E+02 2.30845E+02 4.21814E+01-4.51421E+01 3.69907E+01
 -1       116-1.50266E+02-5.98771E+02 2.83728E+02 1.20687E+02-2.49038E+01 4.73216E+01
 -1       117-4.44499E+02-4.41383E+02 3.41226E+02 3.81273E+01-2.29730E+01 1.62977E+01
 -1       118-4.41226E+02-4.42630E+02 3.40530E+02-1.08953E+01-2.33597E+01-1.67568E+01
 -1       119-1.44675E+02-6.01109E+02 2.82656E+02-9.54882E+01-2.52343E+01-4.69970E+01
 -1       120 2.09885E+02-7.48252E+02 2.33304E+02-3.29199E+01-4.21676E+01-3.71730E+01
 -1       121 1.95317E+02-7.78051E+02 2.56434E+02 3.23370E+02-1.96614E+02 6.46536E+01
 -1       122-3.38189E+02-3.32166E+02 2.76633E+02 4.73822E+02-6.74069E+01 6.34034E+01
 -1       123-5.73197E+02-1.41328E+02 2.69812E+02 1.39905E+02-4.82398E+01 1.92358E+01
 -1       124-5.70240E+02-1.41689E+02 2.69171E+02-1.12425E+02-4.84496E+01-1.93565E+01
 -1       125-3.31701E+02-3.30281E+02 2.72821E+02-4.41367E+02-6.70969E+01-6.28405E+01
 -1       126 1.92726E+02-7.67568E+02 2.52172E+02-3.09428E+02-1.87269E+02-6.26903E+01
 -1       127-3.43270E+02-2.06534E+02-1.09145E+02 6.69550E+02-7.92859E+02 8.65208E+02
 -1       128-8.08909E+02 1.95004E+02 2.61285E+02 3.30808E+02-6.00968E+01 1.69062E+02
 -1       129-7.06289E+02 1.98708E+02 2.18291E+02 4.95434E+01-3.25870E+01 4.16877E+01
 -1       130-7.02843E+02 1.97972E+02 2.17305E+02-3.95524E+01-3.28582E+01-3.54096E+01
 -1       131-7.87480E+02 1.91644E+02 2.54533E+02-3.14567E+02-5.93850E+01-1.63917E+02
 -1       132-3.17921E+02-2.11676E+02-1.05613E+02-6.47415E+02-7.74701E+02-8.30566E+02
 -1       133-6.22721E+02-2.58749E+02-9.42803E+02-8.76373E+02 2.63079E+03 3.07390E+03
 -1       134-8.99945E+02 2.15458E+01 3.57177E+02-6.18075E+02 2.67373E+02 7.73277E+02
 -1       135-7.87845E+02 2.15050E+02 1.92827E+02-2.34197E+02 1.46721E+02 4.53564E+02
 -1       136-5.44282E+02 2.28274E+02 2.60487E+02-6.55376E+01 1.55774E+01 1.99390E+02
 -1       137-6.49718E+02 1.86217E+02 9.49980E+01-6.23973E+00 1.03937E+02 1.60836E+02
 -1       138-6.05780E+02 1.84399E+02 1.15925E+02 6.29766E+00 8.96643E+01-1.61620E+01
 -1       139-6.35775E+02 1.77855E+02 1.12934E+02 2.11554E+01 1.37394E+02-1.92194E+02
 -1       140-5.36501E+02 2.23053E+02 2.43207E+02 9.26604E+01-1.16386E+01-2.61298E+02
 -1       141-6.90093E+02 2.18095E+02 2.10352E+02 2.26043E+02 1.65450E+02-5.43558E+02
 -1       142-5.84613E+02-5.77048E+01 1.91983E+02 6.11159E+02 3.14965E+02-8.19317E+02
 -1       143-1.92219E+02-7.05481E+02-9.58250E+02 8.89648E+02 3.20243E+03-2.59211E+03
 -1       144-4.47874E+01-6.23424E+02 2.15186E+02-6.01236E+02 7.92676E+02 3.07186E+02
 -1       145-5.22049E+02-2.61178E+01 4.79191E+01-3.93057E+02 1.39069E+02 2.46256E+02
 -1       146-6.50318E+02 4.70117E+01 2.37399E+02-7.47583E+01 1.19374E+01-3.27892E+00
 -1       147-6.31961E+02 4.09237E+01 2.32499E+02 1.07596E+02 9.45989E+00-1.27266E+01
 -1       148-5.14252E+02-4.32874E+01 6.27980E+01 3.94709E+02 2.05093E+02-2.14623E+02
 -1       149 3.31866E+01-9.57647E+02 3.87471E+02 6.33820E+02 7.86836E+02-2.62589E+02
 -1       150 2.14682E+02-6.89648E+02 2.05064E+02-2.18580E+02 5.03667E+02 1.62680E+02
 -1       151-4.64955E+01-5.03236E+02 5.90342E+01-3.76814E+02 2.08286E+02 1.95085E+02
 -1       152-3.33979E+02-2.95508E+02 4.07205E+02-4.55474E+02-5.44810E+01-6.90155E+01
 -1       153-4.24799E+02-1.85014E+02 2.68531E+02-2.58030E+02 5.06104E+01-3.44617E+01
 -1       154-5.01135E+02-1.17240E+02 2.28914E+02-1.15689E+02 7.92186E+01 5.40276E+01
 -1       155-5.08274E+02-1.07525E+02 2.16253E+02 2.10647E+01 9.63212E+01 9.41439E-01
 -1       156-4.96294E+02-1.20001E+02 2.28118E+02 1.57483E+02 8.58148E+01-5.65105E+01
 -1       157-4.07729E+02-2.04929E+02 2.74059E+02 2.88123E+02 4.73634E+01 2.36348E+01
 -1       158-2.97760E+02-3.30631E+02 4.09285E+02 4.86193E+02-8.24054E+01 4.55051E+01
 -1       159-2.83127E+01-5.11603E+02 3.94890E+01 4.19101E+02 2.46759E+02-1.33856E+02
 -1       160 2.12745E+02-7.96454E+02 1.89200E+02 2.47258E+02 4.50675E+02-1.43722E+02
 -1       161 2.16520E+02-5.11768E+02 2.35338E+02-8.30393E+01 2.33844E+02-7.12314E+00
 -1       162-2.07601E+02-3.92338E+02 2.67516E+02-2.66243E+02-3.24869E+01 5.55929E+01
 -1       163-4.15149E+02-2.47676E+02 2.56322E+02-6.07413E+01 1.98808E+00 2.22965E+01
 -1       164-4.09382E+02-2.53067E+02 2.57057E+02 9.01804E+01 3.87127E+00-2.45870E+01
 -1       165-1.85147E+02-4.08489E+02 2.61635E+02 2.94127E+02-4.28016E+01-5.80022E+01
 -1       166 2.21962E+02-5.17263E+02 2.56848E+02 7.33806E+01 2.14810E+02-1.88061E+01
 -1       167 1.67150E+02-5.96798E+02 9.36109E+01-1.83649E+01 1.61596E+02 1.26969E+02
 -1       168 3.40503E+01-5.95677E+02 2.24062E+02-9.72869E+01-1.92269E+00 1.14863E+01
 -1       169-1.22300E+02-4.69169E+02 2.15828E+02-1.41099E+02 3.97568E+01 9.15446E+01
 -1       170-2.56104E+02-3.93023E+02 2.51450E+02-7.19802E+01 1.08584E+01 1.09874E+01
 -1       171-3.63913E+02-3.50362E+02 2.67294E+02-2.65277E+01 1.62058E+01 2.58465E+01
 -1       172-3.58354E+02-3.36321E+02 2.65357E+02 1.28411E+01 1.08253E+01-1.16191E-01
 -1       173-3.55961E+02-3.57043E+02 2.66707E+02 5.21444E+01 1.51683E+01-2.80665E+01
 -1       174-2.47603E+02-3.98938E+02 2.50191E+02 9.52664E+01 1.05127E+01-1.00122E+01
 -1       175-1.15291E+02-4.73978E+02 2.15001E+02 1.58995E+02 4.27439E+01-8.69938E+01
 -1       176 4.10882E+01-6.12707E+02 2.27550E+02 1.06533E+02-1.17487E+01-1.09658E+01
 -1       177 1.74093E+02-6.10850E+02 7.59632E+01 2.18901E+01 1.84364E+02-9.82233E+01
 -1       178 1.68650E+02-5.50336E+02 1.09485E+02-6.96201E+00 1.28293E+01 8.44497E+01
 -1       179-1.06017E+02-4.66138E+02 2.02552E+02-2.11938E+01-6.06500E+00 9.75694E+01
 -1       180-3.34561E+02-3.42573E+02 2.58773E+02 4.71683E-01-9.57480E+00 2.17861E+01
 -1       181-3.29546E+02-3.45199E+02 2.57931E+02 2.23421E+01-9.43487E+00-2.36185E+01
 -1       182-1.01132E+02-4.71716E+02 2.02743E+02 3.92935E+01-3.63152E+00-9.41018E+01
 -1       183 1.70773E+02-5.56871E+02 1.06860E+02 1.31608E+01 2.66217E+01-7.75516E+01
 -1       184 1.63619E+02-5.66576E+02 1.07291E+02 7.25906E+00-1.45045E+02 1.01242E+02
 -1       185 3.72266E+01-5.65590E+02 2.06068E+02 6.38170E+01-1.97797E+01 1.61867E+01
 -1       186-1.11660E+02-4.48087E+02 2.11006E+02 9.65701E+01-5.78222E+01 7.81347E+01
 -1       187-2.37468E+02-3.76543E+02 2.37623E+02 5.15427E+01-3.43981E+01 9.94161E+00
 -1       188-3.38861E+02-3.36682E+02 2.53996E+02 2.76289E+01-3.74535E+01 2.63301E+01
 -1       189-3.35950E+02-3.21087E+02 2.51340E+02 1.04210E+01-3.43199E+01-1.67754E-01
 -1       190-3.36437E+02-3.37620E+02 2.53398E+02-6.96618E+00-3.77039E+01-2.70465E+01
 -1       191-2.33581E+02-3.78415E+02 2.37313E+02-3.23916E+01-3.57936E+01-1.05432E+01
 -1       192-1.07279E+02-4.49697E+02 2.11654E+02-7.74256E+01-6.01562E+01-7.79486E+01
 -1       193 3.90061E+01-5.65273E+02 2.02819E+02-5.07130E+01-1.86265E+01-1.41378E+01
 -1       194 1.63470E+02-5.67536E+02 1.13344E+02-1.78212E+00-1.39218E+02-1.01445E+02
 -1       195 1.91137E+02-4.69387E+02 2.07154E+02 6.46254E+01-1.91555E+02 5.18257E+00
 -1       196-1.72003E+02-3.62839E+02 2.35838E+02 2.07430E+02 1.17630E+01 5.42012E+01
 -1       197-3.68345E+02-2.31191E+02 2.32110E+02 6.00576E+01-1.75254E+01 2.21826E+01
 -1       198-3.66340E+02-2.31727E+02 2.31568E+02-4.02631E+01-1.74123E+01-2.35599E+01
 -1       199-1.67508E+02-3.63001E+02 2.33516E+02-1.86522E+02 1.06065E+01-5.51690E+01
 -1       200 1.89224E+02-4.67113E+02 2.06596E+02-5.83116E+01-1.78202E+02-8.94121E+00
 -1       201 1.77791E+02-5.89518E+02 1.67046E+02 1.84867E+02-4.17530E+02 1.25864E+02
 -1       202-3.28475E+01-4.27858E+02 5.77003E+01 3.09172E+02-1.85350E+02 1.38479E+02
 -1       203-2.66929E+02-2.60139E+02 3.31099E+02 3.68277E+02 1.92107E+01-3.46810E+01
 -1       204-3.55071E+02-1.65238E+02 2.28508E+02 2.15596E+02-6.20023E+01-2.18473E+01
 -1       205-4.28372E+02-1.05455E+02 1.98878E+02 1.10419E+02-8.34661E+01 4.58065E+01
 -1       206-4.35861E+02-9.57156E+01 1.89841E+02 1.04265E+01-9.35562E+01 8.81793E-02
 -1       207-4.26269E+02-1.05731E+02 1.99108E+02-8.94529E+01-8.31255E+01-4.63793E+01
 -1       208-3.51343E+02-1.65097E+02 2.26398E+02-1.93518E+02-6.24869E+01 2.01628E+01
 -1       209-2.61461E+02-2.58581E+02 3.23776E+02-3.43074E+02 1.68335E+01 3.02377E+01
 -1       210-3.17447E+01-4.21682E+02 5.90421E+01-2.91757E+02-1.83467E+02-1.32498E+02
 -1       211 1.74800E+02-5.81661E+02 1.61588E+02-1.77401E+02-3.97432E+02-1.20756E+02
 -1       212-1.48932E+01-5.41374E+02 1.91625E+02 4.72108E+02-6.40680E+02 2.37906E+02
 -1       213-4.20658E+02-3.07113E+01 4.88776E+01 3.17684E+02-1.18434E+02 1.90634E+02
 -1       214-5.37011E+02 3.49094E+01 1.97304E+02 7.44777E+01-1.49796E+01 5.95846E+00
 -1       215-5.33761E+02 3.44899E+01 1.95442E+02-6.00192E+01-1.52835E+01-6.49605E+00
 -1       216-4.13335E+02-3.15013E+01 5.10655E+01-2.98172E+02-1.17267E+02-1.85215E+02
 -1       217-1.06997E+01-5.37636E+02 1.91605E+02-4.56086E+02-6.16256E+02-2.29984E+02
 -1       218-4.09323E+02-2.48365E+02-7.53823E+02 6.67583E+02-2.10424E+03 2.29184E+03
 -1       219-6.54338E+02 1.29705E+01 2.51791E+02 4.79127E+02-2.22081E+02 6.29787E+02
 -1       220-6.15845E+02 1.74746E+02 1.58805E+02 1.92064E+02-1.17464E+02 3.82940E+02
 -1       221-4.48127E+02 1.86400E+02 2.07271E+02 6.09119E+01-1.50025E+01 1.80634E+02
 -1       222-5.36089E+02 1.54371E+02 8.89383E+01 1.35498E+01-8.89522E+01 1.48624E+02
 -1       223-5.07662E+02 1.56711E+02 1.00735E+02 3.25780E+00-7.01307E+01 7.47502E+00
 -1       224-5.33259E+02 1.53930E+02 9.19893E+01-7.64583E+00-8.87401E+01-1.34300E+02
 -1       225-4.44438E+02 1.84035E+02 2.03325E+02-5.54052E+01-1.52506E+01-1.67723E+02
 -1       226-5.98836E+02 1.71979E+02 1.55954E+02-1.82310E+02-1.16003E+02-3.69172E+02
 -1       227-6.23881E+02 1.06171E+01 2.37916E+02-4.61322E+02-2.18222E+02-6.07054E+02
 -1       228-3.79147E+02-2.54170E+02-7.28224E+02-6.45537E+02-2.05557E+03-2.20004E+03
 -1       229-2.23155E+03-1.54953E+03-1.15213E+03-2.32730E+03 4.51594E+03 5.23596E+03
 -1       230-3.47239E+02 3.12850E+02-6.62725E+01 8.07509E+01 1.16651E+02 4.99600E+02
 -1       231-3.94602E+02 7.29788E+01-3.15621E+01-1.81471E+01 2.02159E+02 2.83973E+02
 -1       232-3.99417E+02 3.46742E+01 9.12476E+00 7.80034E+00 2.54333E+02-3.15693E+02
 -1       233-3.20489E+02 3.82255E+02-1.15460E+01-8.57036E+01 1.38559E+02-6.05974E+02
 -1       234-1.44314E+03-2.39622E+03-1.17363E+03 2.36240E+03 5.44733E+03-4.45665E+03
 -1       235 3.66942E+02-3.15842E+02-1.76137E+01 8.72890E+01 5.59659E+02 1.34884E+02
 -1       236-3.65034E+02-3.06333E+02 5.12076E+02-4.16578E+02-9.81415E+01-1.37765E+02
 -1       237-3.33214E+02-6.95037E+01 1.41638E+02-6.48813E+01 8.66046E+01 7.48884E+01
 -1       238-3.34576E+02-6.23639E+01 1.38527E+02 9.58706E+01 9.97298E+01-7.59508E+01
 -1       239-3.03790E+02-3.70773E+02 5.17094E+02 4.39055E+02-1.59257E+02 8.36585E+01
 -1       240 3.05598E+02-3.44332E+02-7.72638E+01-7.71167E+01 4.97696E+02-1.10580E+02
 -1       241 3.14031E+01-3.70734E+02-1.00754E+01-6.44755E+00 2.74653E+02 2.42565E+02
 -1       242-6.49848E+01-3.13754E+02 1.26372E+02-8.56796E+01 5.38973E+01 1.05595E+02
 -1       243-2.44145E+02-2.34569E+02 1.79941E+02-1.45977E+01 2.44638E+01 3.64298E+01
 -1       244-2.38258E+02-2.39643E+02 1.79264E+02 3.18135E+01 2.23562E+01-3.91371E+01
 -1       245-6.62036E+01-3.13152E+02 1.27730E+02 9.46268E+01 6.22072E+01-9.65979E+01
 -1       246 6.01406E+01-3.66328E+02-5.09780E+01 3.08634E+01 3.12991E+02-1.99001E+02
 -1       247 6.26207E+01-3.55370E+02 1.33953E+01 5.86762E+00-2.40983E+02 1.81990E+02
 -1       248-6.69042E+01-3.01821E+02 1.35501E+02 5.58619E+01-7.67600E+01 8.92398E+01
 -1       249-2.27564E+02-2.26230E+02 1.71729E+02 1.62240E+01-4.99254E+01 3.54955E+01
 -1       250-2.26288E+02-2.26716E+02 1.71092E+02-2.18679E+00-4.97353E+01-3.62395E+01
 -1       251-6.25309E+01-3.04162E+02 1.38040E+02-4.26176E+01-8.12760E+01-9.07946E+01
 -1       252 6.05105E+01-3.57863E+02 2.18716E+01-5.98947E+00-2.33217E+02-1.79274E+02
 -1       253 2.72806E+02-2.83952E+02-8.73417E+00-5.28458E+01-4.67709E+02 1.10873E+02
 -1       254-2.77939E+02-2.60279E+02 4.02453E+02 3.30648E+02 5.02559E+01-7.86781E+01
 -1       255-2.86440E+02-6.20022E+01 1.24159E+02 6.51084E+01-9.57842E+01 6.37403E+01
 -1       256-2.85425E+02-6.25582E+01 1.25518E+02-5.11509E+01-9.59001E+01-6.41367E+01
 -1       257-2.70147E+02-2.57481E+02 3.90915E+02-3.11159E+02 4.80934E+01 7.17651E+01
 -1       258 2.64890E+02-2.80467E+02-1.22495E+01 5.32058E+01-4.43589E+02-1.06166E+02
 -1       259-1.55500E+03-1.25872E+03-9.57896E+02 1.75036E+03-3.57798E+03 3.88241E+03
 -1       260-2.87008E+02 2.50211E+02-3.04044E+01-5.05604E+01-9.87880E+01 4.27524E+02
 -1       261-3.30859E+02 5.76122E+01-8.79034E+00 1.74573E+01-1.67393E+02 2.46094E+02
 -1       262-3.30541E+02 5.85545E+01-2.99315E+00-1.30683E+01-1.64922E+02-2.26344E+02
 -1       263-2.80794E+02 2.45806E+02-2.63000E+01 5.10523E+01-9.91697E+01-4.11661E+02
 -1       264-1.47503E+03-1.24548E+03-9.24427E+02-1.69353E+03-3.49316E+03-3.72716E+03
 -1       265 2.80364E-03-1.15404E+04-3.57614E-03 7.34326E+01-3.92816E+03 3.58448E-03
 -1       266 2.26021E-03-9.14053E+03-3.47974E-03 1.76960E+02-2.54837E+03-1.83494E-03
 -1       267 1.70787E-03-7.06376E+03-2.72671E-03 2.40524E+02-2.18914E+03 7.36231E-04
 -1       268 1.72228E-03-5.53466E+03-3.01690E-03 1.33496E+02-9.43176E+02-3.04672E-03
 -1       269 9.81824E-04-4.31413E+03-3.39552E-03 2.81819E+01-8.70688E+02 1.81203E-03
 -1       270 4.47109E-04-3.54800E+03-2.61639E-03 5.57185E+01-6.48241E+02-1.14292E-03
 -1       271 1.78044E-03-2.80553E+03-2.43299E-03 1.00102E+02-5.78969E+02 1.19926E-03
 -1       272 2.72704E-03-2.52661E+03-2.63579E-03 1.27078E+01 8.00333E+01-3.64380E-04
 -1       273 1.81857E-03-2.73632E+03-2.36257E-03-8.62829E+01-6.87603E+02-1.82511E-03
 -1       274 1.17437E-03-3.55161E+03-2.31966E-03-8.88630E+01-6.85942E+02 3.25452E-03
 -1       275 1.75813E-03-4.49668E+03-3.20057E-03-8.36054E+01-1.18574E+03-2.54157E-03
 -1       276 1.35576E-03-5.89076E+03-2.65471E-03-1.20070E+02-1.35103E+03 1.59349E-03
 -1       277 6.15025E-04-7.50438E+03-2.53861E-03-2.21222E+02-2.34404E+03-5.54877E-04
 -1       278 2.03848E-03-9.64993E+03-3.29268E-03-1.78477E+02-2.75563E+03 2.33057E-03
 -1       279 3.32313E-03-1.19544E+04-3.14166E-03-4.12537E+01-4.10179E+03-3.05862E-03
 -1       280-2.71520E+01-8.91604E+03 9.26293E+02 2.26945E+03 2.50223E+02 7.33386E+02
 -1       281-2.46006E+02-5.66260E+03 9.54653E+02 1.52994E+03 2.46415E+02-2.34047E+02
 -1       282-1.63920E+02-3.77067E+03 6.76108E+02 7.57143E+02-1.21400E+01-1.59408E+02
 -1       283-1.59793E+02-2.58010E+03 7.38158E+02 6.05132E+02 2.70451E+01 2.21129E+01
 -1       284-2.64729E+02-2.41621E+03 6.86594E+02-5.37768E+02 4.63420E+01-2.44229E+01
 -1       285-9.16670E+01-3.75548E+03 5.67279E+02-9.83435E+02 5.73008E+01 1.60327E+02
 -1       286-3.07113E+02-5.87274E+03 8.67701E+02-1.61281E+03 2.56190E+02 2.87722E+02
 -1       287 1.11336E+02-9.20849E+03 9.12128E+02-2.17864E+03 9.29239E+01-8.52673E+02
 -1       288-6.02664E+02-1.11268E+03 1.85259E+03 4.21603E+03-3.78794E+03 4.50492E+00
 -1       289-7.62537E+02-1.15398E+03 1.88095E+03 3.43804E+03-2.50146E+03-5.83693E+01
 -1       290-8.55408E+02-1.01843E+03 1.90931E+03 2.57060E+03-1.29704E+03 1.70969E+02
 -1       291-7.81547E+02-1.51291E+03 1.63076E+03 1.89217E+03-1.20427E+03-7.20160E+01
 -1       292-4.84989E+02-1.84652E+03 1.35222E+03 1.30686E+03-3.65387E+02-9.55954E+01
 -1       293-1.27905E+02-2.14027E+03 1.41427E+03 1.19189E+03-4.64706E+02 1.34485E+02
 -1       294-4.07901E+02-2.36514E+03 1.47632E+03 1.09605E+03-2.64824E+02-4.35784E+01
 -1       295-1.14905E+03-1.98107E+03 1.42476E+03 1.17555E+02-7.86938E+02 7.70005E+01
 -1       296-7.16631E+02-1.77219E+03 1.37319E+03-1.09407E+03-6.55124E+01-3.31993E+01
 -1       297-4.45872E+02-1.49478E+03 1.25388E+03-1.36953E+03-7.66927E+02-2.57235E+01
 -1       298-3.76779E+02-1.27155E+03 1.13456E+03-1.58697E+03-9.83748E+02 1.73851E+02
 -1       299-5.97790E+02-8.94217E+02 1.43498E+03-2.17493E+03-1.28174E+03-1.68379E+02
 -1       300-9.52462E+02-7.30550E+02 1.73541E+03-2.80096E+03-1.71471E+03-6.29430E+01
 -1       301-6.70455E+02-1.00666E+03 1.77984E+03-3.47308E+03-2.61891E+03 2.11998E+02
 -1       302-2.92527E+02-1.14339E+03 1.82426E+03-4.07524E+03-3.95655E+03-2.61817E+02
 -1       303-1.43001E+03 7.27950E+03-8.41400E+02 2.25813E+03-5.26470E+02 3.34694E+02
 -1       304-1.82946E+03 3.23318E+03-2.08372E+02 9.18201E+02-1.77430E+02 1.38553E+02
 -1       305-5.57423E+02-3.56721E+02 6.80420E+02 2.91427E+02-7.99352E+01-8.52736E+01
 -1       306 9.34399E+00-1.66917E+03 6.65376E+02 5.45749E+02 2.59379E+02 3.27695E+01
 -1       307-1.56171E+02-1.02790E+03 6.47137E+02-3.85364E+02-4.73108E+01 1.33178E+02
 -1       308-9.36421E+02 1.50550E+03 4.57454E+01-3.01487E+02 3.38218E+02-1.61907E+02
 -1       309-1.31444E+03 3.64109E+03-4.11425E+02-1.74384E+03 7.15422E+01-2.57435E+02
 -1       310-1.38825E+03 7.49958E+03-9.31447E+02-2.36462E+03-2.41988E+02 1.72125E+02
 -1       311 2.39959E+02 3.85817E+02 1.68843E+02-6.78756E+03 1.59032E+03 1.21194E+03
 -1       312 6.49178E+02 3.21234E+03-1.68327E+03-5.33620E+03-1.07555E+03 1.83130E+03
 -1       313-1.13545E+03 8.01046E+03-3.53539E+03-2.27435E+03-4.71589E+02 7.07971E+02
 -1       314-2.75185E+03 7.72295E+03-2.93072E+03-5.54282E+02-6.05003E+02-1.68462E+02
 -1       315-2.81564E+03 6.32288E+03-2.32605E+03-3.67319E+02-4.49542E+02 2.55442E+02
 -1       316-1.28166E+03 1.68193E+03-1.15872E+03-1.37460E+03 1.19780E+02-2.65682E+02
 -1       317-2.97073E+02-2.47618E+02 8.61831E+00-7.28185E+02-4.74079E+02-5.80363E+02
 -1       318 2.01627E+02-6.75400E+02-6.84739E+01-2.28106E+02-3.87231E+02 2.36149E+02
 -1       319 3.38331E+02-9.52252E+02-1.45567E+02 1.19776E+02-8.05441E+02-3.87362E+02
 -1       320-5.99579E+01-9.31418E+02-7.89188E+01 8.96385E+02-4.72809E+02 3.40407E+02
 -1       321-3.80652E+02 6.31511E+02-5.60995E+02 1.05984E+03-2.36477E+02 7.15215E+01
 -1       322-1.79056E+03 3.71402E+03-1.04307E+03 7.07740E+02-6.46056E+01 1.22982E+02
 -1       323-1.87524E+03 5.00202E+03-1.80066E+03 5.94118E+01-5.35723E+02 2.89269E+02
 -1       324-1.47955E+03 6.00365E+03-2.55826E+03-3.71556E+02-8.39596E+02-1.25360E+02
 -1       325-1.90723E+03 7.47348E+03-3.12271E+03 3.61779E+02-6.33711E+02-9.56505E+01
 -1       326-1.31076E+03 8.64097E+03-3.68715E+03 2.03293E+03-4.49937E+02-2.58116E+02
 -1       327 5.11758E+02 3.59324E+03-1.76840E+03 5.48453E+03-9.78848E+02-1.87220E+03
 -1       328 4.14418E+02 2.81869E+02 1.50335E+02 6.98777E+03 1.15015E+03-1.60797E+03
 -1       329 3.36842E+03 5.02430E+02-1.67365E+03-5.23109E+03 1.82239E+03-9.35433E+02
 -1       330 9.48469E+02 6.07029E+03-2.76553E+03-9.48805E+02 5.85526E+02 2.19749E+02
 -1       331-2.18165E+02 9.13945E+03-2.05938E+03 2.54185E+03 8.69839E+02-3.96357E+02
 -1       332-1.62656E+03 4.31484E+03-7.97193E+02 1.61263E+03-1.11673E+03 7.85368E+02
 -1       333-2.10297E+03 8.22138E+03-1.86028E+03 1.87267E+02 6.70606E+01 5.61905E+01
 -1       334 9.55465E+02 6.25731E+03-2.86319E+03 9.80467E+02 4.37619E+01-5.53871E+02
 -1       335 3.21609E+03 7.82213E+02-1.74225E+03 5.42223E+03 1.92421E+03 1.07583E+03
 -1       336-1.14666E+04 3.16107E-03-2.94401E-03 4.73823E+01 3.03795E-03-3.95834E+03
 -1       337-8.81967E+03 1.01510E+02 8.76195E+02 2.13800E+03 8.08730E+02 7.44371E+01
 -1       338-1.10194E+03-2.88109E+02 1.75239E+03 3.97821E+03 2.48706E+02-3.80279E+03
 -1       339 7.12869E+03-1.29667E+03-8.81881E+02 2.33931E+03-1.55172E+02-2.50187E+02
 -1       340 8.18258E+03-1.19574E+03-3.51615E+03-1.84319E+03 2.35472E+02-4.48933E+02
 -1       341 5.91233E+03 9.95520E+02-2.75591E+03-7.90126E+02 5.36023E+02 6.20907E+01
 -1       342 2.42922E+03 2.51286E+03-1.99568E+03 1.09425E+03-5.69148E+01-3.02105E+02
 -1       343 1.12811E+03 3.82426E+03-1.89420E+03 2.71599E+03 2.66670E+03 1.05322E+03
 -1       344 2.09284E+03 3.15244E+03-1.79271E+03 3.68529E+03 1.47572E+03 1.43079E+03
 -1       345-1.86527E+03 2.56723E+03-5.51318E+02 3.61245E+03 6.21853E+02 1.27530E+03
 -1       346-3.69831E+03 5.34781E+03-8.56812E+02 3.35158E+03 1.63593E+03 7.17634E+02
 -1       347-3.20710E+03 7.15195E+03-1.16230E+03-7.45515E+02 1.42796E+03-8.14730E+02
 -1       348-1.16503E+03 5.32583E+03-1.60077E+03-1.86521E+03 2.46732E+03-2.26377E+02
 -1       349 2.50784E+03 2.57519E+03-2.03923E+03-9.53880E+02-2.90425E+02 1.16478E+01
 -1       350 6.01350E+03 1.14625E+03-2.83703E+03 1.03628E+03 2.06541E+02-5.66157E+02
 -1       351 8.02974E+03-8.96274E+02-3.63484E+03 2.29592E+03 6.37659E+02 4.80859E+02
 -1       352 7.39399E+03-1.25702E+03-8.67879E+02-2.43836E+03 2.92936E+02 5.36342E+02
 -1       353-1.09638E+03-4.96920E+02 1.89909E+03-4.55113E+03 9.66029E+00 3.97022E+03
 -1       354-9.07199E+03-2.86590E+01 9.49541E+02-2.47511E+03 6.17893E+02-2.08337E+02
 -1       355-1.18000E+04 2.15246E-03-2.90431E-03-1.13628E+02 2.95605E-03 4.04715E+03
 -1       356-9.19939E+03 1.95192E-03-3.13692E-03 1.76453E+02-2.35672E-03-2.64072E+03
 -1       357-9.58879E+02-6.43824E+02 1.69564E+03 3.41920E+03-2.01086E+02-2.49026E+03
 -1       358 7.09712E+03-1.78930E+03-2.96880E+03-2.31589E+02 7.55078E+01-5.79577E+02
 -1       359 5.08926E+03-1.12244E+03-1.53592E+03 1.89376E+03 2.79331E+02 2.33886E+03
 -1       360-2.51021E+03-5.24421E+03 1.29825E+03-2.59451E+03 5.58987E+02 1.04821E+03
 -1       361-3.02582E+03-3.95027E+03 1.62209E+03 1.81328E+03 6.62366E+02-8.22319E+01
 -1       362 3.86016E+03 1.19706E+03-1.93742E+03-2.46847E+03 1.12474E+03-2.58124E+03
 -1       363 7.54262E+03-2.45139E+03-2.97284E+03 5.55572E+02-1.46534E+02 5.84968E+02
 -1       364-1.14372E+03-6.02104E+02 1.78307E+03-3.90687E+03-6.81841E+01 2.46440E+03
 -1       365-9.12157E+03 1.79492E-03-3.29867E-03-1.96050E+02-1.43202E-03 2.57520E+03
 -1       366-7.07456E+03 6.24417E-04-2.38437E-03 2.16597E+02 7.09808E-04-2.22317E+03
 -1       367-5.53514E+03-2.94187E+02 8.19441E+02 1.60164E+03-2.77763E+02 2.34509E+02
 -1       368-6.73730E+02-9.16001E+02 1.63889E+03 2.78677E+03 5.53999E+01-1.61716E+03
 -1       369 3.45921E+03-1.26263E+03-3.91279E+02 1.78804E+03 2.55331E+02 6.24306E+01
 -1       370 5.68454E+03-1.42294E+03-2.42144E+03 4.93404E+02 1.55917E+02-8.18592E+02
 -1       371 7.77072E+03-1.99689E+03-1.74881E+03-7.34909E+01-6.87215E+01 9.24799E+01
 -1       372 6.76674E+03-3.03516E+03-1.07617E+03 7.48933E+02 8.39808E+02 1.32907E+03
 -1       373-3.65558E+03-3.25604E+03 1.65652E+03-1.92772E+03 5.14604E+01 5.76309E+02
 -1       374-6.21097E+03-4.96263E+03 2.70546E+03-5.77780E+03 4.02487E+03 4.81399E+03
 -1       375-1.82633E+03-6.11665E+02 1.25239E+03-1.26976E+03 2.54654E+02 5.41912E+02
 -1       376 5.27125E+01 4.41277E+02-5.77063E+02 3.89502E+02-7.08239E+01 6.76066E+02
 -1       377-9.04210E+01 3.13384E+02-8.03169E+01 1.25428E+02 1.21821E+02 3.85530E+02
 -1       378-1.35336E+02-4.60494E+01 1.00296E+02-2.96158E+01 9.21194E+01 1.37041E+02
 -1       379-2.79384E+02-4.91943E+01 1.46366E+02 4.83137E-01 1.01281E+02-3.43839E+01
 -1       380-1.61017E+02-1.14903E+02 1.24932E+02-6.14003E+00 6.98098E+01-2.18475E+02
 -1       381-1.11133E+02 3.79139E+02-1.06157E+02-8.15165E+01 1.34972E+02-4.26208E+02
 -1       382 1.09805E+01 5.80621E+02-5.74910E+02-3.86439E+02-8.48064E+01-7.49532E+02
 -1       383-1.30099E+03-8.60892E+02 1.13477E+03 1.32628E+03 3.29847E+02-8.41769E+02
 -1       384-4.64349E+03-6.62886E+03 2.71167E+03 5.84813E+03 4.99166E+03-3.98946E+03
 -1       385-4.77732E+03-2.79449E+03 1.28545E+03 2.88304E+03 1.16195E+03-5.12692E+02
 -1       386 3.20825E+03 2.20858E+03-1.83560E+03-3.26178E+03 1.46885E+03-1.29146E+03
 -1       387 8.80761E+03 3.72226E+01-2.07321E+03-2.27394E+03-4.44115E+02-8.12290E+02
 -1       388 5.84282E+03-2.45180E+03-2.31083E+03 3.41772E+02 1.60186E+02 4.51118E+02
 -1       389 2.91248E+03-1.40986E+03-3.21887E+02-1.23386E+03 2.36092E+02 2.37935E+02
 -1       390-1.00247E+03-6.17360E+02 1.66706E+03-3.22181E+03 5.88711E+01 1.24132E+03
 -1       391-5.37378E+03-1.63790E+02 8.33526E+02-1.92118E+03-3.08628E+02-2.75509E+02
 -1       392-6.69233E+03 1.29562E-03-3.07225E-03-2.52178E+02 1.50012E-03 1.93842E+03
 -1       393-5.47858E+03 1.34029E-03-2.47049E-03 1.21226E+02-1.76136E-03-1.25070E+03
 -1       394-7.95539E+02-5.87040E+02 1.33540E+03 2.17796E+03 1.67924E+02-1.20099E+03
 -1       395 4.72152E+03-1.81527E+03-1.68159E+03 7.31701E+01-2.64901E+02-4.97351E+02
 -1       396 5.04667E+03-3.55068E+03-7.83105E+02-3.11724E+03-6.51445E+02 1.52432E+03
 -1       397-8.11253E+02-1.36539E+03 1.14482E+03-1.30092E+03 7.70862E+02 3.18351E+02
 -1       398 1.60831E+02-9.20338E+01-3.11590E+02-1.51271E+01-1.03464E+02-6.92797E+01
 -1       399-2.44200E+02-1.77983E+01 1.35842E+02-4.03820E+01 4.69916E+01 7.12087E+01
 -1       400-2.30950E+02-3.24035E+01 1.37657E+02 4.56726E+01 5.40314E+01-8.40839E+01
 -1       401 6.95380E+01-1.27123E+02-3.06670E+02-4.45987E+01-1.49784E+02 5.45374E-02
 -1       402-5.80706E+02-1.93770E+03 1.27868E+03 1.28493E+03 5.13114E+02-2.46815E+02
 -1       403 1.00796E+03-9.54236E+02-8.22127E+02 1.49380E+03-6.66703E+01 5.55152E+01
 -1       404-1.69305E+03-5.20056E+02 1.54655E+03-2.82868E+03 8.89768E+01 9.70207E+02
 -1       405-4.57063E+03 1.17892E-03-2.86111E-03-1.91222E+02-4.63507E-03 8.74020E+02
 -1       406-4.09599E+03 1.63826E-03-2.90757E-03 8.72100E+01 2.38789E-03-1.08814E+03
 -1       407-3.41285E+03-9.27738E+01 5.15959E+02 9.86648E+02-1.70285E+02 5.76137E+01
 -1       408-1.11990E+03-3.63539E+02 1.03192E+03 1.60372E+03-1.59672E+02-9.09595E+02
 -1       409 1.44500E+03-9.24681E+02 4.50971E+01 3.97867E+02 1.49073E+02 3.08986E+02
 -1       410 3.48595E+03-1.75606E+03-9.41728E+02-5.47621E+02-1.11886E+02-3.76044E+01
 -1       411 4.02049E+03-1.58057E+03-7.15880E+02-1.45004E+03-7.56757E+02-1.02076E+03
 -1       412 2.38329E+03-1.79455E+03-4.90034E+02-3.39534E+03-1.22366E+03 6.01100E+02
 -1       413 5.52912E+02 1.95007E+01-5.76295E+02 3.83108E+02 7.02305E+02-7.95073E+01
 -1       414-1.22319E+02 8.65858E+01-3.08349E+02 3.91301E+01-2.27595E+01-1.36866E+02
 -1       415-3.84742E+02-3.06595E+02 3.88402E+02-3.68599E+02 2.58180E+02 3.03790E+02
 -1       416-4.97213E+01-1.21612E+02 1.62190E+02-9.72098E+01 1.22622E+02 3.81549E+01
 -1       417-1.68065E+02-2.43673E+01 4.67635E+01-1.84082E+01 8.29236E+01-2.76966E+00
 -1       418-2.07553E+02-1.39822E+00 3.06070E+01 1.20562E+01 7.74302E+01-4.69839E+00
 -1       419-1.74885E+02-7.47067E+00 4.67219E+01 3.90638E+01 8.16431E+01-1.00220E+01
 -1       420-6.64940E+01-1.47383E+02 1.70065E+02 8.27003E+01 1.38531E+02-2.18469E+01
 -1       421-2.99056E+02-3.99441E+02 3.90941E+02 3.82876E+02 3.01167E+02-2.66982E+02
 -1       422-8.95085E+01 1.85249E+02-3.20022E+02 3.19727E+01-9.30979E+01 9.51972E+01
 -1       423 4.29506E+02 6.61958E+01-5.84296E+02-3.95674E+02 6.83999E+02 7.16835E+01
 -1       424-1.13937E+03-3.87254E+02 6.66575E+02 1.18262E+03-8.08801E+02 1.15176E+03
 -1       425-1.52670E+03-4.17450E+02 1.04631E+03-7.54135E+02-1.71882E+02 9.55414E+01
 -1       426-2.28532E+03-7.34806E+02 1.42604E+03-2.52549E+03 5.25668E+01-5.90201E+01
 -1       427-2.57848E+03-2.67024E+02 7.13020E+02-1.38025E+03-5.43543E+01 1.12058E+01
 -1       428-2.68601E+03 2.12278E-03-2.14324E-03-1.32110E+02 2.89490E-03 5.03572E+02
 -1       429-3.12551E+03 1.04262E-03-2.05144E-03 8.45873E+01-2.92335E-03-5.85895E+02
 -1       430-1.32816E+03-4.02924E+02 1.10889E+03 1.38780E+03 9.78758E+00-6.81655E+02
 -1       431 6.05104E+02-4.25374E+02-4.75122E+02-9.35320E+02-6.33719E+01-2.25966E+02
 -1       432 3.60662E+02-1.02288E+02-1.01371E+02 9.16193E+01 3.92905E+02 1.32666E+02
 -1       433-1.44355E+02-5.99877E+01 1.64243E+02-7.95249E+01 1.39127E+01 1.44781E+02
 -1       434-1.49870E+02-8.52054E+01 8.17584E+01-2.98484E+01 6.57613E+00 3.22965E+01
 -1       435-1.48923E+02-9.10192E+01 8.34062E+01 3.93764E+01 4.34030E+00-3.78248E+01
 -1       436-1.17537E+02-3.91483E+01 1.56788E+02 1.12879E+02 3.25075E+01-1.28803E+02
 -1       437 2.96727E+02-7.64435E+01-7.19779E+01-1.33447E+02 4.14273E+02-1.17132E+02
 -1       438-1.25093E+03-1.20020E+03 1.11696E+03-1.59188E+03 4.05042E+02 5.85175E+02
 -1       439-1.66708E+03 2.96969E-03-2.06637E-03-7.65443E+01-1.81187E-03-1.05953E+02
 -1       440-2.27893E+03 1.63102E-03-1.82505E-03 7.75996E+01 1.69132E-03-5.43415E+02
 -1       441-2.05499E+03-2.19749E+02 5.92927E+02 5.80021E+02 8.62815E+00 2.53372E+01
 -1       442-1.57622E+03-6.14008E+02 1.18586E+03 1.15475E+03 3.92215E+01-1.52731E+01
 -1       443-9.78654E+02-1.58141E+02 5.88672E+02 4.00691E+02-1.39103E+02-5.05377E+01
 -1       444-8.90734E+02-1.02831E+02-8.51546E+00-8.26658E+02-3.37662E+02-4.20062E+02
 -1       445-1.10988E+02-1.41180E+02 1.28882E+02 6.09063E+00 1.76003E+02 7.20008E+01
 -1       446-3.28060E+01-2.22398E+02 1.41941E+02-4.19854E+01 5.94846E+01 5.71007E+01
 -1       447-1.03711E+01-1.60848E+02 3.67906E+01-3.47568E+01-9.25322E+00 8.83235E+01
 -1       448-9.17345E+01-1.42539E+02 7.92111E+01-3.22644E+01 1.80149E+01 1.63001E+01
 -1       449-1.24783E+02-1.19325E+02 9.94204E+01-9.51139E-01 1.47182E+01 3.07699E+01
 -1       450-1.31157E+02-1.17282E+02 1.00096E+02 4.13861E+00 1.72543E+01 3.34771E-01
 -1       451-1.21023E+02-1.22654E+02 9.91057E+01 9.73834E+00 1.53843E+01-3.22965E+01
 -1       452-8.65600E+01-1.44294E+02 7.78816E+01 4.27631E+01 1.48440E+01-1.78585E+01
 -1       453-1.97707E+01-1.55590E+02 3.61256E+01 3.45866E+01-1.78809E+01-8.71851E+01
 -1       454-1.93306E+01-2.33112E+02 1.40715E+02 4.95736E+01 6.16029E+01-5.26464E+01
 -1       455-6.02385E+01-1.15784E+02 1.06971E+02 4.01035E+01 1.61369E+02-9.06246E+01
 -1       456-4.98189E+02-1.07406E+03 8.07885E+02-3.56280E+02 1.06131E+02 3.36715E+01
 -1       457-8.06815E+02-3.36700E+02 4.03941E+02-1.89347E+02-1.08964E+02-8.68154E+01
 -1       458-1.11544E+03 2.16870E-03-2.26881E-03-1.56937E+01-3.51373E-04 6.87256E+02
 -1       459-1.99231E+03 2.35453E-03-2.07627E-03 5.46780E+00-1.14348E-04 6.33485E+01
 -1       460-1.53284E+03-9.78969E+02 1.12231E+03 1.73085E+02 2.97365E+01-6.35495E+02
 -1       461-4.65236E+01-2.44780E+02 1.25153E+02-1.46722E+01 1.94898E+01 9.34180E+01
 -1       462-3.17309E+00-1.86998E+02 3.35271E+01-7.85501E+00-1.22815E+01 8.42726E+01
 -1       463-1.16986E+02-1.25280E+02 9.58112E+01 7.90135E-02-1.48899E+01 3.35490E+01
 -1       464-1.14530E+02-1.25359E+02 9.53955E+01 8.18282E+00-1.39543E+01-3.49474E+01
 -1       465-8.03564E+00-1.93545E+02 3.37000E+01 9.84191E+00-1.52950E+01-8.49071E+01
 -1       466-2.88985E+01-2.60495E+02 1.20962E+02 2.06086E+01 2.82997E+01-9.37055E+01
 -1       467-8.11840E+02-7.80656E+02 7.93796E+02 5.54163E+02-2.58337E+02 4.17247E+02
 -1       468-1.17423E+03 1.93630E-03-1.46852E-03 3.89120E+01 1.38730E-03 1.17107E+01
 -1       469-2.10460E+03 1.53754E-03-1.84207E-03-6.10939E+01-1.52753E-03-5.25377E+02
 -1       470-1.86906E+03-1.89669E+02 5.29385E+02-3.94057E+02-5.99792E+01 2.91331E+01
 -1       471-1.39724E+03-5.12947E+02 1.05877E+03-7.97676E+02-1.18815E+01-6.71824E+01
 -1       472-8.15289E+02-5.65373E+01 4.87490E+02-2.66863E+02 7.43363E+01-2.29288E+01
 -1       473-7.05922E+02 2.15477E+01-8.37944E+01 6.45100E+02 2.07653E+02-3.59391E+02
 -1       474-4.19770E+01-1.43677E+02 6.80262E+01 3.73641E+00-1.57421E+02 7.22188E+01
 -1       475-1.80526E+01-2.05923E+02 1.01540E+02 3.18013E+01-8.02824E+01 4.43751E+01
 -1       476-2.38203E+01-1.57008E+02 5.78385E+01 1.87089E+01-2.46547E+01 8.98021E+01
 -1       477-8.25295E+01-1.36138E+02 8.06286E+01 2.37725E+01-5.07060E+01 1.72597E+01
 -1       478-1.16836E+02-1.16271E+02 9.19077E+01 3.35800E+00-4.75662E+01 3.12458E+01
 -1       479-1.21714E+02-1.11774E+02 9.11322E+01 3.90004E+00-5.04251E+01-6.16501E-01
 -1       480-1.16701E+02-1.16354E+02 9.13204E+01 4.02255E+00-4.83561E+01-3.29991E+01
 -1       481-8.20590E+01-1.37165E+02 8.12707E+01-1.78359E+01-5.15690E+01-1.65531E+01
 -1       482-1.93535E+01-1.59909E+02 6.02516E+01-1.12404E+01-2.59546E+01-8.89326E+01
 -1       483-1.62976E+01-2.02744E+02 9.77522E+01-2.61305E+01-8.19585E+01-4.48920E+01
 -1       484-4.58565E+01-1.48111E+02 6.93801E+01-9.53041E+00-1.39854E+02-6.88554E+01
 -1       485-7.82357E+02 4.26165E+01 5.70311E+01-5.97756E+02 1.89505E+02 3.30382E+02
 -1       486-9.44054E+02 3.66792E+01 4.18370E+02 3.09297E+02 5.00333E+01 3.16069E+01
 -1       487-1.32852E+03-2.57737E+02 7.79708E+02 1.11301E+03-2.44056E+01-2.06045E+00
 -1       488-1.49367E+03-8.76476E+01 3.89853E+02 6.04112E+02-5.16199E+01-2.72738E+00
 -1       489-1.54743E+03 1.39918E-03-1.48210E-03 5.69897E+01-1.50351E-03 2.54206E+02
 -1       490-2.69030E+03 7.14699E-04-1.75894E-03-6.21432E+01 2.42298E-03-5.37971E+02
 -1       491-1.18124E+03-2.70516E+02 9.50784E+02-9.53599E+02-2.08357E+01-5.61395E+02
 -1       492 3.99589E+02-1.68863E+02-4.40673E+02 7.79464E+02 6.99878E+01-1.97576E+02
 -1       493 2.77562E+02-1.00933E+02-4.49699E+01-6.86381E+01-3.30212E+02 1.07841E+02
 -1       494-1.12826E+02-6.44930E+01 1.31747E+02 6.60861E+01-3.27554E+01 1.26075E+02
 -1       495-1.33090E+02-8.09760E+01 7.68701E+01 2.76742E+01-2.81055E+01 3.15312E+01
 -1       496-1.32556E+02-8.13281E+01 7.70616E+01-2.05562E+01-2.82024E+01-3.36118E+01
 -1       497-1.07579E+02-6.45690E+01 1.29428E+02-5.84662E+01-3.28804E+01-1.24303E+02
 -1       498 2.64107E+02-9.83606E+01-3.95429E+01 6.73579E+01-3.09547E+02-1.04453E+02
 -1       499 3.20462E+02-1.01090E+02-3.51343E+02-6.70528E+02 9.73780E+01 2.33504E+02
 -1       500-1.11376E+03-1.03989E+02 7.80724E+02 1.09441E+03 7.89208E+00 4.64925E+02
 -1       501-2.30040E+03 2.47589E-04-1.44433E-03 6.08356E+01 1.95179E-03 4.47870E+02
 -1       502-3.35000E+03 1.14992E-03-2.36311E-03-5.80536E+01-1.73599E-03-8.47988E+02
 -1       503-2.80264E+03-5.03113E+01 4.21396E+02-6.69115E+02 1.14276E+02 4.32144E+01
 -1       504-1.00300E+03-2.19017E+02 8.42796E+02-1.06877E+03 1.23025E+02-7.30325E+02
 -1       505 9.94597E+02-5.76771E+02 2.26227E+01-1.47532E+02-1.19356E+02 2.52818E+02
 -1       506 2.58703E+03-1.14619E+03-7.97550E+02 5.93808E+02 7.96600E+01-7.61809E+01
 -1       507 3.06733E+03-1.10207E+03-5.71322E+02 1.21635E+03 5.30095E+02-8.30064E+02
 -1       508 1.85337E+03-1.29376E+03-3.45097E+02 2.55043E+03 9.28475E+02 3.94951E+02
 -1       509 3.92209E+02-7.21821E+00-3.57317E+02-2.83085E+02-5.88756E+02-5.46973E+01
 -1       510-8.93012E+01 5.61557E+01-2.01854E+02-1.21295E+01-6.75420E+00-8.98339E+01
 -1       511-2.80686E+02-2.52252E+02 2.82881E+02 2.86483E+02-2.35670E+02 2.38918E+02
 -1       512-5.34089E+01-1.01674E+02 1.24993E+02 7.66837E+01-1.27506E+02 2.92026E+01
 -1       513-1.46531E+02-2.02153E+01 4.83292E+01 2.31511E+01-9.30304E+01 6.42818E+00
 -1       514-1.76572E+02-1.03087E+01 3.67997E+01 3.41183E+00-9.08857E+01-4.28609E-01
 -1       515-1.46465E+02-2.09524E+01 5.00646E+01-1.60888E+01-9.38454E+01-8.38993E+00
 -1       516-5.48760E+01-1.00912E+02 1.23004E+02-6.77564E+01-1.27883E+02-2.89320E+01
 -1       517-2.70871E+02-2.48480E+02 2.74029E+02-2.72842E+02-2.33357E+02-2.33263E+02
 -1       518-8.50933E+01 5.44965E+01-1.93685E+02 1.22457E+01-6.96782E+00 8.46534E+01
 -1       519 3.78491E+02-7.22747E+00-3.45864E+02 2.76837E+02-5.64208E+02 4.94880E+01
 -1       520 1.72143E+03-1.21278E+03-3.13855E+02-2.45644E+03 8.69893E+02-3.63044E+02
 -1       521 2.85442E+03-1.01266E+03-5.36785E+02-1.14546E+03 4.94933E+02 7.86065E+02
 -1       522 2.37663E+03-1.02041E+03-7.59717E+02-4.88524E+02 5.63885E+01 4.34326E+01
 -1       523 9.06658E+02-4.89883E+02 1.10114E+01 2.59157E+02-1.00392E+02-2.22216E+02
 -1       524-9.00461E+02-1.52679E+02 7.81741E+02 1.15719E+03 1.01420E+02 6.96191E+02
 -1       525-2.56794E+03-4.17581E+01 3.90869E+02 7.17169E+02 1.59780E+02-5.78711E+01
 -1       526-3.09288E+03 7.87150E-04-1.96192E-03 7.33442E+01-1.43628E-03 7.55721E+02
 -1       527-4.29177E+03 8.58149E-04-1.92607E-03-7.99912E+01 8.51475E-04-9.91037E+02
 -1       528-7.11314E+02-3.81388E+02 1.04112E+03-1.44524E+03-1.18172E+02-9.11002E+02
 -1       529 3.49612E+03-1.20775E+03-1.28665E+03 1.36025E+02 1.94825E+02-3.73457E+02
 -1       530 3.74181E+03-2.58998E+03-6.30393E+02 2.37608E+03 5.06036E+02 1.17397E+03
 -1       531-5.67375E+02-1.10521E+03 7.92155E+02 9.74994E+02-6.03408E+02 2.54028E+02
 -1       532 9.48041E+01-7.79008E+01-2.08251E+02 1.18598E+01 7.11898E+01-2.91760E+01
 -1       533-1.98297E+02-1.55591E+01 1.05380E+02 3.46036E+01-4.85092E+01 6.56193E+01
 -1       534-1.96156E+02-1.51000E+01 1.02547E+02-2.93774E+01-4.78236E+01-6.44393E+01
 -1       535 8.56420E+01-7.74103E+01-1.99637E+02-6.49052E+00 6.92162E+01 2.31701E+01
 -1       536-5.39319E+02-1.09006E+03 7.69855E+02-9.41500E+02-5.70238E+02-2.45818E+02
 -1       537 3.54823E+03-2.42709E+03-6.06469E+02-2.27539E+03 4.84283E+02-1.10481E+03
 -1       538 3.29972E+03-1.10315E+03-1.23477E+03-6.73777E+01 1.68268E+02 3.46456E+02
 -1       539-6.50869E+02-3.52840E+02 9.79248E+02 1.50135E+03-1.25166E+02 8.59592E+02
 -1       540-4.05868E+03 8.11833E-04-1.81160E-03 8.69461E+01 1.03224E-03 9.40948E+02
 -1       541-5.36932E+03 3.90640E-04-1.84539E-03-1.50256E+02-2.06436E-04-1.65951E+03
 -1       542-4.20660E+03-2.04926E+02 6.19722E+02-1.06933E+03 2.10305E+02 1.83678E+02
 -1       543-5.72613E+02-6.39461E+02 1.23945E+03-1.85078E+03-3.11645E+01-1.22053E+03
 -1       544 2.49796E+03-8.97352E+02-2.68153E+02-1.09711E+03-1.91415E+02 6.52683E+01
 -1       545 4.19069E+03-1.01561E+03-1.77575E+03-1.59861E+02-1.27632E+02-5.32003E+02
 -1       546 5.75133E+03-1.36004E+03-1.34572E+03 1.49283E+02 1.32485E+02-3.90948E+01
 -1       547 4.92351E+03-1.91375E+03-9.15686E+02-5.86210E+02-3.60383E+02 9.15149E+02
 -1       548-2.54433E+03-2.18216E+03 9.63718E+02 7.07604E+02-6.46170E+02 9.23473E+02
 -1       549-4.32933E+03-3.58123E+03 1.69152E+03 3.78073E+03-3.36232E+03 3.61818E+03
 -1       550-1.30201E+03-4.79443E+02 8.35066E+02 9.63045E+02-2.29473E+02 4.99474E+02
 -1       551 1.19051E+01 3.49402E+02-3.63797E+02-2.87278E+02 5.01131E+01 5.62979E+02
 -1       552-8.41916E+01 2.44355E+02-3.12641E+01-8.52183E+01-9.99236E+01 3.29387E+02
 -1       553-1.23130E+02-4.31795E+01 7.22584E+01 2.12370E+01-7.34511E+01 1.43804E+02
 -1       554-2.32247E+02-2.07623E+01 9.92000E+01 2.37326E+00-8.56471E+01 1.00406E+01
 -1       555-1.25793E+02-4.06034E+01 7.09283E+01-1.81683E+01-7.22120E+01-1.26292E+02
 -1       556-8.58168E+01 2.40531E+02-3.01943E+01 8.15175E+01-9.94066E+01-3.06890E+02
 -1       557 8.31992E+00 3.42736E+02-3.50058E+02 2.78622E+02 4.66146E+01-5.40548E+02
 -1       558-1.24108E+03-4.71591E+02 8.02620E+02-9.32146E+02-2.27357E+02-4.88983E+02
 -1       559-4.11408E+03-3.53452E+03 1.63403E+03-3.67436E+03-3.27742E+03-3.47392E+03
 -1       560-2.40501E+03-2.12393E+03 9.23355E+02-7.68378E+02-6.50687E+02-8.66633E+02
 -1       561 4.69023E+03-1.74720E+03-8.99081E+02 5.31259E+02-3.61727E+02-8.65766E+02
 -1       562 5.48085E+03-1.24190E+03-1.30446E+03-1.22084E+02 1.35648E+02 3.76072E+01
 -1       563 4.00828E+03-9.40525E+02-1.70983E+03 2.12259E+02-1.19220E+02 5.13822E+02
 -1       564 2.40032E+03-8.36615E+02-2.66538E+02 1.13382E+03-1.87340E+02-6.18393E+01
 -1       565-5.44576E+02-6.06593E+02 1.17676E+03 1.87195E+03-1.88433E+01 1.17252E+03
 -1       566-4.02920E+03-1.91578E+02 5.88376E+02 1.07844E+03 2.07944E+02-1.67471E+02
 -1       567-5.14292E+03 3.69629E-04-1.77039E-03 1.47077E+02-3.49301E-04 1.60107E+03
 -1       568-6.79256E+03 1.41003E-03-2.34438E-03-1.15431E+02 1.38280E-03-1.91636E+03
 -1       569-7.45648E+02-4.60105E+02 1.26724E+03-2.33174E+03 1.35391E+02-1.83481E+03
 -1       570 5.17209E+03-1.33100E+03-2.19983E+03 3.79441E+02-2.40603E+01-4.96132E+02
 -1       571 3.50665E+03-7.03133E+02-1.06356E+03-1.30039E+03-5.01869E+02 1.79933E+03
 -1       572-2.53377E+03-2.04882E+03 9.69360E+02 1.12932E+03-7.90182E+02 8.20380E+02
 -1       573-2.39987E+03-2.01626E+03 9.25528E+02-1.09285E+03-7.62133E+02-7.83007E+02
 -1       574 3.37195E+03-6.12931E+02-1.04572E+03 1.21569E+03-5.00225E+02-1.72599E+03
 -1       575 4.98596E+03-1.25163E+03-2.13264E+03-3.31191E+02-1.88551E+01 4.70371E+02
 -1       576-7.17775E+02-4.41724E+02 1.21934E+03 2.32603E+03 1.31712E+02 1.77385E+03
 -1       577-6.57409E+03 1.35040E-03-2.25577E-03 1.14476E+02 1.39502E-03 1.86578E+03
 -1       578-8.32975E+03 2.23984E-03-2.24991E-03-1.95786E+01-2.02043E-03-2.80972E+03
 -1       579-6.44307E+03 7.23724E+01 6.47513E+02-1.46175E+03-5.88602E+02 7.50585E+01
 -1       580-8.33542E+02-2.15987E+02 1.29503E+03-2.75139E+03-1.57990E+02-2.74391E+03
 -1       581 5.22693E+03-9.37658E+02-6.64438E+02-1.55256E+03 8.53640E+01-1.40297E+02
 -1       582 6.00440E+03-8.06524E+02-2.62390E+03 1.47772E+03-2.52892E+02-2.81108E+02
 -1       583 4.34692E+03 5.66955E+02-1.91766E+03 8.17638E+02-3.21474E+02 2.33242E+01
 -1       584 1.52198E+03 1.37050E+03-1.21143E+03-4.19374E+02-4.73624E+01-1.93155E+01
 -1       585-3.49650E+02 3.13854E+03-1.05791E+03-1.17243E+03-1.65190E+03 7.05495E+02
 -1       586-1.24787E+03 4.19556E+03-9.04402E+02-4.62708E+02-7.25359E+02 4.02745E+02
 -1       587-2.12698E+03 3.12143E+03-5.17110E+02 2.00595E+03-9.27280E+02-4.35160E+02
 -1       588-1.05785E+03 1.34793E+03-1.29815E+02 2.20493E+03-2.61562E+02-7.72524E+02
 -1       589-1.02811E+03 1.33192E+03-1.37891E+02-2.17385E+03-2.53257E+02 7.54370E+02
 -1       590-2.07262E+03 3.07134E+03-5.16314E+02-1.98959E+03-9.16310E+02 4.33734E+02
 -1       591-1.23994E+03 4.13855E+03-8.94735E+02 4.31725E+02-7.22154E+02-3.90508E+02
 -1       592-3.47037E+02 3.09617E+03-1.04354E+03 1.11674E+03-1.61355E+03-6.59954E+02
 -1       593 1.48236E+03 1.37391E+03-1.19235E+03 3.75674E+02-4.08170E+01 1.13171E+01
 -1       594 4.20091E+03 5.94346E+02-1.87390E+03-8.02651E+02-3.06460E+02-2.99027E+01
 -1       595 5.80779E+03-7.43435E+02-2.55545E+03-1.41979E+03-2.40598E+02 2.81310E+02
 -1       596 5.07257E+03-8.90252E+02-6.46760E+02 1.53684E+03 8.65477E+01 1.44367E+02
 -1       597-8.01888E+02-2.09221E+02 1.26193E+03 2.71887E+03-1.55408E+02 2.67982E+03
 -1       598-6.26078E+03 6.74846E+01 6.30963E+02 1.45152E+03-5.63782E+02-6.57044E+01
 -1       599-8.10730E+03 2.14072E-03-2.11101E-03 2.37507E+01-1.98789E-03 2.74565E+03
 -1       600 2.51850E+03 4.03232E+02-1.27263E+03 3.78722E+03-1.32086E+03-6.07377E+02
 -1       601 7.76925E+02 3.99022E+03-1.87456E+03 6.97935E+02-7.19733E+01 2.84164E+02
 -1       602-9.55525E+02 4.99669E+03-1.24131E+03-9.37437E+01 1.51715E+01-1.81657E+02
 -1       603-8.77180E+02 2.22950E+03-3.99212E+02 8.28268E+02 6.28171E+02-4.32012E+02
 -1       604-8.53798E+02 2.20245E+03-3.99814E+02-8.28861E+02 6.23140E+02 4.19974E+02
 -1       605-9.39068E+02 4.91588E+03-1.22338E+03 6.21734E+01 1.71468E+01 1.70523E+02
 -1       606 7.51660E+02 3.93085E+03-1.84101E+03-7.13602E+02-6.93521E+01-2.79603E+02
 -1       607 2.44080E+03 4.09730E+02-1.24267E+03-3.68154E+03-1.29862E+03 5.93238E+02
 -1       608 1.51949E+02 2.12747E+02 7.86348E+01 4.88184E+03-7.97832E+02 6.76010E+02
 -1       609 4.64133E+02 2.31885E+03-1.22953E+03 3.61016E+03 6.01841E+02 1.37432E+03
 -1       610-5.36224E+02 5.56908E+03-2.53770E+03 1.26680E+03 3.35982E+02 2.24679E+02
 -1       611-1.09903E+03 4.71149E+03-2.05796E+03 1.16622E+02 3.84766E+02-1.83537E+01
 -1       612-8.41593E+02 3.63325E+03-1.57823E+03-5.53851E+02 4.31263E+02 1.90922E+02
 -1       613-9.42940E+02 3.02389E+03-1.12342E+03-3.68905E+02 3.92088E+02-1.45385E+02
 -1       614-1.20826E+03 2.56175E+03-6.68610E+02-1.27385E+02 4.22562E+01 3.56298E+01
 -1       615-1.18429E+03 2.52434E+03-6.61739E+02 9.81827E+01 4.73309E+01-3.62252E+01
 -1       616-9.22665E+02 2.97295E+03-1.10689E+03 3.34415E+02 3.89041E+02 1.45610E+02
 -1       617-8.19676E+02 3.56969E+03-1.55203E+03 5.13588E+02 4.21147E+02-1.78827E+02
 -1       618-1.08082E+03 4.63042E+03-2.02085E+03-1.37696E+02 3.81045E+02 1.31434E+01
 -1       619-5.37932E+02 5.47835E+03-2.48967E+03-1.26419E+03 3.31600E+02-2.19985E+02
 -1       620 4.57230E+02 2.28877E+03-1.20978E+03-3.54735E+03 5.89582E+02-1.34046E+03
 -1       621 1.61596E+02 2.09161E+02 7.01125E+01-4.76856E+03-7.57536E+02-6.63656E+02
 -1       622-7.80615E+02 4.93520E+03-6.20856E+02-1.72310E+03 1.65090E+02-8.39268E+01
 -1       623-7.52037E+02 2.22073E+03-2.98699E+02-1.41017E+03 4.96624E+01 1.74643E+02
 -1       624-7.45371E+02 8.27181E+02 1.00309E+02-6.01410E+02-4.35877E+02 2.02281E+02
 -1       625-7.23880E+02 8.01230E+02 9.95553E+01 5.64319E+02-4.21714E+02-1.99064E+02
 -1       626-7.33108E+02 2.18015E+03-2.94385E+02 1.36028E+03 5.05484E+01-1.68442E+02
 -1       627-7.70607E+02 4.84785E+03-6.10645E+02 1.67383E+03 1.57195E+02 8.58584E+01
 -1       628-2.00778E+02-8.13725E+02 1.29599E+03-2.92131E+03 2.73372E+03 1.45895E+02
 -1       629-3.89752E+02-6.66640E+02 1.13841E+03-2.58952E+03 1.69089E+03-1.33022E+02
 -1       630-4.90342E+02-4.04360E+02 9.80828E+02-2.19663E+03 1.01699E+03 1.99385E+01
 -1       631-2.54060E+02-6.63571E+02 9.25027E+02-1.84728E+03 8.18833E+02 1.54735E+02
 -1       632-2.73108E+02-1.26901E+03 8.69227E+02-1.64981E+03 4.88245E+02 2.67614E+01
 -1       633-6.60103E+02-8.68163E+02 6.64356E+02-1.33003E+03 3.83071E+02 3.18360E+02
 -1       634-6.93713E+02-2.89969E+02 4.59487E+02-6.58622E+02-3.51689E+01 1.00519E+02
 -1       635-6.73747E+02-1.79105E+02 4.58273E+02 2.07877E+00 2.39704E+02-9.50298E-01
 -1       636-6.86245E+02-2.91081E+02 4.57060E+02 6.61367E+02-3.13871E+01-9.97550E+01
 -1       637-6.39136E+02-8.67750E+02 6.58954E+02 1.31694E+03 3.79849E+02-3.18346E+02
 -1       638-2.52806E+02-1.26900E+03 8.60850E+02 1.61206E+03 4.88228E+02-2.83731E+01
 -1       639-2.38365E+02-6.63939E+02 9.12057E+02 1.79623E+03 8.06331E+02-1.50760E+02
 -1       640-4.77404E+02-3.99104E+02 9.63264E+02 2.13538E+03 1.00129E+03-2.00769E+01
 -1       641-3.80578E+02-6.53185E+02 1.11582E+03 2.52114E+03 1.65985E+03 1.31230E+02
 -1       642-1.93400E+02-7.95671E+02 1.26838E+03 2.84848E+03 2.67749E+03-1.43822E+02
 -1       643 5.33528E+01-6.19377E+03 6.47994E+02-1.57740E+03-3.07913E+01 5.12504E+02
 -1       644-1.45449E+02-3.71585E+03 4.90412E+02-1.28087E+03-1.70491E+02-2.22006E+02
 -1       645-1.01544E+02-1.88516E+03 4.34612E+02-1.00849E+03-1.65597E+01-1.03737E+02
 -1       646-2.15198E+02-4.30098E+02 2.29743E+02-3.36987E+02-2.54972E+01-2.72509E+01
 -1       647-2.13717E+02-4.32303E+02 2.28529E+02 3.38273E+02-2.65898E+01 2.30988E+01
 -1       648-9.39771E+01-1.87526E+03 4.30424E+02 9.89814E+02-1.78390E+01 1.01003E+02
 -1       649-1.41756E+02-3.65620E+03 4.81630E+02 1.24558E+03-1.69659E+02 2.18154E+02
 -1       650 5.40627E+01-6.06857E+03 6.34189E+02 1.53561E+03-3.22557E+01-5.03763E+02
 -1       651 1.83975E-03-8.07556E+03-1.57040E-03-5.04079E+01 2.82005E+03 2.20005E-03
 -1       652 1.19739E-03-6.38925E+03-2.10605E-03-1.30332E+02 1.85950E+03-1.66982E-03
 -1       653 3.31960E-04-4.77265E+03-2.08166E-03-1.63014E+02 1.46622E+03 9.28556E-04
 -1       654 6.11621E-04-3.35507E+03-1.71129E-03-1.26717E+02 7.68711E+02-2.12452E-03
 -1       655 1.42501E-03-2.04585E+03-1.21682E-03-1.27394E+02 4.21196E+02 1.19130E-03
 -1       656 1.55515E-03-1.16898E+03-1.22905E-03-7.67940E+01-5.44049E+00-1.21667E-03
 -1       657 1.55067E-03-5.70227E+02-1.38456E-03-1.29185E+01 3.90339E+02 1.30207E-04
 -1       658 1.72831E-03-4.60457E+02-8.47802E-04 4.71288E-02 1.60058E+01 5.70409E-06
 -1       659 1.51405E-03-5.73525E+02-1.37863E-03 1.28953E+01 3.87541E+02-1.40296E-04
 -1       660 1.50241E-03-1.16736E+03-1.21906E-03 7.69050E+01 1.88232E-01 1.20992E-03
 -1       661 1.39332E-03-2.03365E+03-1.19707E-03 1.25897E+02 4.12304E+02-1.13349E-03
 -1       662 5.74614E-04-3.31347E+03-1.68730E-03 1.23770E+02 7.61803E+02 2.05579E-03
 -1       663 3.02068E-04-4.69721E+03-2.04804E-03 1.58815E+02 1.44102E+03-8.85462E-04
 -1       664 1.17119E-03-6.26841E+03-2.06426E-03 1.26594E+02 1.82234E+03 1.61370E-03
 -1       665 1.80744E-03-7.90895E+03-1.54569E-03 4.75798E+01 2.75702E+03-2.13309E-03
 -1       666-1.38556E-12-7.78471E-10-1.30484E-10-2.30585E-10-3.88829E+03 1.73148E-03
 -1       667 1.63425E-13-4.68731E-10-1.66267E-12-5.82645E-13-2.14803E+03-3.14461E-03
 -1       668 2.24265E-13-8.90594E-11-1.19087E-11-6.82121E-12-8.41554E+02-2.25401E-03
 -1       669-2.26485E-14 7.89697E-11 3.29621E-11-5.63602E-11-5.47148E+02 1.43767E-04
 -1       670 1.03029E-13-1.02986E-10 3.75877E-12-8.95177E-11-6.58007E+02 9.30872E-04
 -1       671 2.48690E-14-8.96421E-11 8.98694E-11-5.34541E-11-1.16131E+03 2.65662E-03
 -1       672-2.41585E-13 9.08358E-11 1.10447E-10-5.98277E-11-2.30668E+03 2.48540E-03
 -1       673-6.50147E-13-1.93268E-12-1.37646E-10-3.90514E-11-4.06254E+03-1.97489E-03
 -1       674 6.92459E-11-9.06937E-10 4.75922E-10 3.35396E-11-3.82612E+03 5.73532E+00
 -1       675 2.58744E-11-3.64180E-10-8.55294E-11-3.10481E-11-1.32216E+03 1.65575E+02
 -1       676 6.34739E-11-1.78314E-10 1.44420E-10-6.05347E-11-3.65314E+02-1.00266E+02
 -1       677 7.12384E-11 7.86855E-11 2.40906E-10-1.19862E-10-2.55272E+02-4.25362E+01
 -1       678-4.07686E-11-1.45368E-10 2.34065E-10-2.28676E-11-5.62232E+01-3.73694E+01
 -1       679-3.76126E-11 3.83054E-11-3.43796E-11-1.02316E-10-9.95020E+02 1.77758E+02
 -1       680-5.52829E-11-1.22213E-11 5.76122E-10-1.07365E-10-1.74235E+03-5.55085E+01
 -1       681 9.06759E-11 2.40050E-10-7.91957E-10-1.02485E-10-3.99638E+03-2.59906E+02
 -1       682 9.77138E-11 8.66123E-10-4.50436E-09 1.65699E-10 1.51088E+03 1.13208E+03
 -1       683-1.50048E-10-2.53351E-10 7.29320E-10-3.42022E-10-4.88187E+02 6.98743E+02
 -1       684 1.05691E-10-6.26205E-10 1.60037E-09-4.19356E-11-5.06609E+02 2.89613E+02
 -1       685 1.64883E-10-6.76756E-11 3.24857E-10-1.40158E-10-5.03066E+02-5.56857E+02
 -1       686 2.11244E-10-1.08571E-10-1.15357E-11 6.04601E-11-8.40426E+02-3.90686E+02
 -1       687 4.09059E-11-1.33213E-10 2.06057E-13-1.07065E-10-5.04134E+02 3.19617E+02
 -1       688 9.82302E-11 1.50749E-10-1.98327E-10-6.28712E-11-9.23837E+01 9.42768E+01
 -1       689-5.62768E-11-9.51133E-11 8.33385E-10-1.13507E-10-8.70854E+02-1.53868E+02
 -1       690-8.41401E-11 1.82183E-11 1.74558E-09 1.43577E-10-4.65876E+02-2.46776E+02
 -1       691 2.39083E-10 1.06098E-10-3.06449E-09 1.93950E-10 1.06855E+03-1.52524E+03
 -1       692-9.60256E-10-6.75016E-13-5.57066E-11-2.68670E-10 1.71431E-03-3.92063E+03
 -1       693-8.37531E-10 1.31461E-10 1.46496E-09 9.63034E-11 2.46263E+02-3.84077E+03
 -1       694-2.20496E-10 8.22752E-10-7.89086E-10-1.36736E-10 2.24736E+02-4.64958E+02
 -1       695-1.22757E-10-3.96376E-10 1.02778E-09-3.18590E-10-3.03648E+01-2.83490E+02
 -1       696 1.72463E-10-1.36544E-09 1.86296E-09 2.33115E-10 1.54817E+03 1.43522E+03
 -1       697-3.53964E-10-2.93539E-10 2.47022E-09 5.64171E-11 6.32474E+02 1.26214E+03
 -1       698 6.57892E-11-5.73664E-10 3.89647E-10-6.87142E-11 1.48810E+03-8.31753E+02
 -1       699-3.39654E-10 6.12310E-11 6.77371E-10 2.80270E-10-2.70427E+02-1.50449E+01
 -1       700-6.13246E-11-2.64185E-10-9.85035E-10-2.94354E-11 6.29498E+02 4.97704E+02
 -1       701 4.99924E-10-2.01009E-10-5.32681E-10-4.55849E-11 4.66378E+00 4.00948E+03
 -1       702 4.30077E-10-4.55136E-12 1.84990E-09-3.25926E-11 1.18113E-03 4.00628E+03
 -1       703-3.43945E-10-7.21201E-13 8.61533E-11-2.66169E-11-2.53326E-03-2.18789E+03
 -1       704-5.07342E-10 1.80927E-10 5.99687E-10-1.67984E-10 4.76335E+01-1.64332E+03
 -1       705-4.81648E-10 4.16215E-10-7.26095E-10-4.81251E-11 1.83675E+02-8.47881E+02
 -1       706-3.98150E-10 4.48495E-11 6.89785E-10 3.43827E-10 8.57265E+02 1.38774E+03
 -1       707-1.02130E-09-1.36236E-09 7.11660E-10-1.59570E-09 3.41396E+03 4.19867E+03
 -1       708-1.39201E-10 1.84466E-10-7.75791E-10 1.45936E-10-3.65664E+01 9.90805E+02
 -1       709 1.25491E-10 6.79879E-11-6.54377E-10-5.08684E-11-8.49484E+01-5.26632E+01
 -1       710 1.44403E-10 3.46225E-11-1.13253E-09-3.88315E-11-1.79118E+02-7.00767E+01
 -1       711 1.62775E-10 3.87912E-11 1.80663E-10-8.38369E-11-7.08932E+01-9.86170E+02
 -1       712 9.11463E-10-2.01369E-09 8.98924E-10 5.71696E-10 4.34900E+03-3.39025E+03
 -1       713 6.56527E-10-1.09068E-10 1.41927E-09-2.18648E-10 1.47330E+03-1.36394E+03
 -1       714 5.21879E-10-3.45838E-10-2.29606E-09-6.38352E-11 2.00627E+02 5.04904E+02
 -1       715 1.62366E-10-1.61076E-10 3.06284E-10 8.75460E-11 5.37724E+01 1.26629E+03
 -1       716 2.25839E-10-3.39950E-13 9.65779E-10 4.80931E-11-3.44129E-03 1.90252E+03
 -1       717-1.48702E-10-3.69482E-13 2.09468E-11-2.83720E-11-2.70405E-03-1.06591E+03
 -1       718-2.36788E-12 1.40345E-10-6.36876E-10-1.44473E-10-1.64558E+02-9.19772E+02
 -1       719 7.55046E-11 9.80318E-11 9.90072E-11-1.17531E-10-8.39131E+01-6.27372E+01
 -1       720 1.65073E-10-1.47622E-10 6.29200E-10 5.68434E-12-1.21104E+03 6.10856E+02
 -1       721 9.98600E-11-1.96736E-10-9.35438E-11 2.80576E-11 9.45693E+02-5.99911E+01
 -1       722-6.78174E-11-9.91466E-11 7.59341E-11-1.44556E-10 5.50147E+02 6.74364E+02
 -1       723-8.61382E-11-1.10274E-10 8.68206E-10-1.92807E-11 8.23216E+01-6.43788E+01
 -1       724 7.89899E-11-6.79625E-11 1.43006E-09 1.35794E-11 6.70748E+01 3.95859E+01
 -1       725-8.92200E-11-8.56453E-11 5.70543E-10 6.30122E-11 6.91127E+02-5.51325E+02
 -1       726 9.91083E-11-2.50550E-10-2.59647E-10-2.16140E-11 1.01679E+03 2.89333E+01
 -1       727-1.46713E-10-6.63789E-11-5.42954E-10-1.12493E-10-7.44601E+02 1.16816E+03
 -1       728 4.76537E-12 1.99036E-11 3.37860E-11 2.57649E-11 4.46561E+01-7.40442E+01
 -1       729 6.07017E-11-6.98330E-13 3.41585E-10 6.00560E-11-1.93690E-03 4.72837E+02
 -1       730 6.58815E-11-3.55271E-13 3.52358E-11-1.13403E-10-9.89471E-04-5.17857E+02
 -1       731 2.22814E-10 1.08823E-10-2.21628E-10-1.43354E-10 4.05193E+01-6.82256E+00
 -1       732 1.00442E-10-1.92223E-10 1.99461E-09 5.20970E-11-3.17539E+02-4.45827E+02
 -1       733-5.13369E-11-1.00897E-12-5.87302E-10-9.98493E-12 3.38340E+01-1.68213E+02
 -1       734-1.68877E-10-7.90545E-11 8.57734E-10-4.81738E-11-5.56909E+01 7.45629E+01
 -1       735 1.69907E-10 1.57096E-10-1.69380E-09-5.72533E-11 2.70481E+00 1.99379E+01
 -1       736-1.34883E-10 9.76299E-11-3.07640E-10 2.05288E-11 5.97902E+00-1.99826E+01
 -1       737 1.27018E-10 6.46794E-11-1.21037E-09 6.04269E-11-8.05541E+01-8.12635E+01
 -1       738-1.50443E-10-2.51283E-11-2.19167E-11 1.09006E-11-3.44041E+01 9.17329E+01
 -1       739 6.91074E-11-9.35884E-11-1.61250E-10-2.70921E-11 9.91615E+01 1.62560E+01
 -1       740-1.22057E-10 5.63438E-13 2.76541E-10 1.35985E-10-1.14480E-03 6.69841E+02
 -1       741-6.79563E-11 1.32339E-13 3.49480E-11-1.09907E-10 3.21051E-04-5.02558E+02
 -1       742-1.76968E-10-7.59831E-11 8.46920E-11-9.23706E-11-1.58988E+01-6.01850E+01
 -1       743-1.30626E-10 1.80094E-10 1.46692E-10 8.05613E-11 1.92262E+02-3.84037E+02
 -1       744 9.44543E-11 9.36931E-11-7.57980E-10-3.05496E-11-3.46246E+01-8.19584E+01
 -1       745-9.30319E-11-1.16631E-11 5.96440E-10-3.06363E-11 1.68435E+01 8.90313E+01
 -1       746 6.08544E-11-6.35989E-11 3.51908E-10-1.67669E-11-3.84569E+01 2.31531E+01
 -1       747-4.33528E-11-3.17246E-11 3.29874E-10 3.57884E-11-4.02795E+01-2.59282E+01
 -1       748 5.95212E-11 2.67869E-11 3.17191E-11 5.82059E-11 1.89716E+01-8.51909E+01
 -1       749-3.69407E-11-4.15614E-11-5.30278E-11 4.82255E-11-7.93469E+00 8.25387E+01
 -1       750 1.20227E-10-9.04254E-11 3.12582E-10-3.09086E-11 1.71893E+02 3.45974E+02
 -1       751-2.92513E-10-2.84220E-10 1.17912E-10 3.37256E-10-2.45779E+01-8.06605E+00
 -1       752-2.00274E-10 7.53453E-13 3.41149E-10 1.32133E-10 4.33700E-04 2.37401E+02
 -1       753-7.73923E-11 3.01981E-14-1.11413E-11-7.87637E-11 1.85539E-03-8.29837E+02
 -1       754-9.78417E-12-2.72582E-12-1.15058E-10-1.15440E-10 1.24974E+02-7.38942E+02
 -1       755-2.75814E-10-5.94677E-11 8.46659E-10-2.04853E-10 6.04722E+01-9.65161E+01
 -1       756-1.91733E-10 1.86049E-10 1.40888E-09 6.74447E-11 9.16185E+02 4.04719E+02
 -1       757 4.04436E-11 2.39559E-10 1.60520E-11-8.70930E-11-7.88868E+02-5.16658E+01
 -1       758-6.54776E-11 5.15910E-12 1.82359E-10-2.76124E-11-4.67755E+02 5.02657E+02
 -1       759 1.51502E-10 1.13785E-11-8.55112E-10 6.19412E-11-8.91457E+01-3.91142E+01
 -1       760-7.92945E-11-4.75585E-11 3.82161E-10 2.94752E-11-9.01877E+01 3.62360E+01
 -1       761 3.97067E-11-3.21592E-11 5.73971E-10 1.30958E-10-4.61985E+02-4.85996E+02
 -1       762-6.79847E-11 3.73710E-11 2.40846E-10-4.76965E-11-7.63535E+02 4.35190E+01
 -1       763-2.54772E-10-9.80691E-11 1.58346E-09 6.70752E-12 8.57287E+02-3.72668E+02
 -1       764-1.34545E-10-2.02221E-10 7.43659E-10 1.23942E-10 3.68640E+01 6.23933E+01
 -1       765 2.16922E-10-6.58612E-11-1.16479E-09 2.03648E-10 1.05702E+02 7.04399E+02
 -1       766 3.71472E-11 2.63567E-13 5.65786E-10 9.63638E-11 2.20075E-03 7.38885E+02
 -1       767-5.20401E-11 2.78000E-13 1.50230E-10-5.21965E-11 1.60281E-03-1.63283E+03
 -1       768-3.57190E-11 5.18745E-11-1.58199E-10 8.53095E-12-2.62899E+01-1.23972E+03
 -1       769-3.77867E-11 8.80043E-11-6.11490E-10-1.01867E-10-1.47324E+02-5.55250E+02
 -1       770-9.62565E-10 1.66165E-10 1.34743E-09-4.60669E-12-3.68759E+02 9.54562E+02
 -1       771-2.10029E-09 1.56777E-09-1.61515E-10 2.10710E-10-2.96556E+03 3.18456E+03
 -1       772-2.03203E-10 8.13898E-11 7.20951E-10 1.33462E-11 3.32348E+01 7.94222E+02
 -1       773-1.93696E-10-3.82863E-11 3.69868E-10 2.09024E-11 7.08081E+01 4.61230E+00
 -1       774-3.12905E-11 8.84426E-11-4.68603E-12 1.36949E-11 6.81671E+01 8.48350E+00
 -1       775 5.91562E-11-3.71045E-11 8.04995E-10-9.86609E-11 3.20874E+01-7.61142E+02
 -1       776 8.45594E-10 9.42778E-10 2.62879E-10 1.34145E-09-2.88904E+03-3.05730E+03
 -1       777 1.06922E-09 9.51073E-11-4.03811E-10-7.63251E-10-3.70172E+02-9.03650E+02
 -1       778 7.55108E-10-5.81069E-10-1.64645E-09 1.14971E-10-1.38582E+02 5.36214E+02
 -1       779 5.69543E-10-2.23821E-10-1.48431E-09 2.98855E-10-1.36672E+01 1.19099E+03
 -1       780 3.90060E-10 3.96794E-13 9.17499E-10 1.65723E-10 1.63794E-03 1.57573E+03
 -1       781 2.15948E-10 7.65610E-13 8.33182E-11-6.28120E-11-1.54733E-03-2.78185E+03
 -1       782 5.75255E-11-1.12763E-10 3.39242E-10-4.02558E-11-1.56795E+02-2.77225E+03
 -1       783 1.45529E-10 1.43565E-10-1.78786E-09 1.69403E-10-2.45669E+02-2.88980E+02
 -1       784 1.18851E-10-1.65329E-10 7.25866E-10 1.74688E-10-6.48748E+01-7.49892E-01
 -1       785 3.98842E-10 1.06320E-09-1.73227E-09 1.86270E-10-7.62010E+02 4.12753E+02
 -1       786 1.47281E-10-1.25794E-10-4.65654E-10-2.25069E-10-2.73189E+02-7.55831E+02
 -1       787-2.42309E-10-2.54943E-10 3.84020E-10 9.26121E-11-2.64561E+02 7.38060E+02
 -1       788 3.35731E-11 1.31054E-09-1.68076E-09-4.18609E-10-7.57798E+02-4.00253E+02
 -1       789 4.08580E-11 5.28155E-10-1.15909E-09 1.42258E-10-5.79901E+01-6.61361E+00
 -1       790 1.09161E-10-1.05352E-09 6.14160E-10 1.67991E-10-2.33892E+02 2.89162E+02
 -1       791 1.13721E-09-3.83369E-10-1.30172E-09-9.78808E-11-1.53574E+02 2.70742E+03
 -1       792 1.51999E-09-5.25802E-13 4.55252E-10 3.45594E-10-1.38188E-03 2.71850E+03
 -1       793 1.60270E-10 4.59238E-10-4.62020E-09-3.31283E-10-7.39568E+02 6.19604E+02
 -1       794-2.45481E-10-6.45836E-11 2.22638E-09-4.16425E-11 3.44480E+02 2.19676E+02
 -1       795-4.36501E-10 4.79472E-10 1.22950E-09-1.13716E-10 4.51600E+02 2.11076E+02
 -1       796 3.52944E-11 1.10027E-10-9.38343E-11 1.47178E-10 5.30336E+01 5.52390E+01
 -1       797 3.12674E-11-1.91974E-10 1.26623E-09-1.20295E-10 5.81051E+01-5.54178E+01
 -1       798-8.92193E-11 3.00631E-10 2.90292E-10 1.44098E-11 4.41190E+02-1.98536E+02
 -1       799-3.07272E-10 8.32659E-10-2.39344E-10 3.78482E-11 3.39971E+02-2.15074E+02
 -1       800 1.21361E-11-6.01744E-10 9.84812E-11-1.49385E-10-7.00932E+02-6.08470E+02
 -1       801-1.03149E-11 6.01673E-10-5.63913E-10 1.31216E-10 2.76112E+03 1.39102E+02
 -1       802-1.12224E-10 3.58728E-10-1.36679E-10-1.17962E-10 1.03404E+03 1.53379E+01
 -1       803-1.37458E-10 2.39458E-10 1.79153E-10 1.38704E-11 4.86820E+02 2.22107E+01
 -1       804-1.64269E-11-2.35119E-11 5.04787E-11-1.86748E-11-4.50734E+01 9.60751E+01
 -1       805-3.72220E-11 2.22151E-11 6.45652E-11 3.15747E-13-4.12392E+01-9.54277E+01
 -1       806 1.54806E-11-2.11145E-10 3.20679E-10 5.68517E-11 4.86812E+02-2.39973E+01
 -1       807-1.54563E-10 3.55413E-10 2.69770E-10-1.08868E-10 1.01806E+03-1.56837E+01
 -1       808-2.64569E-10 9.04436E-10-9.39169E-10-9.17559E-11 2.70438E+03-1.37246E+02
 -1       809 1.89669E-12 4.59750E-10 5.37383E-10-1.63070E-10 2.79216E+03 6.09424E-04
 -1       810 6.86950E-14 2.00345E-10-7.96332E-11-2.70539E-12 1.44511E+03-2.25849E-03
 -1       811 5.18474E-14 1.23119E-10-1.44588E-10 2.60290E-11 4.02466E+02-1.42967E-03
 -1       812-2.74225E-14 2.08793E-11-1.04308E-11 3.52207E-12 3.80435E+02-9.83526E-05
 -1       813-6.12399E-13-3.33884E-11 1.30979E-10 1.39293E-11 3.77689E+02 4.68066E-05
 -1       814-5.77316E-13-2.58922E-11 1.05882E-10-2.00728E-11 3.93754E+02 1.39401E-03
 -1       815-7.26530E-13 1.75305E-10 2.09342E-10-5.97531E-11 1.42029E+03 2.20565E-03
 -1       816 1.18305E-12 5.90944E-10-1.08257E-09 8.31761E-11 2.72972E+03-6.33011E-04
 -1       817-2.80364E-03 1.15404E+04 3.57614E-03-7.34326E+01-3.92816E+03 3.58448E-03
 -1       818-2.26021E-03 9.14053E+03 3.47974E-03-1.76960E+02-2.54837E+03-1.83494E-03
 -1       819-1.70787E-03 7.06376E+03 2.72671E-03-2.40524E+02-2.18914E+03 7.36231E-04
 -1       820-1.72228E-03 5.53466E+03 3.01690E-03-1.33496E+02-9.43176E+02-3.04672E-03
 -1       821-9.81824E-04 4.31413E+03 3.39552E-03-2.81819E+01-8.70688E+02 1.81203E-03
 -1       822-4.47109E-04 3.54800E+03 2.61639E-03-5.57185E+01-6.48241E+02-1.14292E-03
 -1       823-1.78044E-03 2.80553E+03 2.43299E-03-1.00102E+02-5.78969E+02 1.19926E-03
 -1       824-2.72704E-03 2.52661E+03 2.63579E-03-1.27078E+01 8.00333E+01-3.64380E-04
 -1       825-1.81857E-03 2.73632E+03 2.36257E-03 8.62829E+01-6.87603E+02-1.82511E-03
 -1       826-1.17437E-03 3.55161E+03 2.31966E-03 8.88630E+01-6.85942E+02 3.25452E-03
 -1       827-1.75813E-03 4.49668E+03 3.20057E-03 8.36054E+01-1.18574E+03-2.54157E-03
 -1       828-1.35576E-03 5.89076E+03 2.65471E-03 1.20070E+02-1.35103E+03 1.59349E-03
 -1       829-6.15025E-04 7.50438E+03 2.53861E-03 2.21222E+02-2.34404E+03-5.54877E-04
 -1       830-2.03848E-03 9.64993E+03 3.29268E-03 1.78477E+02-2.75563E+03 2.33057E-03
 -1       831-3.32313E-03 1.19544E+04 3.14166E-03 4.12537E+01-4.10179E+03-3.05862E-03
 -1       832 2.71520E+01 8.91604E+03-9.26293E+02-2.26945E+03 2.50223E+02 7.33386E+02
 -1       833 2.46006E+02 5.66260E+03-9.54653E+02-1.52994E+03 2.46415E+02-2.34047E+02
 -1       834 1.63920E+02 3.77067E+03-6.76108E+02-7.57143E+02-1.21400E+01-1.59408E+02
 -1       835 1.59793E+02 2.58010E+03-7.38158E+02-6.05132E+02 2.70451E+01 2.21129E+01
 -1       836 2.64729E+02 2.41621E+03-6.86594E+02 5.37768E+02 4.63420E+01-2.44229E+01
 -1       837 9.16670E+01 3.75548E+03-5.67279E+02 9.83435E+02 5.73008E+01 1.60327E+02
 -1       838 3.07113E+02 5.87274E+03-8.67701E+02 1.61281E+03 2.56190E+02 2.87722E+02
 -1       839-1.11336E+02 9.20849E+03-9.12128E+02 2.17864E+03 9.29239E+01-8.52673E+02
 -1       840 6.02664E+02 1.11268E+03-1.85259E+03-4.21603E+03-3.78794E+03 4.50492E+00
 -1       841 7.62537E+02 1.15398E+03-1.88095E+03-3.43804E+03-2.50146E+03-5.83693E+01
 -1       842 8.55408E+02 1.01843E+03-1.90931E+03-2.57060E+03-1.29704E+03 1.70969E+02
 -1       843 7.81547E+02 1.51291E+03-1.63076E+03-1.89217E+03-1.20427E+03-7.20160E+01
 -1       844 4.84989E+02 1.84652E+03-1.35222E+03-1.30686E+03-3.65387E+02-9.55954E+01
 -1       845 1.27905E+02 2.14027E+03-1.41427E+03-1.19189E+03-4.64706E+02 1.34485E+02
 -1       846 4.07901E+02 2.36514E+03-1.47632E+03-1.09605E+03-2.64824E+02-4.35784E+01
 -1       847 1.14905E+03 1.98107E+03-1.42476E+03-1.17555E+02-7.86938E+02 7.70005E+01
 -1       848 7.16631E+02 1.77219E+03-1.37319E+03 1.09407E+03-6.55124E+01-3.31993E+01
 -1       849 4.45872E+02 1.49478E+03-1.25388E+03 1.36953E+03-7.66927E+02-2.57235E+01
 -1       850 3.76779E+02 1.27155E+03-1.13456E+03 1.58697E+03-9.83748E+02 1.73851E+02
 -1       851 5.97790E+02 8.94217E+02-1.43498E+03 2.17493E+03-1.28174E+03-1.68379E+02
 -1       852 9.52462E+02 7.30550E+02-1.73541E+03 2.80096E+03-1.71471E+03-6.29430E+01
 -1       853 6.70455E+02 1.00666E+03-1.77984E+03 3.47308E+03-2.61891E+03 2.11998E+02
 -1       854 2.92527E+02 1.14339E+03-1.82426E+03 4.07524E+03-3.95655E+03-2.61817E+02
 -1       855 1.43001E+03-7.27950E+03 8.41400E+02-2.25813E+03-5.26470E+02 3.34694E+02
 -1       856 1.82946E+03-3.23318E+03 2.08372E+02-9.18201E+02-1.77430E+02 1.38553E+02
 -1       857 5.57423E+02 3.56721E+02-6.80420E+02-2.91427E+02-7.99352E+01-8.52736E+01
 -1       858-9.34399E+00 1.66917E+03-6.65376E+02-5.45749E+02 2.59379E+02 3.27695E+01
 -1       859 1.56171E+02 1.02790E+03-6.47137E+02 3.85364E+02-4.73108E+01 1.33178E+02
 -1       860 9.36421E+02-1.50550E+03-4.57454E+01 3.01487E+02 3.38218E+02-1.61907E+02
 -1       861 1.31444E+03-3.64109E+03 4.11425E+02 1.74384E+03 7.15422E+01-2.57435E+02
 -1       862 1.38825E+03-7.49958E+03 9.31447E+02 2.36462E+03-2.41988E+02 1.72125E+02
 -1       863-2.39959E+02-3.85817E+02-1.68843E+02 6.78756E+03 1.59032E+03 1.21194E+03
 -1       864-6.49178E+02-3.21234E+03 1.68327E+03 5.33620E+03-1.07555E+03 1.83130E+03
 -1       865 1.13545E+03-8.01046E+03 3.53539E+03 2.27435E+03-4.71589E+02 7.07971E+02
 -1       866 2.75185E+03-7.72295E+03 2.93072E+03 5.54282E+02-6.05003E+02-1.68462E+02
 -1       867 2.81564E+03-6.32288E+03 2.32605E+03 3.67319E+02-4.49542E+02 2.55442E+02
 -1       868 1.28166E+03-1.68193E+03 1.15872E+03 1.37460E+03 1.19780E+02-2.65682E+02
 -1       869 2.97073E+02 2.47618E+02-8.61831E+00 7.28185E+02-4.74079E+02-5.80363E+02
 -1       870-2.01627E+02 6.75400E+02 6.84739E+01 2.28106E+02-3.87231E+02 2.36149E+02
 -1       871-3.38331E+02 9.52252E+02 1.45567E+02-1.19776E+02-8.05441E+02-3.87362E+02
 -1       872 5.99579E+01 9.31418E+02 7.89188E+01-8.96385E+02-4.72809E+02 3.40407E+02
 -1       873 3.80652E+02-6.31511E+02 5.60995E+02-1.05984E+03-2.36477E+02 7.15215E+01
 -1       874 1.79056E+03-3.71402E+03 1.04307E+03-7.07740E+02-6.46056E+01 1.22982E+02
 -1       875 1.87524E+03-5.00202E+03 1.80066E+03-5.94118E+01-5.35723E+02 2.89269E+02
 -1       876 1.47955E+03-6.00365E+03 2.55826E+03 3.71556E+02-8.39596E+02-1.25360E+02
 -1       877 1.90723E+03-7.47348E+03 3.12271E+03-3.61779E+02-6.33711E+02-9.56505E+01
 -1       878 1.31076E+03-8.64097E+03 3.68715E+03-2.03293E+03-4.49937E+02-2.58116E+02
 -1       879-5.11758E+02-3.59324E+03 1.76840E+03-5.48453E+03-9.78848E+02-1.87220E+03
 -1       880-4.14418E+02-2.81869E+02-1.50335E+02-6.98777E+03 1.15015E+03-1.60797E+03
 -1       881-3.36842E+03-5.02430E+02 1.67365E+03 5.23109E+03 1.82239E+03-9.35433E+02
 -1       882-9.48469E+02-6.07029E+03 2.76553E+03 9.48805E+02 5.85526E+02 2.19749E+02
 -1       883 2.18165E+02-9.13945E+03 2.05938E+03-2.54185E+03 8.69839E+02-3.96357E+02
 -1       884 1.62656E+03-4.31484E+03 7.97193E+02-1.61263E+03-1.11673E+03 7.85368E+02
 -1       885 2.10297E+03-8.22138E+03 1.86028E+03-1.87267E+02 6.70606E+01 5.61905E+01
 -1       886-9.55465E+02-6.25731E+03 2.86319E+03-9.80467E+02 4.37619E+01-5.53871E+02
 -1       887-3.21609E+03-7.82213E+02 1.74225E+03-5.42223E+03 1.92421E+03 1.07583E+03
 -1       888 1.14666E+04-3.16107E-03 2.94401E-03-4.73823E+01 3.03795E-03-3.95834E+03
 -1       889 8.81967E+03-1.01510E+02-8.76195E+02-2.13800E+03 8.08730E+02 7.44371E+01
 -1       890 1.10194E+03 2.88109E+02-1.75239E+03-3.97821E+03 2.48706E+02-3.80279E+03
 -1       891-7.12869E+03 1.29667E+03 8.81881E+02-2.33931E+03-1.55172E+02-2.50187E+02
 -1       892-8.18258E+03 1.19574E+03 3.51615E+03 1.84319E+03 2.35472E+02-4.48933E+02
 -1       893-5.91233E+03-9.95520E+02 2.75591E+03 7.90126E+02 5.36023E+02 6.20907E+01
 -1       894-2.42922E+03-2.51286E+03 1.99568E+03-1.09425E+03-5.69148E+01-3.02105E+02
 -1       895-1.12811E+03-3.82426E+03 1.89420E+03-2.71599E+03 2.66670E+03 1.05322E+03
 -1       896-2.09284E+03-3.15244E+03 1.79271E+03-3.68529E+03 1.47572E+03 1.43079E+03
 -1       897 1.86527E+03-2.56723E+03 5.51318E+02-3.61245E+03 6.21853E+02 1.27530E+03
 -1       898 3.69831E+03-5.34781E+03 8.56812E+02-3.35158E+03 1.63593E+03 7.17634E+02
 -1       899 3.20710E+03-7.15195E+03 1.16230E+03 7.45515E+02 1.42796E+03-8.14730E+02
 -1       900 1.16503E+03-5.32583E+03 1.60077E+03 1.86521E+03 2.46732E+03-2.26377E+02
 -1       901-2.50784E+03-2.57519E+03 2.03923E+03 9.53880E+02-2.90425E+02 1.16478E+01
 -1       902-6.01350E+03-1.14625E+03 2.83703E+03-1.03628E+03 2.06541E+02-5.66157E+02
 -1       903-8.02974E+03 8.96274E+02 3.63484E+03-2.29592E+03 6.37659E+02 4.80859E+02
 -1       904-7.39399E+03 1.25702E+03 8.67879E+02 2.43836E+03 2.92936E+02 5.36342E+02
 -1       905 1.09638E+03 4.96920E+02-1.89909E+03 4.55113E+03 9.66029E+00 3.97022E+03
 -1       906 9.07199E+03 2.86590E+01-9.49541E+02 2.47511E+03 6.17893E+02-2.08337E+02
 -1       907 1.18000E+04-2.15246E-03 2.90432E-03 1.13628E+02 2.95605E-03 4.04715E+03
 -1       908 9.19939E+03-1.95192E-03 3.13692E-03-1.76453E+02-2.35672E-03-2.64072E+03
 -1       909 9.58879E+02 6.43824E+02-1.69564E+03-3.41920E+03-2.01086E+02-2.49026E+03
 -1       910-7.09712E+03 1.78930E+03 2.96880E+03 2.31589E+02 7.55078E+01-5.79577E+02
 -1       911-5.08926E+03 1.12244E+03 1.53592E+03-1.89376E+03 2.79331E+02 2.33886E+03
 -1       912 2.51021E+03 5.24421E+03-1.29825E+03 2.59451E+03 5.58987E+02 1.04821E+03
 -1       913 3.02582E+03 3.95027E+03-1.62209E+03-1.81328E+03 6.62366E+02-8.22319E+01
 -1       914-3.86016E+03-1.19706E+03 1.93742E+03 2.46847E+03 1.12474E+03-2.58124E+03
 -1       915-7.54262E+03 2.45139E+03 2.97284E+03-5.55572E+02-1.46534E+02 5.84968E+02
 -1       916 1.14372E+03 6.02104E+02-1.78307E+03 3.90687E+03-6.81841E+01 2.46440E+03
 -1       917 9.12157E+03-1.79492E-03 3.29867E-03 1.96050E+02-1.43202E-03 2.57520E+03
 -1       918 7.07456E+03-6.24417E-04 2.38437E-03-2.16597E+02 7.09808E-04-2.22317E+03
 -1       919 5.53514E+03 2.94187E+02-8.19441E+02-1.60164E+03-2.77763E+02 2.34509E+02
 -1       920 6.73730E+02 9.16001E+02-1.63889E+03-2.78677E+03 5.53999E+01-1.61716E+03
 -1       921-3.45921E+03 1.26263E+03 3.91279E+02-1.78804E+03 2.55331E+02 6.24306E+01
 -1       922-5.68454E+03 1.42294E+03 2.42144E+03-4.93404E+02 1.55917E+02-8.18592E+02
 -1       923-7.77072E+03 1.99689E+03 1.74881E+03 7.34909E+01-6.87215E+01 9.24799E+01
 -1       924-6.76674E+03 3.03516E+03 1.07617E+03-7.48933E+02 8.39808E+02 1.32907E+03
 -1       925 3.65558E+03 3.25604E+03-1.65652E+03 1.92772E+03 5.14604E+01 5.76309E+02
 -1       926 6.21097E+03 4.96263E+03-2.70546E+03 5.77780E+03 4.02487E+03 4.81399E+03
 -1       927 1.82633E+03 6.11665E+02-1.25239E+03 1.26976E+03 2.54654E+02 5.41912E+02
 -1       928-5.27125E+01-4.41277E+02 5.77063E+02-3.89502E+02-7.08239E+01 6.76066E+02
 -1       929 9.04210E+01-3.13384E+02 8.03169E+01-1.25428E+02 1.21821E+02 3.85530E+02
 -1       930 1.35336E+02 4.60494E+01-1.00296E+02 2.96158E+01 9.21194E+01 1.37041E+02
 -1       931 2.79384E+02 4.91943E+01-1.46366E+02-4.83137E-01 1.01281E+02-3.43839E+01
 -1       932 1.61017E+02 1.14903E+02-1.24932E+02 6.14003E+00 6.98098E+01-2.18475E+02
 -1       933 1.11133E+02-3.79139E+02 1.06157E+02 8.15165E+01 1.34972E+02-4.26208E+02
 -1       934-1.09805E+01-5.80621E+02 5.74910E+02 3.86439E+02-8.48064E+01-7.49532E+02
 -1       935 1.30099E+03 8.60892E+02-1.13477E+03-1.32628E+03 3.29847E+02-8.41769E+02
 -1       936 4.64349E+03 6.62886E+03-2.71167E+03-5.84813E+03 4.99166E+03-3.98946E+03
 -1       937 4.77732E+03 2.79449E+03-1.28545E+03-2.88304E+03 1.16195E+03-5.12692E+02
 -1       938-3.20825E+03-2.20858E+03 1.83560E+03 3.26178E+03 1.46885E+03-1.29146E+03
 -1       939-8.80761E+03-3.72226E+01 2.07321E+03 2.27394E+03-4.44115E+02-8.12290E+02
 -1       940-5.84282E+03 2.45180E+03 2.31083E+03-3.41772E+02 1.60186E+02 4.51118E+02
 -1       941-2.91248E+03 1.40986E+03 3.21887E+02 1.23386E+03 2.36092E+02 2.37935E+02
 -1       942 1.00247E+03 6.17360E+02-1.66706E+03 3.22181E+03 5.88711E+01 1.24132E+03
 -1       943 5.37378E+03 1.63790E+02-8.33526E+02 1.92118E+03-3.08628E+02-2.75509E+02
 -1       944 6.69233E+03-1.29562E-03 3.07225E-03 2.52178E+02 1.50012E-03 1.93842E+03
 -1       945 5.47858E+03-1.34029E-03 2.47049E-03-1.21226E+02-1.76136E-03-1.25070E+03
 -1       946 7.95539E+02 5.87040E+02-1.33540E+03-2.17796E+03 1.67924E+02-1.20099E+03
 -1       947-4.72152E+03 1.81527E+03 1.68159E+03-7.31701E+01-2.64901E+02-4.97351E+02
 -1       948-5.04667E+03 3.55068E+03 7.83105E+02 3.11724E+03-6.51445E+02 1.52432E+03
 -1       949 8.11253E+02 1.36539E+03-1.14482E+03 1.30092E+03 7.70862E+02 3.18351E+02
 -1       950-1.60831E+02 9.20338E+01 3.11590E+02 1.51271E+01-1.03464E+02-6.92797E+01
 -1       951 2.44200E+02 1.77983E+01-1.35842E+02 4.03820E+01 4.69916E+01 7.12087E+01
 -1       952 2.30950E+02 3.24035E+01-1.37657E+02-4.56726E+01 5.40314E+01-8.40839E+01
 -1       953-6.95380E+01 1.27123E+02 3.06670E+02 4.45987E+01-1.49784E+02 5.45374E-02
 -1       954 5.80706E+02 1.93770E+03-1.27868E+03-1.28493E+03 5.13114E+02-2.46815E+02
 -1       955-1.00796E+03 9.54236E+02 8.22127E+02-1.49380E+03-6.66703E+01 5.55152E+01
 -1       956 1.69305E+03 5.20056E+02-1.54655E+03 2.82868E+03 8.89768E+01 9.70207E+02
 -1       957 4.57063E+03-1.17892E-03 2.86110E-03 1.91222E+02-4.63507E-03 8.74020E+02
 -1       958 4.09599E+03-1.63826E-03 2.90757E-03-8.72100E+01 2.38789E-03-1.08814E+03
 -1       959 3.41285E+03 9.27738E+01-5.15959E+02-9.86648E+02-1.70285E+02 5.76137E+01
 -1       960 1.11990E+03 3.63539E+02-1.03192E+03-1.60372E+03-1.59672E+02-9.09595E+02
 -1       961-1.44500E+03 9.24681E+02-4.50971E+01-3.97867E+02 1.49073E+02 3.08986E+02
 -1       962-3.48595E+03 1.75606E+03 9.41728E+02 5.47621E+02-1.11886E+02-3.76044E+01
 -1       963-4.02049E+03 1.58057E+03 7.15880E+02 1.45004E+03-7.56757E+02-1.02076E+03
 -1       964-2.38329E+03 1.79455E+03 4.90034E+02 3.39534E+03-1.22366E+03 6.01100E+02
 -1       965-5.52912E+02-1.95007E+01 5.76295E+02-3.83108E+02 7.02305E+02-7.95073E+01
 -1       966 1.22319E+02-8.65858E+01 3.08349E+02-3.91301E+01-2.27595E+01-1.36866E+02
 -1       967 3.84742E+02 3.06595E+02-3.88402E+02 3.68599E+02 2.58180E+02 3.03790E+02
 -1       968 4.97213E+01 1.21612E+02-1.62190E+02 9.72098E+01 1.22622E+02 3.81549E+01
 -1       969 1.68065E+02 2.43673E+01-4.67635E+01 1.84082E+01 8.29236E+01-2.76966E+00
 -1       970 2.07553E+02 1.39822E+00-3.06070E+01-1.20562E+01 7.74302E+01-4.69839E+00
 -1       971 1.74885E+02 7.47067E+00-4.67219E+01-3.90638E+01 8.16431E+01-1.00220E+01
 -1       972 6.64940E+01 1.47383E+02-1.70065E+02-8.27003E+01 1.38531E+02-2.18469E+01
 -1       973 2.99056E+02 3.99441E+02-3.90941E+02-3.82876E+02 3.01167E+02-2.66982E+02
 -1       974 8.95085E+01-1.85249E+02 3.20022E+02-3.19727E+01-9.30979E+01 9.51972E+01
 -1       975-4.29506E+02-6.61958E+01 5.84296E+02 3.95674E+02 6.83999E+02 7.16835E+01
 -1       976 1.13937E+03 3.87254E+02-6.66575E+02-1.18262E+03-8.08801E+02 1.15176E+03
 -1       977 1.52670E+03 4.17450E+02-1.04631E+03 7.54135E+02-1.71882E+02 9.55414E+01
 -1       978 2.28532E+03 7.34806E+02-1.42604E+03 2.52549E+03 5.25668E+01-5.90201E+01
 -1       979 2.57848E+03 2.67024E+02-7.13020E+02 1.38025E+03-5.43543E+01 1.12058E+01
 -1       980 2.68601E+03-2.12278E-03 2.14325E-03 1.32110E+02 2.89490E-03 5.03572E+02
 -1       981 3.12551E+03-1.04262E-03 2.05144E-03-8.45873E+01-2.92335E-03-5.85895E+02
 -1       982 1.32816E+03 4.02924E+02-1.10889E+03-1.38780E+03 9.78758E+00-6.81655E+02
 -1       983-6.05104E+02 4.25374E+02 4.75122E+02 9.35320E+02-6.33719E+01-2.25966E+02
 -1       984-3.60662E+02 1.02288E+02 1.01371E+02-9.16193E+01 3.92905E+02 1.32666E+02
 -1       985 1.44355E+02 5.99877E+01-1.64243E+02 7.95249E+01 1.39127E+01 1.44781E+02
 -1       986 1.49870E+02 8.52054E+01-8.17584E+01 2.98484E+01 6.57613E+00 3.22965E+01
 -1       987 1.48923E+02 9.10192E+01-8.34062E+01-3.93764E+01 4.34030E+00-3.78248E+01
 -1       988 1.17537E+02 3.91483E+01-1.56788E+02-1.12879E+02 3.25075E+01-1.28803E+02
 -1       989-2.96727E+02 7.64435E+01 7.19779E+01 1.33447E+02 4.14273E+02-1.17132E+02
 -1       990 1.25093E+03 1.20020E+03-1.11696E+03 1.59188E+03 4.05042E+02 5.85175E+02
 -1       991 1.66708E+03-2.96969E-03 2.06637E-03 7.65443E+01-1.81187E-03-1.05953E+02
 -1       992 2.27893E+03-1.63102E-03 1.82505E-03-7.75996E+01 1.69132E-03-5.43415E+02
 -1       993 2.05499E+03 2.19749E+02-5.92927E+02-5.80021E+02 8.62815E+00 2.53372E+01
 -1       994 1.57622E+03 6.14008E+02-1.18586E+03-1.15475E+03 3.92215E+01-1.52731E+01
 -1       995 9.78654E+02 1.58141E+02-5.88672E+02-4.00691E+02-1.39103E+02-5.05377E+01
 -1       996 8.90734E+02 1.02831E+02 8.51546E+00 8.26658E+02-3.37662E+02-4.20062E+02
 -1       997 1.10988E+02 1.41180E+02-1.28882E+02-6.09063E+00 1.76003E+02 7.20008E+01
 -1       998 3.28060E+01 2.22398E+02-1.41941E+02 4.19854E+01 5.94846E+01 5.71007E+01
 -1       999 1.03711E+01 1.60848E+02-3.67906E+01 3.47568E+01-9.25322E+00 8.83235E+01
 -1      1000 9.17345E+01 1.42539E+02-7.92111E+01 3.22644E+01 1.80149E+01 1.63001E+01
 -1      1001 1.24783E+02 1.19325E+02-9.94204E+01 9.51139E-01 1.47182E+01 3.07699E+01
 -1      1002 1.31157E+02 1.17282E+02-1.00096E+02-4.13861E+00 1.72543E+01 3.34771E-01
 -1      1003 1.21023E+02 1.22654E+02-9.91057E+01-9.73834E+00 1.53843E+01-3.22965E+01
 -1      1004 8.65600E+01 1.44294E+02-7.78816E+01-4.27631E+01 1.48440E+01-1.78585E+01
 -1      1005 1.97707E+01 1.55590E+02-3.61256E+01-3.45866E+01-1.78809E+01-8.71851E+01
 -1      1006 1.93306E+01 2.33112E+02-1.40715E+02-4.95736E+01 6.16029E+01-5.26464E+01
 -1      1007 6.02385E+01 1.15784E+02-1.06971E+02-4.01035E+01 1.61369E+02-9.06246E+01
 -1      1008 4.98189E+02 1.07406E+03-8.07885E+02 3.56280E+02 1.06131E+02 3.36715E+01
 -1      1009 8.06815E+02 3.36700E+02-4.03941E+02 1.89347E+02-1.08964E+02-8.68154E+01
 -1      1010 1.11544E+03-2.16870E-03 2.26881E-03 1.56937E+01-3.51373E-04 6.87256E+02
 -1      1011 1.99231E+03-2.35453E-03 2.07627E-03-5.46780E+00-1.14349E-04 6.33485E+01
 -1      1012 1.53284E+03 9.78969E+02-1.12231E+03-1.73085E+02 2.97365E+01-6.35495E+02
 -1      1013 4.65236E+01 2.44780E+02-1.25153E+02 1.46722E+01 1.94898E+01 9.34180E+01
 -1      1014 3.17309E+00 1.86998E+02-3.35271E+01 7.85501E+00-1.22815E+01 8.42726E+01
 -1      1015 1.16986E+02 1.25280E+02-9.58112E+01-7.90135E-02-1.48899E+01 3.35490E+01
 -1      1016 1.14530E+02 1.25359E+02-9.53955E+01-8.18282E+00-1.39543E+01-3.49474E+01
 -1      1017 8.03564E+00 1.93545E+02-3.37000E+01-9.84191E+00-1.52950E+01-8.49071E+01
 -1      1018 2.88985E+01 2.60495E+02-1.20962E+02-2.06086E+01 2.82997E+01-9.37055E+01
 -1      1019 8.11840E+02 7.80656E+02-7.93796E+02-5.54163E+02-2.58337E+02 4.17247E+02
 -1      1020 1.17423E+03-1.93630E-03 1.46852E-03-3.89120E+01 1.38730E-03 1.17107E+01
 -1      1021 2.10460E+03-1.53754E-03 1.84207E-03 6.10939E+01-1.52753E-03-5.25377E+02
 -1      1022 1.86906E+03 1.89669E+02-5.29385E+02 3.94057E+02-5.99792E+01 2.91331E+01
 -1      1023 1.39724E+03 5.12947E+02-1.05877E+03 7.97676E+02-1.18815E+01-6.71824E+01
 -1      1024 8.15289E+02 5.65373E+01-4.87490E+02 2.66863E+02 7.43363E+01-2.29288E+01
 -1      1025 7.05922E+02-2.15477E+01 8.37944E+01-6.45100E+02 2.07653E+02-3.59391E+02
 -1      1026 4.19770E+01 1.43677E+02-6.80262E+01-3.73641E+00-1.57421E+02 7.22188E+01
 -1      1027 1.80526E+01 2.05923E+02-1.01540E+02-3.18013E+01-8.02824E+01 4.43751E+01
 -1      1028 2.38203E+01 1.57008E+02-5.78385E+01-1.87089E+01-2.46547E+01 8.98021E+01
 -1      1029 8.25295E+01 1.36138E+02-8.06286E+01-2.37725E+01-5.07060E+01 1.72597E+01
 -1      1030 1.16836E+02 1.16271E+02-9.19077E+01-3.35800E+00-4.75662E+01 3.12458E+01
 -1      1031 1.21714E+02 1.11774E+02-9.11322E+01-3.90004E+00-5.04251E+01-6.16501E-01
 -1      1032 1.16701E+02 1.16354E+02-9.13204E+01-4.02255E+00-4.83561E+01-3.29991E+01
 -1      1033 8.20590E+01 1.37165E+02-8.12707E+01 1.78359E+01-5.15690E+01-1.65531E+01
 -1      1034 1.93535E+01 1.59909E+02-6.02516E+01 1.12404E+01-2.59546E+01-8.89326E+01
 -1      1035 1.62976E+01 2.02744E+02-9.77522E+01 2.61305E+01-8.19585E+01-4.48920E+01
 -1      1036 4.58565E+01 1.48111E+02-6.93801E+01 9.53041E+00-1.39854E+02-6.88554E+01
 -1      1037 7.82357E+02-4.26165E+01-5.70311E+01 5.97756E+02 1.89505E+02 3.30382E+02
 -1      1038 9.44054E+02-3.66792E+01-4.18370E+02-3.09297E+02 5.00333E+01 3.16069E+01
 -1      1039 1.32852E+03 2.57737E+02-7.79708E+02-1.11301E+03-2.44056E+01-2.06045E+00
 -1      1040 1.49367E+03 8.76476E+01-3.89853E+02-6.04112E+02-5.16199E+01-2.72738E+00
 -1      1041 1.54743E+03-1.39918E-03 1.48210E-03-5.69897E+01-1.50351E-03 2.54206E+02
 -1      1042 2.69030E+03-7.14699E-04 1.75894E-03 6.21432E+01 2.42298E-03-5.37971E+02
 -1      1043 1.18124E+03 2.70516E+02-9.50784E+02 9.53599E+02-2.08357E+01-5.61395E+02
 -1      1044-3.99589E+02 1.68863E+02 4.40673E+02-7.79464E+02 6.99878E+01-1.97576E+02
 -1      1045-2.77562E+02 1.00933E+02 4.49699E+01 6.86381E+01-3.30212E+02 1.07841E+02
 -1      1046 1.12826E+02 6.44930E+01-1.31747E+02-6.60861E+01-3.27554E+01 1.26075E+02
 -1      1047 1.33090E+02 8.09760E+01-7.68701E+01-2.76742E+01-2.81055E+01 3.15312E+01
 -1      1048 1.32556E+02 8.13281E+01-7.70616E+01 2.05562E+01-2.82024E+01-3.36118E+01
 -1      1049 1.07579E+02 6.45690E+01-1.29428E+02 5.84662E+01-3.28804E+01-1.24303E+02
 -1      1050-2.64107E+02 9.83606E+01 3.95429E+01-6.73579E+01-3.09547E+02-1.04453E+02
 -1      1051-3.20462E+02 1.01090E+02 3.51343E+02 6.70528E+02 9.73780E+01 2.33504E+02
 -1      1052 1.11376E+03 1.03989E+02-7.80724E+02-1.09441E+03 7.89208E+00 4.64925E+02
 -1      1053 2.30040E+03-2.47589E-04 1.44433E-03-6.08356E+01 1.95179E-03 4.47870E+02
 -1      1054 3.35000E+03-1.14992E-03 2.36311E-03 5.80536E+01-1.73599E-03-8.47988E+02
 -1      1055 2.80264E+03 5.03113E+01-4.21396E+02 6.69115E+02 1.14276E+02 4.32144E+01
 -1      1056 1.00300E+03 2.19017E+02-8.42796E+02 1.06877E+03 1.23025E+02-7.30325E+02
 -1      1057-9.94597E+02 5.76771E+02-2.26227E+01 1.47532E+02-1.19356E+02 2.52818E+02
 -1      1058-2.58703E+03 1.14619E+03 7.97550E+02-5.93808E+02 7.96600E+01-7.61809E+01
 -1      1059-3.06733E+03 1.10207E+03 5.71322E+02-1.21635E+03 5.30095E+02-8.30064E+02
 -1      1060-1.85337E+03 1.29376E+03 3.45097E+02-2.55043E+03 9.28475E+02 3.94951E+02
 -1      1061-3.92209E+02 7.21821E+00 3.57317E+02 2.83085E+02-5.88756E+02-5.46973E+01
 -1      1062 8.93012E+01-5.61557E+01 2.01854E+02 1.21295E+01-6.75420E+00-8.98339E+01
 -1      1063 2.80686E+02 2.52252E+02-2.82881E+02-2.86483E+02-2.35670E+02 2.38918E+02
 -1      1064 5.34089E+01 1.01674E+02-1.24993E+02-7.66837E+01-1.27506E+02 2.92026E+01
 -1      1065 1.46531E+02 2.02153E+01-4.83292E+01-2.31511E+01-9.30304E+01 6.42818E+00
 -1      1066 1.76572E+02 1.03087E+01-3.67997E+01-3.41183E+00-9.08857E+01-4.28609E-01
 -1      1067 1.46465E+02 2.09524E+01-5.00646E+01 1.60888E+01-9.38454E+01-8.38993E+00
 -1      1068 5.48760E+01 1.00912E+02-1.23004E+02 6.77564E+01-1.27883E+02-2.89320E+01
 -1      1069 2.70871E+02 2.48480E+02-2.74029E+02 2.72842E+02-2.33357E+02-2.33263E+02
 -1      1070 8.50933E+01-5.44965E+01 1.93685E+02-1.22457E+01-6.96782E+00 8.46534E+01
 -1      1071-3.78491E+02 7.22747E+00 3.45864E+02-2.76837E+02-5.64208E+02 4.94880E+01
 -1      1072-1.72143E+03 1.21278E+03 3.13855E+02 2.45644E+03 8.69893E+02-3.63044E+02
 -1      1073-2.85442E+03 1.01266E+03 5.36785E+02 1.14546E+03 4.94933E+02 7.86065E+02
 -1      1074-2.37663E+03 1.02041E+03 7.59717E+02 4.88524E+02 5.63885E+01 4.34326E+01
 -1      1075-9.06658E+02 4.89883E+02-1.10114E+01-2.59157E+02-1.00392E+02-2.22216E+02
 -1      1076 9.00461E+02 1.52679E+02-7.81741E+02-1.15719E+03 1.01420E+02 6.96191E+02
 -1      1077 2.56794E+03 4.17581E+01-3.90869E+02-7.17169E+02 1.59780E+02-5.78711E+01
 -1      1078 3.09288E+03-7.87150E-04 1.96192E-03-7.33442E+01-1.43628E-03 7.55721E+02
 -1      1079 4.29177E+03-8.58149E-04 1.92607E-03 7.99912E+01 8.51475E-04-9.91037E+02
 -1      1080 7.11314E+02 3.81388E+02-1.04112E+03 1.44524E+03-1.18172E+02-9.11002E+02
 -1      1081-3.49612E+03 1.20775E+03 1.28665E+03-1.36025E+02 1.94825E+02-3.73457E+02
 -1      1082-3.74181E+03 2.58998E+03 6.30393E+02-2.37608E+03 5.06036E+02 1.17397E+03
 -1      1083 5.67375E+02 1.10521E+03-7.92155E+02-9.74994E+02-6.03408E+02 2.54028E+02
 -1      1084-9.48041E+01 7.79008E+01 2.08251E+02-1.18598E+01 7.11898E+01-2.91760E+01
 -1      1085 1.98297E+02 1.55591E+01-1.05380E+02-3.46036E+01-4.85092E+01 6.56193E+01
 -1      1086 1.96156E+02 1.51000E+01-1.02547E+02 2.93774E+01-4.78236E+01-6.44393E+01
 -1      1087-8.56420E+01 7.74103E+01 1.99637E+02 6.49052E+00 6.92162E+01 2.31701E+01
 -1      1088 5.39319E+02 1.09006E+03-7.69855E+02 9.41500E+02-5.70238E+02-2.45818E+02
 -1      1089-3.54823E+03 2.42709E+03 6.06469E+02 2.27539E+03 4.84283E+02-1.10481E+03
 -1      1090-3.29972E+03 1.10315E+03 1.23477E+03 6.73777E+01 1.68268E+02 3.46456E+02
 -1      1091 6.50869E+02 3.52840E+02-9.79248E+02-1.50135E+03-1.25166E+02 8.59592E+02
 -1      1092 4.05868E+03-8.11833E-04 1.81160E-03-8.69461E+01 1.03224E-03 9.40948E+02
 -1      1093 5.36932E+03-3.90640E-04 1.84539E-03 1.50256E+02-2.06436E-04-1.65951E+03
 -1      1094 4.20660E+03 2.04926E+02-6.19722E+02 1.06933E+03 2.10305E+02 1.83678E+02
 -1      1095 5.72613E+02 6.39461E+02-1.23945E+03 1.85078E+03-3.11645E+01-1.22053E+03
 -1      1096-2.49796E+03 8.97352E+02 2.68153E+02 1.09711E+03-1.91415E+02 6.52683E+01
 -1      1097-4.19069E+03 1.01561E+03 1.77575E+03 1.59861E+02-1.27632E+02-5.32003E+02
 -1      1098-5.75133E+03 1.36004E+03 1.34572E+03-1.49283E+02 1.32485E+02-3.90948E+01
 -1      1099-4.92351E+03 1.91375E+03 9.15686E+02 5.86210E+02-3.60383E+02 9.15149E+02
 -1      1100 2.54433E+03 2.18216E+03-9.63718E+02-7.07604E+02-6.46170E+02 9.23473E+02
 -1      1101 4.32933E+03 3.58123E+03-1.69152E+03-3.78073E+03-3.36232E+03 3.61818E+03
 -1      1102 1.30201E+03 4.79443E+02-8.35066E+02-9.63045E+02-2.29473E+02 4.99474E+02
 -1      1103-1.19051E+01-3.49402E+02 3.63797E+02 2.87278E+02 5.01131E+01 5.62979E+02
 -1      1104 8.41916E+01-2.44355E+02 3.12641E+01 8.52183E+01-9.99236E+01 3.29387E+02
 -1      1105 1.23130E+02 4.31795E+01-7.22584E+01-2.12370E+01-7.34511E+01 1.43804E+02
 -1      1106 2.32247E+02 2.07623E+01-9.92000E+01-2.37326E+00-8.56471E+01 1.00406E+01
 -1      1107 1.25793E+02 4.06034E+01-7.09283E+01 1.81683E+01-7.22120E+01-1.26292E+02
 -1      1108 8.58168E+01-2.40531E+02 3.01943E+01-8.15175E+01-9.94066E+01-3.06890E+02
 -1      1109-8.31992E+00-3.42736E+02 3.50058E+02-2.78622E+02 4.66146E+01-5.40548E+02
 -1      1110 1.24108E+03 4.71591E+02-8.02620E+02 9.32146E+02-2.27357E+02-4.88983E+02
 -1      1111 4.11408E+03 3.53452E+03-1.63403E+03 3.67436E+03-3.27742E+03-3.47392E+03
 -1      1112 2.40501E+03 2.12393E+03-9.23355E+02 7.68378E+02-6.50687E+02-8.66633E+02
 -1      1113-4.69023E+03 1.74720E+03 8.99081E+02-5.31259E+02-3.61727E+02-8.65766E+02
 -1      1114-5.48085E+03 1.24190E+03 1.30446E+03 1.22084E+02 1.35648E+02 3.76072E+01
 -1      1115-4.00828E+03 9.40525E+02 1.70983E+03-2.12259E+02-1.19220E+02 5.13822E+02
 -1      1116-2.40032E+03 8.36615E+02 2.66538E+02-1.13382E+03-1.87340E+02-6.18393E+01
 -1      1117 5.44576E+02 6.06593E+02-1.17676E+03-1.87195E+03-1.88433E+01 1.17252E+03
 -1      1118 4.02920E+03 1.91578E+02-5.88376E+02-1.07844E+03 2.07944E+02-1.67471E+02
 -1      1119 5.14292E+03-3.69629E-04 1.77039E-03-1.47077E+02-3.49301E-04 1.60107E+03
 -1      1120 6.79256E+03-1.41003E-03 2.34438E-03 1.15431E+02 1.38280E-03-1.91636E+03
 -1      1121 7.45648E+02 4.60105E+02-1.26724E+03 2.33174E+03 1.35391E+02-1.83481E+03
 -1      1122-5.17209E+03 1.33100E+03 2.19983E+03-3.79441E+02-2.40603E+01-4.96132E+02
 -1      1123-3.50665E+03 7.03133E+02 1.06356E+03 1.30039E+03-5.01869E+02 1.79933E+03
 -1      1124 2.53377E+03 2.04882E+03-9.69360E+02-1.12932E+03-7.90182E+02 8.20380E+02
 -1      1125 2.39987E+03 2.01626E+03-9.25528E+02 1.09285E+03-7.62133E+02-7.83007E+02
 -1      1126-3.37195E+03 6.12931E+02 1.04572E+03-1.21569E+03-5.00225E+02-1.72599E+03
 -1      1127-4.98596E+03 1.25163E+03 2.13264E+03 3.31191E+02-1.88551E+01 4.70371E+02
 -1      1128 7.17775E+02 4.41724E+02-1.21934E+03-2.32603E+03 1.31712E+02 1.77385E+03
 -1      1129 6.57409E+03-1.35040E-03 2.25577E-03-1.14476E+02 1.39502E-03 1.86578E+03
 -1      1130 8.32975E+03-2.23984E-03 2.24991E-03 1.95786E+01-2.02043E-03-2.80972E+03
 -1      1131 6.44307E+03-7.23724E+01-6.47513E+02 1.46175E+03-5.88602E+02 7.50585E+01
 -1      1132 8.33542E+02 2.15987E+02-1.29503E+03 2.75139E+03-1.57990E+02-2.74391E+03
 -1      1133-5.22693E+03 9.37658E+02 6.64438E+02 1.55256E+03 8.53640E+01-1.40297E+02
 -1      1134-6.00440E+03 8.06524E+02 2.62390E+03-1.47772E+03-2.52892E+02-2.81108E+02
 -1      1135-4.34692E+03-5.66955E+02 1.91766E+03-8.17638E+02-3.21474E+02 2.33242E+01
 -1      1136-1.52198E+03-1.37050E+03 1.21143E+03 4.19374E+02-4.73624E+01-1.93155E+01
 -1      1137 3.49650E+02-3.13854E+03 1.05791E+03 1.17243E+03-1.65190E+03 7.05495E+02
 -1      1138 1.24787E+03-4.19556E+03 9.04402E+02 4.62708E+02-7.25359E+02 4.02745E+02
 -1      1139 2.12698E+03-3.12143E+03 5.17110E+02-2.00595E+03-9.27280E+02-4.35160E+02
 -1      1140 1.05785E+03-1.34793E+03 1.29815E+02-2.20493E+03-2.61562E+02-7.72524E+02
 -1      1141 1.02811E+03-1.33192E+03 1.37891E+02 2.17385E+03-2.53257E+02 7.54370E+02
 -1      1142 2.07262E+03-3.07134E+03 5.16314E+02 1.98959E+03-9.16310E+02 4.33734E+02
 -1      1143 1.23994E+03-4.13855E+03 8.94735E+02-4.31725E+02-7.22154E+02-3.90508E+02
 -1      1144 3.47037E+02-3.09617E+03 1.04354E+03-1.11674E+03-1.61355E+03-6.59954E+02
 -1      1145-1.48236E+03-1.37391E+03 1.19235E+03-3.75674E+02-4.08170E+01 1.13171E+01
 -1      1146-4.20091E+03-5.94346E+02 1.87390E+03 8.02651E+02-3.06460E+02-2.99027E+01
 -1      1147-5.80779E+03 7.43435E+02 2.55545E+03 1.41979E+03-2.40598E+02 2.81310E+02
 -1      1148-5.07257E+03 8.90252E+02 6.46760E+02-1.53684E+03 8.65477E+01 1.44367E+02
 -1      1149 8.01888E+02 2.09221E+02-1.26193E+03-2.71887E+03-1.55408E+02 2.67982E+03
 -1      1150 6.26078E+03-6.74846E+01-6.30963E+02-1.45152E+03-5.63782E+02-6.57044E+01
 -1      1151 8.10730E+03-2.14072E-03 2.11101E-03-2.37507E+01-1.98789E-03 2.74565E+03
 -1      1152-2.51850E+03-4.03232E+02 1.27263E+03-3.78722E+03-1.32086E+03-6.07377E+02
 -1      1153-7.76925E+02-3.99022E+03 1.87456E+03-6.97935E+02-7.19733E+01 2.84164E+02
 -1      1154 9.55525E+02-4.99669E+03 1.24131E+03 9.37437E+01 1.51715E+01-1.81657E+02
 -1      1155 8.77180E+02-2.22950E+03 3.99212E+02-8.28268E+02 6.28171E+02-4.32012E+02
 -1      1156 8.53798E+02-2.20245E+03 3.99814E+02 8.28861E+02 6.23140E+02 4.19974E+02
 -1      1157 9.39068E+02-4.91588E+03 1.22338E+03-6.21734E+01 1.71468E+01 1.70523E+02
 -1      1158-7.51660E+02-3.93085E+03 1.84101E+03 7.13602E+02-6.93521E+01-2.79603E+02
 -1      1159-2.44080E+03-4.09730E+02 1.24267E+03 3.68154E+03-1.29862E+03 5.93238E+02
 -1      1160-1.51949E+02-2.12747E+02-7.86348E+01-4.88184E+03-7.97832E+02 6.76010E+02
 -1      1161-4.64133E+02-2.31885E+03 1.22953E+03-3.61016E+03 6.01841E+02 1.37432E+03
 -1      1162 5.36224E+02-5.56908E+03 2.53770E+03-1.26680E+03 3.35982E+02 2.24679E+02
 -1      1163 1.09903E+03-4.71149E+03 2.05796E+03-1.16622E+02 3.84766E+02-1.83537E+01
 -1      1164 8.41593E+02-3.63325E+03 1.57823E+03 5.53851E+02 4.31263E+02 1.90922E+02
 -1      1165 9.42940E+02-3.02389E+03 1.12342E+03 3.68905E+02 3.92088E+02-1.45385E+02
 -1      1166 1.20826E+03-2.56175E+03 6.68610E+02 1.27385E+02 4.22562E+01 3.56298E+01
 -1      1167 1.18429E+03-2.52434E+03 6.61739E+02-9.81827E+01 4.73309E+01-3.62252E+01
 -1      1168 9.22665E+02-2.97295E+03 1.10689E+03-3.34415E+02 3.89041E+02 1.45610E+02
 -1      1169 8.19676E+02-3.56969E+03 1.55203E+03-5.13588E+02 4.21147E+02-1.78827E+02
 -1      1170 1.08082E+03-4.63042E+03 2.02085E+03 1.37696E+02 3.81045E+02 1.31434E+01
 -1      1171 5.37932E+02-5.47835E+03 2.48967E+03 1.26419E+03 3.31600E+02-2.19985E+02
 -1      1172-4.57230E+02-2.28877E+03 1.20978E+03 3.54735E+03 5.89582E+02-1.34046E+03
 -1      1173-1.61596E+02-2.09161E+02-7.01125E+01 4.76856E+03-7.57536E+02-6.63656E+02
 -1      1174 7.80615E+02-4.93520E+03 6.20856E+02 1.72310E+03 1.65090E+02-8.39268E+01
 -1      1175 7.52037E+02-2.22073E+03 2.98699E+02 1.41017E+03 4.96624E+01 1.74643E+02
 -1      1176 7.45371E+02-8.27181E+02-1.00309E+02 6.01410E+02-4.35877E+02 2.02281E+02
 -1      1177 7.23880E+02-8.01230E+02-9.95553E+01-5.64319E+02-4.21714E+02-1.99064E+02
 -1      1178 7.33108E+02-2.18015E+03 2.94385E+02-1.36028E+03 5.05484E+01-1.68442E+02
 -1      1179 7.70607E+02-4.84785E+03 6.10645E+02-1.67383E+03 1.57195E+02 8.58584E+01
 -1      1180 2.00778E+02 8.13725E+02-1.29599E+03 2.92131E+03 2.73372E+03 1.45895E+02
 -1      1181 3.89752E+02 6.66640E+02-1.13841E+03 2.58952E+03 1.69089E+03-1.33022E+02
 -1      1182 4.90342E+02 4.04360E+02-9.80828E+02 2.19663E+03 1.01699E+03 1.99385E+01
 -1      1183 2.54060E+02 6.63571E+02-9.25027E+02 1.84728E+03 8.18833E+02 1.54735E+02
 -1      1184 2.73108E+02 1.26901E+03-8.69227E+02 1.64981E+03 4.88245E+02 2.67614E+01
 -1      1185 6.60103E+02 8.68163E+02-6.64356E+02 1.33003E+03 3.83071E+02 3.18360E+02
 -1      1186 6.93713E+02 2.89969E+02-4.59487E+02 6.58622E+02-3.51689E+01 1.00519E+02
 -1      1187 6.73747E+02 1.79105E+02-4.58273E+02-2.07877E+00 2.39704E+02-9.50298E-01
 -1      1188 6.86245E+02 2.91081E+02-4.57060E+02-6.61367E+02-3.13871E+01-9.97550E+01
 -1      1189 6.39136E+02 8.67750E+02-6.58954E+02-1.31694E+03 3.79849E+02-3.18346E+02
 -1      1190 2.52806E+02 1.26900E+03-8.60850E+02-1.61206E+03 4.88228E+02-2.83731E+01
 -1      1191 2.38365E+02 6.63939E+02-9.12057E+02-1.79623E+03 8.06331E+02-1.50760E+02
 -1      1192 4.77404E+02 3.99104E+02-9.63264E+02-2.13538E+03 1.00129E+03-2.00769E+01
 -1      1193 3.80578E+02 6.53185E+02-1.11582E+03-2.52114E+03 1.65985E+03 1.31230E+02
 -1      1194 1.93400E+02 7.95671E+02-1.26838E+03-2.84848E+03 2.67749E+03-1.43822E+02
 -1      1195-5.33528E+01 6.19377E+03-6.47994E+02 1.57740E+03-3.07913E+01 5.12504E+02
 -1      1196 1.45449E+02 3.71585E+03-4.90412E+02 1.28087E+03-1.70491E+02-2.22006E+02
 -1      1197 1.01544E+02 1.88516E+03-4.34612E+02 1.00849E+03-1.65597E+01-1.03737E+02
 -1      1198 2.15198E+02 4.30098E+02-2.29743E+02 3.36987E+02-2.54972E+01-2.72509E+01
 -1      1199 2.13717E+02 4.32303E+02-2.28529E+02-3.38273E+02-2.65898E+01 2.30988E+01
 -1      1200 9.39771E+01 1.87526E+03-4.30424E+02-9.89814E+02-1.78390E+01 1.01003E+02
 -1      1201 1.41756E+02 3.65620E+03-4.81630E+02-1.24558E+03-1.69659E+02 2.18154E+02
 -1      1202-5.40627E+01 6.06857E+03-6.34189E+02-1.53561E+03-3.22557E+01-5.03763E+02
 -1      1203-1.83975E-03 8.07556E+03 1.57040E-03 5.04079E+01 2.82005E+03 2.20005E-03
 -1      1204-1.19739E-03 6.38925E+03 2.10605E-03 1.30332E+02 1.85950E+03-1.66982E-03
 -1      1205-3.31960E-04 4.77265E+03 2.08166E-03 1.63014E+02 1.46622E+03 9.28556E-04
 -1      1206-6.11621E-04 3.35507E+03 1.71129E-03 1.26717E+02 7.68711E+02-2.12452E-03
 -1      1207-1.42501E-03 2.04585E+03 1.21682E-03 1.27394E+02 4.21196E+02 1.19130E-03
 -1      1208-1.55515E-03 1.16898E+03 1.22905E-03 7.67940E+01-5.44049E+00-1.21667E-03
 -1      1209-1.55067E-03 5.70227E+02 1.38456E-03 1.29185E+01 3.90339E+02 1.30207E-04
 -1      1210-1.72831E-03 4.60457E+02 8.47802E-04-4.71288E-02 1.60058E+01 5.70409E-06
 -1      1211-1.51405E-03 5.73525E+02 1.37863E-03-1.28953E+01 3.87541E+02-1.40296E-04
 -1      1212-1.50241E-03 1.16736E+03 1.21906E-03-7.69050E+01 1.88232E-01 1.20992E-03
 -1      1213-1.39332E-03 2.03365E+03 1.19707E-03-1.25897E+02 4.12304E+02-1.13349E-03
 -1      1214-5.74614E-04 3.31347E+03 1.68730E-03-1.23770E+02 7.61803E+02 2.05579E-03
 -1      1215-3.02068E-04 4.69721E+03 2.04804E-03-1.58815E+02 1.44102E+03-8.85462E-04
 -1      1216-1.17119E-03 6.26841E+03 2.06426E-03-1.26594E+02 1.82234E+03 1.61370E-03
 -1      1217-1.80744E-03 7.90895E+03 1.54569E-03-4.75798E+01 2.75702E+03-2.13309E-03
 -1      1218 2.23155E+03 1.54953E+03 1.15213E+03 2.32730E+03 4.51594E+03 5.23596E+03
 -1      1219 3.47239E+02-3.12850E+02 6.62725E+01-8.07509E+01 1.16651E+02 4.99600E+02
 -1      1220 3.94602E+02-7.29788E+01 3.15621E+01 1.81471E+01 2.02159E+02 2.83973E+02
 -1      1221 3.99417E+02-3.46742E+01-9.12476E+00-7.80034E+00 2.54333E+02-3.15693E+02
 -1      1222 3.20489E+02-3.82255E+02 1.15460E+01 8.57036E+01 1.38559E+02-6.05974E+02
 -1      1223 1.44314E+03 2.39622E+03 1.17363E+03-2.36240E+03 5.44733E+03-4.45665E+03
 -1      1224-3.66942E+02 3.15842E+02 1.76137E+01-8.72890E+01 5.59659E+02 1.34884E+02
 -1      1225 3.65034E+02 3.06333E+02-5.12076E+02 4.16578E+02-9.81415E+01-1.37765E+02
 -1      1226 3.33214E+02 6.95037E+01-1.41638E+02 6.48813E+01 8.66046E+01 7.48884E+01
 -1      1227 3.34576E+02 6.23639E+01-1.38527E+02-9.58706E+01 9.97298E+01-7.59508E+01
 -1      1228 3.03790E+02 3.70773E+02-5.17094E+02-4.39055E+02-1.59257E+02 8.36585E+01
 -1      1229-3.05598E+02 3.44332E+02 7.72638E+01 7.71167E+01 4.97696E+02-1.10580E+02
 -1      1230-3.14031E+01 3.70734E+02 1.00754E+01 6.44755E+00 2.74653E+02 2.42565E+02
 -1      1231 6.49848E+01 3.13754E+02-1.26372E+02 8.56796E+01 5.38973E+01 1.05595E+02
 -1      1232 2.44145E+02 2.34569E+02-1.79941E+02 1.45977E+01 2.44638E+01 3.64298E+01
 -1      1233 2.38258E+02 2.39643E+02-1.79264E+02-3.18135E+01 2.23562E+01-3.91371E+01
 -1      1234 6.62036E+01 3.13152E+02-1.27730E+02-9.46268E+01 6.22072E+01-9.65979E+01
 -1      1235-6.01406E+01 3.66328E+02 5.09780E+01-3.08634E+01 3.12991E+02-1.99001E+02
 -1      1236-6.26207E+01 3.55370E+02-1.33953E+01-5.86762E+00-2.40983E+02 1.81990E+02
 -1      1237 6.69042E+01 3.01821E+02-1.35501E+02-5.58619E+01-7.67600E+01 8.92398E+01
 -1      1238 2.27564E+02 2.26230E+02-1.71729E+02-1.62240E+01-4.99254E+01 3.54955E+01
 -1      1239 2.26288E+02 2.26716E+02-1.71092E+02 2.18679E+00-4.97353E+01-3.62395E+01
 -1      1240 6.25309E+01 3.04162E+02-1.38040E+02 4.26176E+01-8.12760E+01-9.07946E+01
 -1      1241-6.05105E+01 3.57863E+02-2.18716E+01 5.98947E+00-2.33217E+02-1.79274E+02
 -1      1242-2.72806E+02 2.83952E+02 8.73417E+00 5.28458E+01-4.67709E+02 1.10873E+02
 -1      1243 2.77939E+02 2.60279E+02-4.02453E+02-3.30648E+02 5.02559E+01-7.86781E+01
 -1      1244 2.86440E+02 6.20022E+01-1.24159E+02-6.51084E+01-9.57842E+01 6.37403E+01
 -1      1245 2.85425E+02 6.25582E+01-1.25518E+02 5.11509E+01-9.59001E+01-6.41367E+01
 -1      1246 2.70147E+02 2.57481E+02-3.90915E+02 3.11159E+02 4.80934E+01 7.17651E+01
 -1      1247-2.64890E+02 2.80467E+02 1.22495E+01-5.32058E+01-4.43589E+02-1.06166E+02
 -1      1248 1.55500E+03 1.25872E+03 9.57896E+02-1.75036E+03-3.57798E+03 3.88241E+03
 -1      1249 2.87008E+02-2.50211E+02 3.04044E+01 5.05604E+01-9.87880E+01 4.27524E+02
 -1      1250 3.30859E+02-5.76122E+01 8.79034E+00-1.74573E+01-1.67393E+02 2.46094E+02
 -1      1251 3.30541E+02-5.85545E+01 2.99315E+00 1.30683E+01-1.64922E+02-2.26344E+02
 -1      1252 2.80794E+02-2.45806E+02 2.63000E+01-5.10523E+01-9.91697E+01-4.11661E+02
 -1      1253 1.47503E+03 1.24548E+03 9.24427E+02 1.69353E+03-3.49316E+03-3.72716E+03
 -1      1254 6.22721E+02 2.58749E+02 9.42803E+02 8.76373E+02 2.63079E+03 3.07390E+03
 -1      1255 8.99945E+02-2.15458E+01-3.57177E+02 6.18075E+02 2.67373E+02 7.73277E+02
 -1      1256 7.87845E+02-2.15050E+02-1.92827E+02 2.34197E+02 1.46721E+02 4.53564E+02
 -1      1257 5.44282E+02-2.28274E+02-2.60487E+02 6.55376E+01 1.55774E+01 1.99390E+02
 -1      1258 6.49718E+02-1.86217E+02-9.49980E+01 6.23973E+00 1.03937E+02 1.60836E+02
 -1      1259 6.05780E+02-1.84399E+02-1.15925E+02-6.29766E+00 8.96643E+01-1.61620E+01
 -1      1260 6.35775E+02-1.77855E+02-1.12934E+02-2.11554E+01 1.37394E+02-1.92194E+02
 -1      1261 5.36501E+02-2.23053E+02-2.43207E+02-9.26604E+01-1.16386E+01-2.61298E+02
 -1      1262 6.90093E+02-2.18095E+02-2.10352E+02-2.26043E+02 1.65450E+02-5.43558E+02
 -1      1263 5.84613E+02 5.77048E+01-1.91983E+02-6.11159E+02 3.14965E+02-8.19317E+02
 -1      1264 1.92219E+02 7.05481E+02 9.58250E+02-8.89648E+02 3.20243E+03-2.59211E+03
 -1      1265 4.47874E+01 6.23424E+02-2.15186E+02 6.01236E+02 7.92676E+02 3.07186E+02
 -1      1266 5.22049E+02 2.61178E+01-4.79191E+01 3.93057E+02 1.39069E+02 2.46256E+02
 -1      1267 6.50318E+02-4.70117E+01-2.37399E+02 7.47583E+01 1.19374E+01-3.27892E+00
 -1      1268 6.31961E+02-4.09237E+01-2.32499E+02-1.07596E+02 9.45989E+00-1.27266E+01
 -1      1269 5.14252E+02 4.32874E+01-6.27980E+01-3.94709E+02 2.05093E+02-2.14623E+02
 -1      1270-3.31866E+01 9.57647E+02-3.87471E+02-6.33820E+02 7.86836E+02-2.62589E+02
 -1      1271-2.14682E+02 6.89648E+02-2.05064E+02 2.18580E+02 5.03667E+02 1.62680E+02
 -1      1272 4.64955E+01 5.03236E+02-5.90342E+01 3.76814E+02 2.08286E+02 1.95085E+02
 -1      1273 3.33979E+02 2.95508E+02-4.07205E+02 4.55474E+02-5.44810E+01-6.90155E+01
 -1      1274 4.24799E+02 1.85014E+02-2.68531E+02 2.58030E+02 5.06104E+01-3.44617E+01
 -1      1275 5.01135E+02 1.17240E+02-2.28914E+02 1.15689E+02 7.92186E+01 5.40276E+01
 -1      1276 5.08274E+02 1.07525E+02-2.16253E+02-2.10647E+01 9.63212E+01 9.41439E-01
 -1      1277 4.96294E+02 1.20001E+02-2.28118E+02-1.57483E+02 8.58148E+01-5.65105E+01
 -1      1278 4.07729E+02 2.04929E+02-2.74059E+02-2.88123E+02 4.73634E+01 2.36348E+01
 -1      1279 2.97760E+02 3.30631E+02-4.09285E+02-4.86193E+02-8.24054E+01 4.55051E+01
 -1      1280 2.83127E+01 5.11603E+02-3.94890E+01-4.19101E+02 2.46759E+02-1.33856E+02
 -1      1281-2.12745E+02 7.96454E+02-1.89200E+02-2.47258E+02 4.50675E+02-1.43722E+02
 -1      1282-2.16520E+02 5.11768E+02-2.35338E+02 8.30393E+01 2.33844E+02-7.12314E+00
 -1      1283 2.07601E+02 3.92338E+02-2.67516E+02 2.66243E+02-3.24869E+01 5.55929E+01
 -1      1284 4.15149E+02 2.47676E+02-2.56322E+02 6.07413E+01 1.98808E+00 2.22965E+01
 -1      1285 4.09382E+02 2.53067E+02-2.57057E+02-9.01804E+01 3.87127E+00-2.45870E+01
 -1      1286 1.85147E+02 4.08489E+02-2.61635E+02-2.94127E+02-4.28016E+01-5.80022E+01
 -1      1287-2.21962E+02 5.17263E+02-2.56848E+02-7.33806E+01 2.14810E+02-1.88061E+01
 -1      1288-1.67150E+02 5.96798E+02-9.36109E+01 1.83649E+01 1.61596E+02 1.26969E+02
 -1      1289-3.40503E+01 5.95677E+02-2.24062E+02 9.72869E+01-1.92269E+00 1.14863E+01
 -1      1290 1.22300E+02 4.69169E+02-2.15828E+02 1.41099E+02 3.97568E+01 9.15446E+01
 -1      1291 2.56104E+02 3.93023E+02-2.51450E+02 7.19802E+01 1.08584E+01 1.09874E+01
 -1      1292 3.63913E+02 3.50362E+02-2.67294E+02 2.65277E+01 1.62058E+01 2.58465E+01
 -1      1293 3.58354E+02 3.36321E+02-2.65357E+02-1.28411E+01 1.08253E+01-1.16191E-01
 -1      1294 3.55961E+02 3.57043E+02-2.66707E+02-5.21444E+01 1.51683E+01-2.80665E+01
 -1      1295 2.47603E+02 3.98938E+02-2.50191E+02-9.52664E+01 1.05127E+01-1.00122E+01
 -1      1296 1.15291E+02 4.73978E+02-2.15001E+02-1.58995E+02 4.27439E+01-8.69938E+01
 -1      1297-4.10882E+01 6.12707E+02-2.27550E+02-1.06533E+02-1.17487E+01-1.09658E+01
 -1      1298-1.74093E+02 6.10850E+02-7.59632E+01-2.18901E+01 1.84364E+02-9.82233E+01
 -1      1299-1.68650E+02 5.50336E+02-1.09485E+02 6.96201E+00 1.28293E+01 8.44497E+01
 -1      1300 1.06017E+02 4.66138E+02-2.02552E+02 2.11938E+01-6.06500E+00 9.75694E+01
 -1      1301 3.34561E+02 3.42573E+02-2.58773E+02-4.71683E-01-9.57480E+00 2.17861E+01
 -1      1302 3.29546E+02 3.45199E+02-2.57931E+02-2.23421E+01-9.43487E+00-2.36185E+01
 -1      1303 1.01132E+02 4.71716E+02-2.02743E+02-3.92935E+01-3.63152E+00-9.41018E+01
 -1      1304-1.70773E+02 5.56871E+02-1.06860E+02-1.31608E+01 2.66217E+01-7.75516E+01
 -1      1305-1.63619E+02 5.66576E+02-1.07291E+02-7.25906E+00-1.45045E+02 1.01242E+02
 -1      1306-3.72266E+01 5.65590E+02-2.06068E+02-6.38170E+01-1.97797E+01 1.61867E+01
 -1      1307 1.11660E+02 4.48087E+02-2.11006E+02-9.65701E+01-5.78222E+01 7.81347E+01
 -1      1308 2.37468E+02 3.76543E+02-2.37623E+02-5.15427E+01-3.43981E+01 9.94161E+00
 -1      1309 3.38861E+02 3.36682E+02-2.53996E+02-2.76289E+01-3.74535E+01 2.63301E+01
 -1      1310 3.35950E+02 3.21087E+02-2.51340E+02-1.04210E+01-3.43199E+01-1.67754E-01
 -1      1311 3.36437E+02 3.37620E+02-2.53398E+02 6.96618E+00-3.77039E+01-2.70465E+01
 -1      1312 2.33581E+02 3.78415E+02-2.37313E+02 3.23916E+01-3.57936E+01-1.05432E+01
 -1      1313 1.07279E+02 4.49697E+02-2.11654E+02 7.74256E+01-6.01562E+01-7.79486E+01
 -1      1314-3.90061E+01 5.65273E+02-2.02819E+02 5.07130E+01-1.86265E+01-1.41378E+01
 -1      1315-1.63470E+02 5.67536E+02-1.13344E+02 1.78212E+00-1.39218E+02-1.01445E+02
 -1      1316-1.91137E+02 4.69387E+02-2.07154E+02-6.46254E+01-1.91555E+02 5.18257E+00
 -1      1317 1.72003E+02 3.62839E+02-2.35838E+02-2.07430E+02 1.17630E+01 5.42012E+01
 -1      1318 3.68345E+02 2.31191E+02-2.32110E+02-6.00576E+01-1.75254E+01 2.21826E+01
 -1      1319 3.66340E+02 2.31727E+02-2.31568E+02 4.02631E+01-1.74123E+01-2.35599E+01
 -1      1320 1.67508E+02 3.63001E+02-2.33516E+02 1.86522E+02 1.06065E+01-5.51690E+01
 -1      1321-1.89224E+02 4.67113E+02-2.06596E+02 5.83116E+01-1.78202E+02-8.94121E+00
 -1      1322-1.77791E+02 5.89518E+02-1.67046E+02-1.84867E+02-4.17530E+02 1.25864E+02
 -1      1323 3.28475E+01 4.27858E+02-5.77003E+01-3.09172E+02-1.85350E+02 1.38479E+02
 -1      1324 2.66929E+02 2.60139E+02-3.31099E+02-3.68277E+02 1.92107E+01-3.46810E+01
 -1      1325 3.55071E+02 1.65238E+02-2.28508E+02-2.15596E+02-6.20023E+01-2.18473E+01
 -1      1326 4.28372E+02 1.05455E+02-1.98878E+02-1.10419E+02-8.34661E+01 4.58065E+01
 -1      1327 4.35861E+02 9.57156E+01-1.89841E+02-1.04265E+01-9.35562E+01 8.81793E-02
 -1      1328 4.26269E+02 1.05731E+02-1.99108E+02 8.94529E+01-8.31255E+01-4.63793E+01
 -1      1329 3.51343E+02 1.65097E+02-2.26398E+02 1.93518E+02-6.24869E+01 2.01628E+01
 -1      1330 2.61461E+02 2.58581E+02-3.23776E+02 3.43074E+02 1.68335E+01 3.02377E+01
 -1      1331 3.17447E+01 4.21682E+02-5.90421E+01 2.91757E+02-1.83467E+02-1.32498E+02
 -1      1332-1.74800E+02 5.81661E+02-1.61588E+02 1.77401E+02-3.97432E+02-1.20756E+02
 -1      1333 1.48932E+01 5.41374E+02-1.91625E+02-4.72108E+02-6.40680E+02 2.37906E+02
 -1      1334 4.20658E+02 3.07113E+01-4.88776E+01-3.17684E+02-1.18434E+02 1.90634E+02
 -1      1335 5.37011E+02-3.49094E+01-1.97304E+02-7.44777E+01-1.49796E+01 5.95846E+00
 -1      1336 5.33761E+02-3.44899E+01-1.95442E+02 6.00192E+01-1.52835E+01-6.49605E+00
 -1      1337 4.13335E+02 3.15013E+01-5.10655E+01 2.98172E+02-1.17267E+02-1.85215E+02
 -1      1338 1.06997E+01 5.37636E+02-1.91605E+02 4.56086E+02-6.16256E+02-2.29984E+02
 -1      1339 4.09323E+02 2.48365E+02 7.53823E+02-6.67583E+02-2.10424E+03 2.29184E+03
 -1      1340 6.54338E+02-1.29705E+01-2.51791E+02-4.79127E+02-2.22081E+02 6.29787E+02
 -1      1341 6.15845E+02-1.74746E+02-1.58805E+02-1.92064E+02-1.17464E+02 3.82940E+02
 -1      1342 4.48127E+02-1.86400E+02-2.07271E+02-6.09119E+01-1.50025E+01 1.80634E+02
 -1      1343 5.36089E+02-1.54371E+02-8.89383E+01-1.35498E+01-8.89522E+01 1.48624E+02
 -1      1344 5.07662E+02-1.56711E+02-1.00735E+02-3.25780E+00-7.01307E+01 7.47502E+00
 -1      1345 5.33259E+02-1.53930E+02-9.19893E+01 7.64583E+00-8.87401E+01-1.34300E+02
 -1      1346 4.44438E+02-1.84035E+02-2.03325E+02 5.54052E+01-1.52506E+01-1.67723E+02
 -1      1347 5.98836E+02-1.71979E+02-1.55954E+02 1.82310E+02-1.16003E+02-3.69172E+02
 -1      1348 6.23881E+02-1.06171E+01-2.37916E+02 4.61322E+02-2.18222E+02-6.07054E+02
 -1      1349 3.79147E+02 2.54170E+02 7.28224E+02 6.45537E+02-2.05557E+03-2.20004E+03
 -1      1350 5.13838E+02 2.05205E+02 1.30542E+02 8.59814E+02 9.72426E+02 1.14476E+03
 -1      1351 1.03488E+03-2.39525E+02-3.33335E+02 4.07410E+02 7.21777E+01 1.86547E+02
 -1      1352 8.56098E+02-2.39346E+02-2.65008E+02 4.58848E+01 3.73697E+01 3.23246E+01
 -1      1353 8.36404E+02-2.31429E+02-2.60885E+02-7.29097E+01 4.40382E+01-6.30044E+01
 -1      1354 9.14625E+02-2.32534E+02-3.08823E+02-4.06467E+02 8.47239E+01-2.57474E+02
 -1      1355 1.48403E+02 5.84088E+02 1.32632E+02-8.74341E+02 1.19352E+03-9.56974E+02
 -1      1356-2.29809E+02 9.13596E+02-3.05637E+02 3.92932E+02 2.30703E+02 8.28180E+01
 -1      1357 4.19793E+02 3.76493E+02-3.27703E+02 5.86110E+02 6.74334E+01 7.30777E+01
 -1      1358 6.72348E+02 1.57860E+02-3.11384E+02 1.45472E+02 4.65581E+01 2.06903E+01
 -1      1359 6.63817E+02 1.63494E+02-3.12781E+02-1.99151E+02 4.79213E+01-2.26924E+01
 -1      1360 3.80461E+02 4.13725E+02-3.27087E+02-6.26003E+02 6.89152E+01-7.28361E+01
 -1      1361-2.37536E+02 1.04339E+03-3.34191E+02-4.27009E+02 1.79588E+02-7.05736E+01
 -1      1362-2.17962E+02 7.85786E+02-2.42669E+02 6.53309E+01 4.39912E+01 4.05576E+01
 -1      1363 1.65680E+02 6.27651E+02-2.99653E+02 1.78874E+02 1.49719E+01 5.00139E+01
 -1      1364 4.76491E+02 4.59363E+02-3.61029E+02 3.69062E+01 1.10501E+01 1.63227E+01
 -1      1365 4.66425E+02 4.67575E+02-3.60573E+02-7.09061E+01 9.81345E+00-1.82188E+01
 -1      1366 1.54859E+02 6.36529E+02-2.96250E+02-2.03102E+02 1.60743E+01-4.84174E+01
 -1      1367-2.24802E+02 8.02362E+02-2.48891E+02-6.91822E+01 4.22713E+01-3.43111E+01
 -1      1368-2.10026E+02 7.49326E+02-2.30845E+02-4.21814E+01-4.51421E+01 3.69907E+01
 -1      1369 1.50266E+02 5.98771E+02-2.83728E+02-1.20687E+02-2.49038E+01 4.73216E+01
 -1      1370 4.44499E+02 4.41383E+02-3.41226E+02-3.81273E+01-2.29730E+01 1.62977E+01
 -1      1371 4.41226E+02 4.42630E+02-3.40530E+02 1.08953E+01-2.33597E+01-1.67568E+01
 -1      1372 1.44675E+02 6.01109E+02-2.82656E+02 9.54882E+01-2.52343E+01-4.69970E+01
 -1      1373-2.09885E+02 7.48252E+02-2.33304E+02 3.29199E+01-4.21676E+01-3.71730E+01
 -1      1374-1.95317E+02 7.78051E+02-2.56434E+02-3.23370E+02-1.96614E+02 6.46536E+01
 -1      1375 3.38189E+02 3.32166E+02-2.76633E+02-4.73822E+02-6.74069E+01 6.34034E+01
 -1      1376 5.73197E+02 1.41328E+02-2.69812E+02-1.39905E+02-4.82398E+01 1.92358E+01
 -1      1377 5.70240E+02 1.41689E+02-2.69171E+02 1.12425E+02-4.84496E+01-1.93565E+01
 -1      1378 3.31701E+02 3.30281E+02-2.72821E+02 4.41367E+02-6.70969E+01-6.28405E+01
 -1      1379-1.92726E+02 7.67568E+02-2.52172E+02 3.09428E+02-1.87269E+02-6.26903E+01
 -1      1380 3.43270E+02 2.06534E+02 1.09145E+02-6.69550E+02-7.92859E+02 8.65208E+02
 -1      1381 8.08909E+02-1.95004E+02-2.61285E+02-3.30808E+02-6.00968E+01 1.69062E+02
 -1      1382 7.06289E+02-1.98708E+02-2.18291E+02-4.95434E+01-3.25870E+01 4.16877E+01
 -1      1383 7.02843E+02-1.97972E+02-2.17305E+02 3.95524E+01-3.28582E+01-3.54096E+01
 -1      1384 7.87480E+02-1.91644E+02-2.54533E+02 3.14567E+02-5.93850E+01-1.63917E+02
 -1      1385 3.17921E+02 2.11676E+02 1.05613E+02 6.47415E+02-7.74701E+02-8.30566E+02
 -1      1386 4.80327E+02 2.15943E+02 1.78040E+01 9.39286E+02 4.27352E+02 5.42116E+02
 -1      1387 1.04412E+03-1.70747E+01-4.28581E+02 9.11116E+02-5.94584E+01 1.96042E+02
 -1      1388 1.32027E+03-2.75368E+02-3.82823E+02 6.04326E+02 1.65550E+02 1.38845E+02
 -1      1389 1.03102E+03-3.15259E+02-2.77653E+02 2.14313E+02 7.95050E+01 9.58897E+01
 -1      1390 1.07272E+03-2.91702E+02-3.38457E+02 8.58636E+01 4.43243E+00-2.64275E+01
 -1      1391 1.10037E+03-2.99378E+02-2.92926E+02-1.94126E+01 1.68633E+01-5.19542E+00
 -1      1392 1.04968E+03-2.82934E+02-3.34565E+02-1.25326E+02 5.88918E+00 4.97247E+00
 -1      1393 9.99990E+02-2.98904E+02-2.70071E+02-2.54406E+02 7.95542E+01-9.22989E+01
 -1      1394 1.17343E+03-2.62010E+02-3.54658E+02-6.16779E+02 1.89502E+02-1.61914E+02
 -1      1395 7.64557E+02 5.29479E+01-3.19933E+02-9.18813E+02-8.07755E+01-2.06246E+02
 -1      1396 1.67009E+02 5.41153E+02 1.81455E+01-9.56786E+02 5.71065E+02-4.12924E+02
 -1      1397 4.23280E+01 7.95268E+02-3.32374E+02 8.98325E+02 2.00106E+02-7.37810E+01
 -1      1398 9.19199E+02 5.56296E+01-3.26742E+02 7.31798E+02 5.44530E+01-9.51494E-02
 -1      1399 1.03824E+03-8.44099E+01-3.91172E+02 1.48730E+02-2.34665E+01-2.12830E+01
 -1      1400 1.01546E+03-7.39571E+01-3.83231E+02-2.05138E+02-2.51943E+01 1.56888E+01
 -1      1401 8.67350E+02 7.65222E+01-3.17305E+02-7.63298E+02 7.63253E+01 1.95305E+01
 -1      1402-2.71441E+01 1.09179E+03-4.48380E+02-9.36081E+02 2.01737E+02 5.79202E+01
 -1      1403-2.59671E+02 1.17251E+03-3.51023E+02 5.95541E+02 1.49408E+02 1.84108E+02
 -1      1404 8.19762E+01 8.56322E+02-3.15121E+02 7.27102E+02-1.67006E+01 7.10706E+01
 -1      1405 4.98707E+02 4.51516E+02-4.10013E+02 7.21170E+02 7.22853E+01 6.55218E+01
 -1      1406 7.05871E+02 2.96066E+02-4.12420E+02 3.93763E+02 4.82906E+01-6.16078E+00
 -1      1407 8.43214E+02 2.00608E+02-3.91363E+02 1.76116E+02 2.46387E+01 2.68595E+01
 -1      1408 8.43883E+02 1.84252E+02-3.99089E+02-3.34343E+01 2.37081E+01 1.56107E-01
 -1      1409 8.29953E+02 2.09465E+02-3.91326E+02-2.42339E+02 2.78279E+01-2.71821E+01
 -1      1410 6.71002E+02 3.22025E+02-4.08561E+02-4.51786E+02 4.44781E+01-4.45140E+00
 -1      1411 4.56844E+02 4.90128E+02-4.09298E+02-7.70625E+02 6.32887E+01-7.73976E+01
 -1      1412 5.94402E+01 9.08681E+02-3.22684E+02-7.72901E+02-1.36583E+00-5.34896E+01
 -1      1413-2.73820E+02 1.32930E+03-3.81712E+02-6.30325E+02 1.37117E+02-1.65473E+02
 -1      1414-2.91067E+02 9.61032E+02-2.58355E+02 2.35639E+02 9.24899E+01 7.81958E+01
 -1      1415 3.26690E+02 6.48776E+02-4.01136E+02 4.15131E+02 2.68731E+00 4.54289E+01
 -1      1416 6.88025E+02 4.19644E+02-4.20847E+02 9.96622E+01-1.42759E+01 1.58698E+01
 -1      1417 6.76365E+02 4.27992E+02-4.19729E+02-1.50279E+02-1.24790E+01-1.59464E+01
 -1      1418 2.96663E+02 6.81114E+02-4.03079E+02-4.51144E+02-4.60601E+00-5.00322E+01
 -1      1419-3.07189E+02 9.87845E+02-2.64594E+02-2.37155E+02 1.06952E+02-7.86317E+01
 -1      1420-2.67372E+02 9.85829E+02-3.11031E+02 1.12761E+02-1.39698E+01 3.20238E+00
 -1      1421-6.53928E+01 9.55672E+02-3.63411E+02 1.86896E+02-2.00268E+01-2.47445E+01
 -1      1422 2.11196E+02 7.85333E+02-3.74841E+02 2.18087E+02 2.37856E+01 2.63900E+01
 -1      1423 4.32604E+02 6.49748E+02-4.11050E+02 1.19607E+02 1.33476E+01-1.29057E+01
 -1      1424 5.91123E+02 5.70664E+02-4.52126E+02 4.65526E+01 1.12455E+01 1.10091E+01
 -1      1425 5.98180E+02 5.47749E+02-4.46873E+02-2.14775E+01 1.04367E+01 1.47179E-01
 -1      1426 5.79097E+02 5.80247E+02-4.51524E+02-8.88795E+01 8.55395E+00-1.27651E+01
 -1      1427 4.18691E+02 6.61670E+02-4.09853E+02-1.55779E+02 1.48785E+01 1.50973E+01
 -1      1428 1.96267E+02 7.99068E+02-3.71901E+02-2.48517E+02 2.90202E+01-2.32351E+01
 -1      1429-7.74854E+01 9.74741E+02-3.70330E+02-2.05633E+02-2.99013E+01 2.41455E+01
 -1      1430-2.75011E+02 1.00244E+03-3.17151E+02-1.18297E+02-2.46513E+01-1.83127E-01
 -1      1431-2.73846E+02 9.97721E+02-2.67607E+02 1.67341E+01 4.52232E+00 1.66325E+01
 -1      1432 1.80629E+02 7.74913E+02-3.70862E+02 3.51659E+01 1.09000E+00 2.40895E+01
 -1      1433 5.44555E+02 5.72180E+02-4.35481E+02-5.52037E-01 5.56860E-01 1.16386E+01
 -1      1434 5.36892E+02 5.76986E+02-4.34129E+02-3.67380E+01 2.46870E-01-1.28960E+01
 -1      1435 1.70848E+02 7.82736E+02-3.70591E+02-6.54133E+01 3.38434E+00-2.26677E+01
 -1      1436-2.76251E+02 1.00756E+03-2.66060E+02-2.62908E+01 6.27039E+00-1.60939E+01
 -1      1437-2.56110E+02 9.42594E+02-2.94840E+02-7.68452E+01 6.12411E+00 9.41343E+00
 -1      1438-6.74623E+01 9.10915E+02-3.41643E+02-1.24730E+02 7.44852E+00-1.96102E+01
 -1      1439 1.90281E+02 7.48686E+02-3.55194E+02-1.45533E+02-2.28212E+01 2.56214E+01
 -1      1440 4.00036E+02 6.21890E+02-3.89786E+02-8.57216E+01-1.57338E+01-1.22032E+01
 -1      1441 5.52057E+02 5.47808E+02-4.26914E+02-4.80169E+01-1.28486E+01 1.07771E+01
 -1      1442 5.61947E+02 5.22798E+02-4.22682E+02-1.70499E+01-1.42193E+01 4.03137E-02
 -1      1443 5.47833E+02 5.49435E+02-4.25949E+02 1.42748E+01-1.29964E+01-1.10004E+01
 -1      1444 3.93019E+02 6.25143E+02-3.88413E+02 5.42242E+01-1.61866E+01 1.14848E+01
 -1      1445 1.83465E+02 7.51581E+02-3.53667E+02 1.14165E+02-2.30206E+01-2.63404E+01
 -1      1446-6.97610E+01 9.09966E+02-3.40243E+02 1.01629E+02 5.40723E+00 1.93266E+01
 -1      1447-2.55801E+02 9.39745E+02-2.97285E+02 6.39316E+01 7.28707E+00-1.00400E+01
 -1      1448-2.63171E+02 8.69042E+02-2.34872E+02-1.86048E+02-6.82062E+01 6.58226E+01
 -1      1449 2.72922E+02 5.98884E+02-3.56902E+02-3.21814E+02 1.56915E+00 4.06131E+01
 -1      1450 6.09352E+02 3.88765E+02-3.80110E+02-9.87203E+01 1.25601E+01 1.46932E+01
 -1      1451 6.05754E+02 3.89516E+02-3.79257E+02 6.61902E+01 1.24510E+01-1.46232E+01
 -1      1452 2.66443E+02 5.98914E+02-3.53996E+02 2.88205E+02 2.81891E+00-4.04773E+01
 -1      1453-2.61394E+02 8.63721E+02-2.33987E+02 1.70991E+02-6.21020E+01-6.43036E+01
 -1      1454-2.23934E+02 9.94241E+02-2.93668E+02-4.83716E+02-1.26981E+02 1.41431E+02
 -1      1455 5.79059E+01 7.27961E+02-2.65867E+02-5.86892E+02 7.35648E+00 5.18666E+01
 -1      1456 4.04256E+02 3.98785E+02-3.45013E+02-5.83218E+02-6.26098E+01 5.72702E+01
 -1      1457 5.89574E+02 2.63658E+02-3.49582E+02-3.32244E+02-4.27265E+01-3.14318E+00
 -1      1458 7.17749E+02 1.78298E+02-3.37623E+02-1.70283E+02-2.35779E+01 2.38104E+01
 -1      1459 7.23822E+02 1.60310E+02-3.43691E+02-1.70146E+01-2.23650E+01 6.40413E-01
 -1      1460 7.13911E+02 1.78675E+02-3.36779E+02 1.36144E+02-2.42686E+01-2.25673E+01
 -1      1461 5.83176E+02 2.63538E+02-3.46522E+02 2.97258E+02-4.20158E+01 4.14229E+00
 -1      1462 3.96858E+02 3.96730E+02-3.40266E+02 5.43263E+02-6.05537E+01-5.58945E+01
 -1      1463 5.57613E+01 7.18381E+02-2.62873E+02 5.53975E+02 4.67854E+00-4.89758E+01
 -1      1464-2.21471E+02 9.80400E+02-2.88970E+02 4.62114E+02-1.23152E+02-1.36554E+02
 -1      1465 1.56577E+01 6.88047E+02-2.83539E+02-7.20010E+02-1.59478E+02-5.36690E+01
 -1      1466 7.30478E+02 5.58175E+01-2.64893E+02-5.91466E+02-4.50704E+01-2.77184E+00
 -1      1467 8.60859E+02-6.61419E+01-3.24247E+02-1.44522E+02 1.96489E+01-1.54255E+01
 -1      1468 8.56517E+02-6.51565E+01-3.22226E+02 1.18625E+02 1.91461E+01 1.26052E+01
 -1      1469 7.15987E+02 5.65984E+01-2.61098E+02 5.57347E+02-4.35877E+01 1.79648E+00
 -1      1470 1.16771E+01 6.81350E+02-2.79800E+02 6.93846E+02-1.53217E+02 5.02072E+01
 -1      1471 3.33100E+02 2.15436E+02 1.48378E+01-7.46753E+02-3.54068E+02 4.02453E+02
 -1      1472 7.85109E+02-8.52392E+00-3.21928E+02-7.25730E+02 4.59445E+01 1.58707E+02
 -1      1473 1.03088E+03-2.25588E+02-2.97904E+02-4.89400E+02-1.34355E+02 1.17558E+02
 -1      1474 8.38774E+02-2.59671E+02-2.25554E+02-1.85998E+02-6.42931E+01 7.48895E+01
 -1      1475 8.85097E+02-2.43179E+02-2.77628E+02-8.64186E+01-5.22440E+00-1.13370E+01
 -1      1476 9.15038E+02-2.53276E+02-2.42295E+02-7.26350E+00-1.55951E+01 1.80011E+00
 -1      1477 8.81221E+02-2.42152E+02-2.76302E+02 7.19197E+01-6.22094E+00 1.27502E+01
 -1      1478 8.30019E+02-2.56345E+02-2.23435E+02 1.71076E+02-6.31967E+01-6.90998E+01
 -1      1479 1.00421E+03-2.21607E+02-2.90640E+02 4.66007E+02-1.31219E+02-1.14045E+02
 -1      1480 7.54530E+02-6.80945E+00-3.09167E+02 6.97935E+02 4.39237E+01-1.52386E+02
 -1      1481 3.10569E+02 2.19097E+02 1.42110E+01 7.22116E+02-3.47330E+02-3.84954E+02
 -3
    1PSTEP                        20           1           1          
    1PGM                1.000000E+00                                  
    1PGK                1.381566E+12                                  
    1PHID                         -1                                  
    1PSUBC                         0                                  
    1PMODE                         5                                  
  100CL  105 187070.7844        1481                     2    5MODAL      1
 -4  ERROR       1    1
 -5  STR(%)      1    1    0    0
 -1         1 9.94121E+00
 -1         2 9.94121E+00
 -1         3 9.94121E+00
 -1         4 9.76563E+00
 -1         5 9.59005E+00
 -1         6 9.39091E+00
 -1         7 9.19176E+00
 -1         8 9.56285E+00
 -1         9 9.93393E+00
 -1        10 9.93393E+00
 -1        11 9.93393E+00
 -1        12 9.94121E+00
 -1        13 9.94121E+00
 -1        14 9.59005E+00
 -1        15 9.19176E+00
 -1        16 1.00725E+01
 -1        17 1.00725E+01
 -1        18 9.94121E+00
 -1        19 9.94121E+00
 -1        20 9.94121E+00
 -1        21 9.76563E+00
 -1        22 9.59005E+00
 -1        23 9.39091E+00
 -1        24 9.19176E+00
 -1        25 9.70137E+00
 -1        26 1.02110E+01
 -1        27 1.02110E+01
 -1        28 1.02110E+01
 -1        29 9.67388E+00
 -1        30 9.67388E+00
 -1        31 8.51371E+00
 -1        32 8.24556E+00
 -1        33 1.02110E+01
 -1        34 1.02110E+01
 -1        35 9.40655E+00
 -1        36 9.40655E+00
 -1        37 9.40655E+00
 -1        38 8.42196E+00
 -1        39 7.43737E+00
 -1        40 7.36836E+00
 -1        41 7.29936E+00
 -1        42 8.75516E+00
 -1        43 1.02110E+01
 -1        44 1.02110E+01
 -1        45 1.02110E+01
 -1        46 9.06321E+00
 -1        47 9.06321E+00
 -1        48 6.90489E+00
 -1        49 7.02871E+00
 -1        50 9.37711E+00
 -1        51 9.37711E+00
 -1        52 8.71986E+00
 -1        53 8.71986E+00
 -1        54 8.71986E+00
 -1        55 7.54613E+00
 -1        56 6.37240E+00
 -1        57 6.56524E+00
 -1        58 6.75807E+00
 -1        59 7.65066E+00
 -1        60 8.54324E+00
 -1        61 8.54324E+00
 -1        62 8.54324E+00
 -1        63 9.12819E+00
 -1        64 9.12819E+00
 -1        65 7.86058E+00
 -1        66 7.92381E+00
 -1        67 9.03342E+00
 -1        68 9.03342E+00
 -1        69 9.53652E+00
 -1        70 9.53652E+00
 -1        71 9.53652E+00
 -1        72 9.44264E+00
 -1        73 9.34875E+00
 -1        74 9.21915E+00
 -1        75 9.08955E+00
 -1        76 9.30657E+00
 -1        77 9.52359E+00
 -1        78 9.52359E+00
 -1        79 9.52359E+00
 -1        80 9.53652E+00
 -1        81 9.53652E+00
 -1        82 9.34875E+00
 -1        83 9.08955E+00
 -1        84 9.52359E+00
 -1        85 9.52359E+00
 -1        86 9.53652E+00
 -1        87 9.53652E+00
 -1        88 9.53652E+00
 -1        89 9.44264E+00
 -1        90 9.34875E+00
 -1        91 9.21915E+00
 -1        92 9.08955E+00
 -1        93 9.30657E+00
 -1        94 9.52359E+00
 -1        95 9.52359E+00
 -1        96 9.52359E+00
 -1        97 1.61223E+01
 -1        98 1.61223E+01
 -1        99 1.33277E+01
 -1       100 1.26576E+01
 -1       101 1.61332E+01
 -1       102 1.61332E+01
 -1       103 1.61223E+01
 -1       104 1.66151E+01
 -1       105 1.64395E+01
 -1       106 1.61539E+01
 -1       107 1.66635E+01
 -1       108 1.62718E+01
 -1       109 1.30702E+01
 -1       110 1.63477E+01
 -1       111 1.53631E+01
 -1       112 1.52077E+01
 -1       113 1.66635E+01
 -1       114 1.37204E+01
 -1       115 1.21962E+01
 -1       116 1.55615E+01
 -1       117 1.43878E+01
 -1       118 1.46503E+01
 -1       119 1.55429E+01
 -1       120 1.21275E+01
 -1       121 1.59051E+01
 -1       122 1.59698E+01
 -1       123 1.58760E+01
 -1       124 1.58161E+01
 -1       125 1.60331E+01
 -1       126 1.58933E+01
 -1       127 1.59051E+01
 -1       128 1.59051E+01
 -1       129 1.27868E+01
 -1       130 1.26620E+01
 -1       131 1.58933E+01
 -1       132 1.58933E+01
 -1       133 2.23034E+01
 -1       134 2.23034E+01
 -1       135 2.23034E+01
 -1       136 1.96844E+01
 -1       137 1.70653E+01
 -1       138 1.65944E+01
 -1       139 1.61234E+01
 -1       140 1.92280E+01
 -1       141 2.23326E+01
 -1       142 2.23326E+01
 -1       143 2.23326E+01
 -1       144 2.23034E+01
 -1       145 2.27962E+01
 -1       146 2.01771E+01
 -1       147 1.96197E+01
 -1       148 2.27243E+01
 -1       149 2.23326E+01
 -1       150 2.23034E+01
 -1       151 2.27962E+01
 -1       152 2.32889E+01
 -1       153 2.32889E+01
 -1       154 2.32889E+01
 -1       155 2.32025E+01
 -1       156 2.31161E+01
 -1       157 2.31161E+01
 -1       158 2.31161E+01
 -1       159 2.27243E+01
 -1       160 2.23326E+01
 -1       161 1.95186E+01
 -1       162 2.32889E+01
 -1       163 2.32889E+01
 -1       164 2.31161E+01
 -1       165 2.31161E+01
 -1       166 1.97812E+01
 -1       167 1.67339E+01
 -1       168 2.00114E+01
 -1       169 2.32889E+01
 -1       170 2.32889E+01
 -1       171 2.32889E+01
 -1       172 2.32025E+01
 -1       173 2.31161E+01
 -1       174 2.31161E+01
 -1       175 2.31161E+01
 -1       176 2.01730E+01
 -1       177 1.72299E+01
 -1       178 1.62032E+01
 -1       179 2.28460E+01
 -1       180 2.28460E+01
 -1       181 2.28293E+01
 -1       182 2.28293E+01
 -1       183 1.64708E+01
 -1       184 1.56726E+01
 -1       185 1.90379E+01
 -1       186 2.24032E+01
 -1       187 2.24032E+01
 -1       188 2.24032E+01
 -1       189 2.24729E+01
 -1       190 2.25426E+01
 -1       191 2.25426E+01
 -1       192 2.25426E+01
 -1       193 1.91272E+01
 -1       194 1.57118E+01
 -1       195 1.89731E+01
 -1       196 2.24032E+01
 -1       197 2.24032E+01
 -1       198 2.25426E+01
 -1       199 2.25426E+01
 -1       200 1.89874E+01
 -1       201 2.22736E+01
 -1       202 2.23384E+01
 -1       203 2.24032E+01
 -1       204 2.24032E+01
 -1       205 2.24032E+01
 -1       206 2.24729E+01
 -1       207 2.25426E+01
 -1       208 2.25426E+01
 -1       209 2.25426E+01
 -1       210 2.24028E+01
 -1       211 2.22630E+01
 -1       212 2.22736E+01
 -1       213 2.23384E+01
 -1       214 1.93140E+01
 -1       215 1.93886E+01
 -1       216 2.24028E+01
 -1       217 2.22630E+01
 -1       218 2.22736E+01
 -1       219 2.22736E+01
 -1       220 2.22736E+01
 -1       221 1.92493E+01
 -1       222 1.62249E+01
 -1       223 1.62297E+01
 -1       224 1.62345E+01
 -1       225 1.92488E+01
 -1       226 2.22630E+01
 -1       227 2.22630E+01
 -1       228 2.22630E+01
 -1       229 2.31743E+01
 -1       230 2.30037E+01
 -1       231 2.03847E+01
 -1       232 1.92870E+01
 -1       233 2.23916E+01
 -1       234 2.31369E+01
 -1       235 2.25494E+01
 -1       236 2.34965E+01
 -1       237 2.57815E+01
 -1       238 2.56951E+01
 -1       239 2.34722E+01
 -1       240 2.30805E+01
 -1       241 1.97646E+01
 -1       242 2.48494E+01
 -1       243 2.57815E+01
 -1       244 2.56951E+01
 -1       245 2.43132E+01
 -1       246 2.05291E+01
 -1       247 1.93275E+01
 -1       248 2.44065E+01
 -1       249 2.44065E+01
 -1       250 2.40264E+01
 -1       251 2.40264E+01
 -1       252 1.94525E+01
 -1       253 2.26280E+01
 -1       254 2.30271E+01
 -1       255 2.32110E+01
 -1       256 2.32807E+01
 -1       257 2.31227E+01
 -1       258 2.27281E+01
 -1       259 2.28317E+01
 -1       260 2.29623E+01
 -1       261 1.99380E+01
 -1       262 1.99687E+01
 -1       263 2.29829E+01
 -1       264 2.28196E+01
 -1       265 3.08162E+01
 -1       266 3.09562E+01
 -1       267 3.10962E+01
 -1       268 3.11688E+01
 -1       269 3.12413E+01
 -1       270 3.12413E+01
 -1       271 3.12413E+01
 -1       272 3.12075E+01
 -1       273 3.11736E+01
 -1       274 3.11736E+01
 -1       275 3.11736E+01
 -1       276 3.11231E+01
 -1       277 3.10726E+01
 -1       278 3.09229E+01
 -1       279 3.07732E+01
 -1       280 3.08162E+01
 -1       281 3.10962E+01
 -1       282 3.12413E+01
 -1       283 3.12413E+01
 -1       284 3.11736E+01
 -1       285 3.11736E+01
 -1       286 3.10726E+01
 -1       287 3.07732E+01
 -1       288 3.08162E+01
 -1       289 3.09562E+01
 -1       290 3.10962E+01
 -1       291 3.11688E+01
 -1       292 3.12413E+01
 -1       293 3.12413E+01
 -1       294 3.12413E+01
 -1       295 3.12075E+01
 -1       296 3.11736E+01
 -1       297 3.11736E+01
 -1       298 3.11736E+01
 -1       299 3.11231E+01
 -1       300 3.10726E+01
 -1       301 3.09229E+01
 -1       302 3.07732E+01
 -1       303 2.90437E+01
 -1       304 2.87105E+01
 -1       305 2.69672E+01
 -1       306 2.69672E+01
 -1       307 2.76716E+01
 -1       308 2.76716E+01
 -1       309 2.77028E+01
 -1       310 2.89642E+01
 -1       311 2.72711E+01
 -1       312 2.72711E+01
 -1       313 2.72711E+01
 -1       314 2.67979E+01
 -1       315 2.63247E+01
 -1       316 2.45088E+01
 -1       317 2.26930E+01
 -1       318 2.26930E+01
 -1       319 2.26930E+01
 -1       320 2.41697E+01
 -1       321 2.41697E+01
 -1       322 2.41697E+01
 -1       323 2.42514E+01
 -1       324 2.43331E+01
 -1       325 2.57441E+01
 -1       326 2.71551E+01
 -1       327 2.71551E+01
 -1       328 2.71551E+01
 -1       329 2.72711E+01
 -1       330 2.72711E+01
 -1       331 2.63247E+01
 -1       332 2.27444E+01
 -1       333 2.43331E+01
 -1       334 2.71551E+01
 -1       335 2.71551E+01
 -1       336 3.07584E+01
 -1       337 3.07584E+01
 -1       338 3.07584E+01
 -1       339 2.90147E+01
 -1       340 2.72711E+01
 -1       341 2.72711E+01
 -1       342 2.72711E+01
 -1       343 2.67979E+01
 -1       344 2.63247E+01
 -1       345 2.13191E+01
 -1       346 2.28261E+01
 -1       347 2.43331E+01
 -1       348 2.57441E+01
 -1       349 2.71551E+01
 -1       350 2.71551E+01
 -1       351 2.71551E+01
 -1       352 2.89800E+01
 -1       353 3.08049E+01
 -1       354 3.08049E+01
 -1       355 3.08049E+01
 -1       356 3.09065E+01
 -1       357 3.09065E+01
 -1       358 2.58344E+01
 -1       359 2.58344E+01
 -1       360 2.51850E+01
 -1       361 2.41372E+01
 -1       362 2.67235E+01
 -1       363 2.67235E+01
 -1       364 3.08886E+01
 -1       365 3.08886E+01
 -1       366 3.10546E+01
 -1       367 3.10546E+01
 -1       368 3.10546E+01
 -1       369 2.77261E+01
 -1       370 2.43977E+01
 -1       371 2.43977E+01
 -1       372 2.43977E+01
 -1       373 2.42215E+01
 -1       374 2.40452E+01
 -1       375 2.38747E+01
 -1       376 2.37041E+01
 -1       377 2.37041E+01
 -1       378 2.37041E+01
 -1       379 2.30774E+01
 -1       380 2.24507E+01
 -1       381 2.24507E+01
 -1       382 2.24507E+01
 -1       383 2.31960E+01
 -1       384 2.39413E+01
 -1       385 2.51166E+01
 -1       386 2.62918E+01
 -1       387 2.62918E+01
 -1       388 2.62918E+01
 -1       389 2.86321E+01
 -1       390 3.09723E+01
 -1       391 3.09723E+01
 -1       392 3.09723E+01
 -1       393 3.11104E+01
 -1       394 3.11104E+01
 -1       395 2.46230E+01
 -1       396 2.28529E+01
 -1       397 2.34203E+01
 -1       398 2.37041E+01
 -1       399 2.59891E+01
 -1       400 2.53624E+01
 -1       401 2.31395E+01
 -1       402 2.38848E+01
 -1       403 2.38058E+01
 -1       404 3.09723E+01
 -1       405 3.09723E+01
 -1       406 3.11662E+01
 -1       407 3.11662E+01
 -1       408 3.11662E+01
 -1       409 2.80072E+01
 -1       410 2.48482E+01
 -1       411 2.30782E+01
 -1       412 2.13081E+01
 -1       413 2.27953E+01
 -1       414 2.32497E+01
 -1       415 2.37041E+01
 -1       416 2.59891E+01
 -1       417 2.82741E+01
 -1       418 2.82741E+01
 -1       419 2.82741E+01
 -1       420 2.60512E+01
 -1       421 2.38284E+01
 -1       422 2.38284E+01
 -1       423 2.38284E+01
 -1       424 2.13197E+01
 -1       425 2.61460E+01
 -1       426 3.09723E+01
 -1       427 3.09723E+01
 -1       428 3.09723E+01
 -1       429 3.11662E+01
 -1       430 3.11662E+01
 -1       431 2.48482E+01
 -1       432 2.27953E+01
 -1       433 2.50570E+01
 -1       434 2.82741E+01
 -1       435 2.82741E+01
 -1       436 2.46693E+01
 -1       437 2.38284E+01
 -1       438 3.03741E+01
 -1       439 3.03741E+01
 -1       440 3.11662E+01
 -1       441 3.11662E+01
 -1       442 3.11662E+01
 -1       443 2.80072E+01
 -1       444 2.48482E+01
 -1       445 2.27953E+01
 -1       446 2.46026E+01
 -1       447 2.64099E+01
 -1       448 2.73420E+01
 -1       449 2.82741E+01
 -1       450 2.82741E+01
 -1       451 2.82741E+01
 -1       452 2.68922E+01
 -1       453 2.55102E+01
 -1       454 2.46693E+01
 -1       455 2.38284E+01
 -1       456 2.97758E+01
 -1       457 2.97758E+01
 -1       458 2.97758E+01
 -1       459 3.11849E+01
 -1       460 3.11849E+01
 -1       461 2.28888E+01
 -1       462 2.64099E+01
 -1       463 2.73420E+01
 -1       464 2.68922E+01
 -1       465 2.55102E+01
 -1       466 2.35108E+01
 -1       467 3.04677E+01
 -1       468 3.04677E+01
 -1       469 3.12036E+01
 -1       470 3.12036E+01
 -1       471 3.12036E+01
 -1       472 2.76234E+01
 -1       473 2.40431E+01
 -1       474 2.29824E+01
 -1       475 2.46961E+01
 -1       476 2.64099E+01
 -1       477 2.64099E+01
 -1       478 2.64099E+01
 -1       479 2.59600E+01
 -1       480 2.55102E+01
 -1       481 2.55102E+01
 -1       482 2.55102E+01
 -1       483 2.43517E+01
 -1       484 2.31932E+01
 -1       485 2.48671E+01
 -1       486 2.80133E+01
 -1       487 3.11596E+01
 -1       488 3.11596E+01
 -1       489 3.11596E+01
 -1       490 3.12036E+01
 -1       491 3.12036E+01
 -1       492 2.40431E+01
 -1       493 2.29824E+01
 -1       494 2.50304E+01
 -1       495 2.52143E+01
 -1       496 2.47645E+01
 -1       497 2.46065E+01
 -1       498 2.31932E+01
 -1       499 2.48671E+01
 -1       500 3.11596E+01
 -1       501 3.11596E+01
 -1       502 3.12036E+01
 -1       503 3.12036E+01
 -1       504 3.12036E+01
 -1       505 2.76234E+01
 -1       506 2.40431E+01
 -1       507 2.27287E+01
 -1       508 2.14142E+01
 -1       509 2.29824E+01
 -1       510 2.33167E+01
 -1       511 2.36510E+01
 -1       512 2.38349E+01
 -1       513 2.40188E+01
 -1       514 2.40188E+01
 -1       515 2.40188E+01
 -1       516 2.38608E+01
 -1       517 2.37028E+01
 -1       518 2.34480E+01
 -1       519 2.31932E+01
 -1       520 2.14636E+01
 -1       521 2.31654E+01
 -1       522 2.48671E+01
 -1       523 2.80133E+01
 -1       524 3.11596E+01
 -1       525 3.11596E+01
 -1       526 3.11596E+01
 -1       527 3.11455E+01
 -1       528 3.11455E+01
 -1       529 2.41731E+01
 -1       530 2.28586E+01
 -1       531 2.31861E+01
 -1       532 2.36510E+01
 -1       533 2.38349E+01
 -1       534 2.38608E+01
 -1       535 2.37028E+01
 -1       536 2.32847E+01
 -1       537 2.28813E+01
 -1       538 2.45830E+01
 -1       539 3.11063E+01
 -1       540 3.11063E+01
 -1       541 3.10874E+01
 -1       542 3.10874E+01
 -1       543 3.10874E+01
 -1       544 2.76952E+01
 -1       545 2.43030E+01
 -1       546 2.43030E+01
 -1       547 2.43030E+01
 -1       548 2.38464E+01
 -1       549 2.33898E+01
 -1       550 2.35204E+01
 -1       551 2.36510E+01
 -1       552 2.36510E+01
 -1       553 2.36510E+01
 -1       554 2.36769E+01
 -1       555 2.37028E+01
 -1       556 2.37028E+01
 -1       557 2.37028E+01
 -1       558 2.35395E+01
 -1       559 2.33762E+01
 -1       560 2.38375E+01
 -1       561 2.42989E+01
 -1       562 2.42989E+01
 -1       563 2.42989E+01
 -1       564 2.76760E+01
 -1       565 3.10531E+01
 -1       566 3.10531E+01
 -1       567 3.10531E+01
 -1       568 3.09479E+01
 -1       569 3.09479E+01
 -1       570 2.58533E+01
 -1       571 2.58533E+01
 -1       572 2.39149E+01
 -1       573 2.38947E+01
 -1       574 2.58497E+01
 -1       575 2.58497E+01
 -1       576 3.09273E+01
 -1       577 3.09273E+01
 -1       578 3.08084E+01
 -1       579 3.08084E+01
 -1       580 3.08084E+01
 -1       581 2.91060E+01
 -1       582 2.74036E+01
 -1       583 2.74036E+01
 -1       584 2.74036E+01
 -1       585 2.59218E+01
 -1       586 2.44399E+01
 -1       587 2.28378E+01
 -1       588 2.12357E+01
 -1       589 2.12638E+01
 -1       590 2.28386E+01
 -1       591 2.44133E+01
 -1       592 2.59069E+01
 -1       593 2.74006E+01
 -1       594 2.74006E+01
 -1       595 2.74006E+01
 -1       596 2.91010E+01
 -1       597 3.08015E+01
 -1       598 3.08015E+01
 -1       599 3.08015E+01
 -1       600 2.74036E+01
 -1       601 2.74036E+01
 -1       602 2.44399E+01
 -1       603 2.12357E+01
 -1       604 2.12638E+01
 -1       605 2.44133E+01
 -1       606 2.74006E+01
 -1       607 2.74006E+01
 -1       608 2.74036E+01
 -1       609 2.74036E+01
 -1       610 2.74036E+01
 -1       611 2.59218E+01
 -1       612 2.44399E+01
 -1       613 2.28378E+01
 -1       614 2.12357E+01
 -1       615 2.12638E+01
 -1       616 2.28386E+01
 -1       617 2.44133E+01
 -1       618 2.59069E+01
 -1       619 2.74006E+01
 -1       620 2.74006E+01
 -1       621 2.74006E+01
 -1       622 2.90608E+01
 -1       623 2.77019E+01
 -1       624 2.60998E+01
 -1       625 2.61150E+01
 -1       626 2.76898E+01
 -1       627 2.90615E+01
 -1       628 3.07179E+01
 -1       629 3.08409E+01
 -1       630 3.09638E+01
 -1       631 3.09638E+01
 -1       632 3.09638E+01
 -1       633 3.02679E+01
 -1       634 2.95720E+01
 -1       635 2.95962E+01
 -1       636 2.96204E+01
 -1       637 3.02933E+01
 -1       638 3.09663E+01
 -1       639 3.09663E+01
 -1       640 3.09663E+01
 -1       641 3.08444E+01
 -1       642 3.07224E+01
 -1       643 3.07179E+01
 -1       644 3.09638E+01
 -1       645 3.09638E+01
 -1       646 2.95720E+01
 -1       647 2.96204E+01
 -1       648 3.09663E+01
 -1       649 3.09663E+01
 -1       650 3.07224E+01
 -1       651 3.07179E+01
 -1       652 3.08409E+01
 -1       653 3.09638E+01
 -1       654 3.09638E+01
 -1       655 3.09638E+01
 -1       656 3.02679E+01
 -1       657 2.95720E+01
 -1       658 2.95962E+01
 -1       659 2.96204E+01
 -1       660 3.02933E+01
 -1       661 3.09663E+01
 -1       662 3.09663E+01
 -1       663 3.09663E+01
 -1       664 3.08444E+01
 -1       665 3.07224E+01
 -1       666 3.08162E+01
 -1       667 3.10962E+01
 -1       668 3.12413E+01
 -1       669 3.12413E+01
 -1       670 3.11736E+01
 -1       671 3.11736E+01
 -1       672 3.10726E+01
 -1       673 3.07732E+01
 -1       674 3.08162E+01
 -1       675 3.10962E+01
 -1       676 3.12413E+01
 -1       677 3.12413E+01
 -1       678 3.11736E+01
 -1       679 3.11736E+01
 -1       680 3.10726E+01
 -1       681 3.07732E+01
 -1       682 2.72711E+01
 -1       683 2.72711E+01
 -1       684 2.63247E+01
 -1       685 2.26930E+01
 -1       686 2.26930E+01
 -1       687 2.41697E+01
 -1       688 2.41697E+01
 -1       689 2.43331E+01
 -1       690 2.71551E+01
 -1       691 2.71551E+01
 -1       692 3.07584E+01
 -1       693 3.07584E+01
 -1       694 2.72711E+01
 -1       695 2.72711E+01
 -1       696 2.63247E+01
 -1       697 2.13191E+01
 -1       698 2.43331E+01
 -1       699 2.71551E+01
 -1       700 2.71551E+01
 -1       701 3.08049E+01
 -1       702 3.08049E+01
 -1       703 3.10546E+01
 -1       704 3.10546E+01
 -1       705 2.43977E+01
 -1       706 2.43977E+01
 -1       707 2.40452E+01
 -1       708 2.37041E+01
 -1       709 2.37041E+01
 -1       710 2.24507E+01
 -1       711 2.24507E+01
 -1       712 2.39413E+01
 -1       713 2.62918E+01
 -1       714 2.62918E+01
 -1       715 3.09723E+01
 -1       716 3.09723E+01
 -1       717 3.11662E+01
 -1       718 3.11662E+01
 -1       719 2.48482E+01
 -1       720 2.13081E+01
 -1       721 2.27953E+01
 -1       722 2.37041E+01
 -1       723 2.82741E+01
 -1       724 2.82741E+01
 -1       725 2.38284E+01
 -1       726 2.38284E+01
 -1       727 2.13197E+01
 -1       728 3.09723E+01
 -1       729 3.09723E+01
 -1       730 3.11662E+01
 -1       731 3.11662E+01
 -1       732 2.48482E+01
 -1       733 2.27953E+01
 -1       734 2.64099E+01
 -1       735 2.82741E+01
 -1       736 2.82741E+01
 -1       737 2.55102E+01
 -1       738 2.38284E+01
 -1       739 2.97758E+01
 -1       740 2.97758E+01
 -1       741 3.12036E+01
 -1       742 3.12036E+01
 -1       743 2.40431E+01
 -1       744 2.29824E+01
 -1       745 2.64099E+01
 -1       746 2.64099E+01
 -1       747 2.55102E+01
 -1       748 2.55102E+01
 -1       749 2.31932E+01
 -1       750 2.48671E+01
 -1       751 3.11596E+01
 -1       752 3.11596E+01
 -1       753 3.12036E+01
 -1       754 3.12036E+01
 -1       755 2.40431E+01
 -1       756 2.14142E+01
 -1       757 2.29824E+01
 -1       758 2.36510E+01
 -1       759 2.40188E+01
 -1       760 2.40188E+01
 -1       761 2.37028E+01
 -1       762 2.31932E+01
 -1       763 2.14636E+01
 -1       764 2.48671E+01
 -1       765 3.11596E+01
 -1       766 3.11596E+01
 -1       767 3.10874E+01
 -1       768 3.10874E+01
 -1       769 2.43030E+01
 -1       770 2.43030E+01
 -1       771 2.33898E+01
 -1       772 2.36510E+01
 -1       773 2.36510E+01
 -1       774 2.37028E+01
 -1       775 2.37028E+01
 -1       776 2.33762E+01
 -1       777 2.42989E+01
 -1       778 2.42989E+01
 -1       779 3.10531E+01
 -1       780 3.10531E+01
 -1       781 3.08084E+01
 -1       782 3.08084E+01
 -1       783 2.74036E+01
 -1       784 2.74036E+01
 -1       785 2.44399E+01
 -1       786 2.12357E+01
 -1       787 2.12638E+01
 -1       788 2.44133E+01
 -1       789 2.74006E+01
 -1       790 2.74006E+01
 -1       791 3.08015E+01
 -1       792 3.08015E+01
 -1       793 2.74036E+01
 -1       794 2.74036E+01
 -1       795 2.44399E+01
 -1       796 2.12357E+01
 -1       797 2.12638E+01
 -1       798 2.44133E+01
 -1       799 2.74006E+01
 -1       800 2.74006E+01
 -1       801 3.07179E+01
 -1       802 3.09638E+01
 -1       803 3.09638E+01
 -1       804 2.95720E+01
 -1       805 2.96204E+01
 -1       806 3.09663E+01
 -1       807 3.09663E+01
 -1       808 3.07224E+01
 -1       809 3.07179E+01
 -1       810 3.09638E+01
 -1       811 3.09638E+01
 -1       812 2.95720E+01
 -1       813 2.96204E+01
 -1       814 3.09663E+01
 -1       815 3.09663E+01
 -1       816 3.07224E+01
 -1       817 3.08162E+01
 -1       818 3.09562E+01
 -1       819 3.10962E+01
 -1       820 3.11688E+01
 -1       821 3.12413E+01
 -1       822 3.12413E+01
 -1       823 3.12413E+01
 -1       824 3.12075E+01
 -1       825 3.11736E+01
 -1       826 3.11736E+01
 -1       827 3.11736E+01
 -1       828 3.11231E+01
 -1       829 3.10726E+01
 -1       830 3.09229E+01
 -1       831 3.07732E+01
 -1       832 3.08162E+01
 -1       833 3.10962E+01
 -1       834 3.12413E+01
 -1       835 3.12413E+01
 -1       836 3.11736E+01
 -1       837 3.11736E+01
 -1       838 3.10726E+01
 -1       839 3.07732E+01
 -1       840 3.08162E+01
 -1       841 3.09562E+01
 -1       842 3.10962E+01
 -1       843 3.11688E+01
 -1       844 3.12413E+01
 -1       845 3.12413E+01
 -1       846 3.12413E+01
 -1       847 3.12075E+01
 -1       848 3.11736E+01
 -1       849 3.11736E+01
 -1       850 3.11736E+01
 -1       851 3.11231E+01
 -1       852 3.10726E+01
 -1       853 3.09229E+01
 -1       854 3.07732E+01
 -1       855 2.90437E+01
 -1       856 2.87105E+01
 -1       857 2.69672E+01
 -1       858 2.69672E+01
 -1       859 2.76716E+01
 -1       860 2.76716E+01
 -1       861 2.77028E+01
 -1       862 2.89642E+01
 -1       863 2.72711E+01
 -1       864 2.72711E+01
 -1       865 2.72711E+01
 -1       866 2.67979E+01
 -1       867 2.63247E+01
 -1       868 2.45088E+01
 -1       869 2.26930E+01
 -1       870 2.26930E+01
 -1       871 2.26930E+01
 -1       872 2.41697E+01
 -1       873 2.41697E+01
 -1       874 2.41697E+01
 -1       875 2.42514E+01
 -1       876 2.43331E+01
 -1       877 2.57441E+01
 -1       878 2.71551E+01
 -1       879 2.71551E+01
 -1       880 2.71551E+01
 -1       881 2.72711E+01
 -1       882 2.72711E+01
 -1       883 2.63247E+01
 -1       884 2.27444E+01
 -1       885 2.43331E+01
 -1       886 2.71551E+01
 -1       887 2.71551E+01
 -1       888 3.07584E+01
 -1       889 3.07584E+01
 -1       890 3.07584E+01
 -1       891 2.90147E+01
 -1       892 2.72711E+01
 -1       893 2.72711E+01
 -1       894 2.72711E+01
 -1       895 2.67979E+01
 -1       896 2.63247E+01
 -1       897 2.13191E+01
 -1       898 2.28261E+01
 -1       899 2.43331E+01
 -1       900 2.57441E+01
 -1       901 2.71551E+01
 -1       902 2.71551E+01
 -1       903 2.71551E+01
 -1       904 2.89800E+01
 -1       905 3.08049E+01
 -1       906 3.08049E+01
 -1       907 3.08049E+01
 -1       908 3.09065E+01
 -1       909 3.09065E+01
 -1       910 2.58344E+01
 -1       911 2.58344E+01
 -1       912 2.51850E+01
 -1       913 2.41372E+01
 -1       914 2.67235E+01
 -1       915 2.67235E+01
 -1       916 3.08886E+01
 -1       917 3.08886E+01
 -1       918 3.10546E+01
 -1       919 3.10546E+01
 -1       920 3.10546E+01
 -1       921 2.77261E+01
 -1       922 2.43977E+01
 -1       923 2.43977E+01
 -1       924 2.43977E+01
 -1       925 2.42215E+01
 -1       926 2.40452E+01
 -1       927 2.38747E+01
 -1       928 2.37041E+01
 -1       929 2.37041E+01
 -1       930 2.37041E+01
 -1       931 2.30774E+01
 -1       932 2.24507E+01
 -1       933 2.24507E+01
 -1       934 2.24507E+01
 -1       935 2.31960E+01
 -1       936 2.39413E+01
 -1       937 2.51166E+01
 -1       938 2.62918E+01
 -1       939 2.62918E+01
 -1       940 2.62918E+01
 -1       941 2.86321E+01
 -1       942 3.09723E+01
 -1       943 3.09723E+01
 -1       944 3.09723E+01
 -1       945 3.11104E+01
 -1       946 3.11104E+01
 -1       947 2.46230E+01
 -1       948 2.28529E+01
 -1       949 2.34203E+01
 -1       950 2.37041E+01
 -1       951 2.59891E+01
 -1       952 2.53624E+01
 -1       953 2.31395E+01
 -1       954 2.38848E+01
 -1       955 2.38058E+01
 -1       956 3.09723E+01
 -1       957 3.09723E+01
 -1       958 3.11662E+01
 -1       959 3.11662E+01
 -1       960 3.11662E+01
 -1       961 2.80072E+01
 -1       962 2.48482E+01
 -1       963 2.30782E+01
 -1       964 2.13081E+01
 -1       965 2.27953E+01
 -1       966 2.32497E+01
 -1       967 2.37041E+01
 -1       968 2.59891E+01
 -1       969 2.82741E+01
 -1       970 2.82741E+01
 -1       971 2.82741E+01
 -1       972 2.60512E+01
 -1       973 2.38284E+01
 -1       974 2.38284E+01
 -1       975 2.38284E+01
 -1       976 2.13197E+01
 -1       977 2.61460E+01
 -1       978 3.09723E+01
 -1       979 3.09723E+01
 -1       980 3.09723E+01
 -1       981 3.11662E+01
 -1       982 3.11662E+01
 -1       983 2.48482E+01
 -1       984 2.27953E+01
 -1       985 2.50570E+01
 -1       986 2.82741E+01
 -1       987 2.82741E+01
 -1       988 2.46693E+01
 -1       989 2.38284E+01
 -1       990 3.03741E+01
 -1       991 3.03741E+01
 -1       992 3.11662E+01
 -1       993 3.11662E+01
 -1       994 3.11662E+01
 -1       995 2.80072E+01
 -1       996 2.48482E+01
 -1       997 2.27953E+01
 -1       998 2.46026E+01
 -1       999 2.64099E+01
 -1      1000 2.73420E+01
 -1      1001 2.82741E+01
 -1      1002 2.82741E+01
 -1      1003 2.82741E+01
 -1      1004 2.68922E+01
 -1      1005 2.55102E+01
 -1      1006 2.46693E+01
 -1      1007 2.38284E+01
 -1      1008 2.97758E+01
 -1      1009 2.97758E+01
 -1      1010 2.97758E+01
 -1      1011 3.11849E+01
 -1      1012 3.11849E+01
 -1      1013 2.28888E+01
 -1      1014 2.64099E+01
 -1      1015 2.73420E+01
 -1      1016 2.68922E+01
 -1      1017 2.55102E+01
 -1      1018 2.35108E+01
 -1      1019 3.04677E+01
 -1      1020 3.04677E+01
 -1      1021 3.12036E+01
 -1      1022 3.12036E+01
 -1      1023 3.12036E+01
 -1      1024 2.76234E+01
 -1      1025 2.40431E+01
 -1      1026 2.29824E+01
 -1      1027 2.46961E+01
 -1      1028 2.64099E+01
 -1      1029 2.64099E+01
 -1      1030 2.64099E+01
 -1      1031 2.59600E+01
 -1      1032 2.55102E+01
 -1      1033 2.55102E+01
 -1      1034 2.55102E+01
 -1      1035 2.43517E+01
 -1      1036 2.31932E+01
 -1      1037 2.48671E+01
 -1      1038 2.80133E+01
 -1      1039 3.11596E+01
 -1      1040 3.11596E+01
 -1      1041 3.11596E+01
 -1      1042 3.12036E+01
 -1      1043 3.12036E+01
 -1      1044 2.40431E+01
 -1      1045 2.29824E+01
 -1      1046 2.50304E+01
 -1      1047 2.52143E+01
 -1      1048 2.47645E+01
 -1      1049 2.46065E+01
 -1      1050 2.31932E+01
 -1      1051 2.48671E+01
 -1      1052 3.11596E+01
 -1      1053 3.11596E+01
 -1      1054 3.12036E+01
 -1      1055 3.12036E+01
 -1      1056 3.12036E+01
 -1      1057 2.76234E+01
 -1      1058 2.40431E+01
 -1      1059 2.27287E+01
 -1      1060 2.14142E+01
 -1      1061 2.29824E+01
 -1      1062 2.33167E+01
 -1      1063 2.36510E+01
 -1      1064 2.38349E+01
 -1      1065 2.40188E+01
 -1      1066 2.40188E+01
 -1      1067 2.40188E+01
 -1      1068 2.38608E+01
 -1      1069 2.37028E+01
 -1      1070 2.34480E+01
 -1      1071 2.31932E+01
 -1      1072 2.14636E+01
 -1      1073 2.31654E+01
 -1      1074 2.48671E+01
 -1      1075 2.80133E+01
 -1      1076 3.11596E+01
 -1      1077 3.11596E+01
 -1      1078 3.11596E+01
 -1      1079 3.11455E+01
 -1      1080 3.11455E+01
 -1      1081 2.41731E+01
 -1      1082 2.28586E+01
 -1      1083 2.31861E+01
 -1      1084 2.36510E+01
 -1      1085 2.38349E+01
 -1      1086 2.38608E+01
 -1      1087 2.37028E+01
 -1      1088 2.32847E+01
 -1      1089 2.28813E+01
 -1      1090 2.45830E+01
 -1      1091 3.11063E+01
 -1      1092 3.11063E+01
 -1      1093 3.10874E+01
 -1      1094 3.10874E+01
 -1      1095 3.10874E+01
 -1      1096 2.76952E+01
 -1      1097 2.43030E+01
 -1      1098 2.43030E+01
 -1      1099 2.43030E+01
 -1      1100 2.38464E+01
 -1      1101 2.33898E+01
 -1      1102 2.35204E+01
 -1      1103 2.36510E+01
 -1      1104 2.36510E+01
 -1      1105 2.36510E+01
 -1      1106 2.36769E+01
 -1      1107 2.37028E+01
 -1      1108 2.37028E+01
 -1      1109 2.37028E+01
 -1      1110 2.35395E+01
 -1      1111 2.33762E+01
 -1      1112 2.38375E+01
 -1      1113 2.42989E+01
 -1      1114 2.42989E+01
 -1      1115 2.42989E+01
 -1      1116 2.76760E+01
 -1      1117 3.10531E+01
 -1      1118 3.10531E+01
 -1      1119 3.10531E+01
 -1      1120 3.09479E+01
 -1      1121 3.09479E+01
 -1      1122 2.58533E+01
 -1      1123 2.58533E+01
 -1      1124 2.39149E+01
 -1      1125 2.38947E+01
 -1      1126 2.58497E+01
 -1      1127 2.58497E+01
 -1      1128 3.09273E+01
 -1      1129 3.09273E+01
 -1      1130 3.08084E+01
 -1      1131 3.08084E+01
 -1      1132 3.08084E+01
 -1      1133 2.91060E+01
 -1      1134 2.74036E+01
 -1      1135 2.74036E+01
 -1      1136 2.74036E+01
 -1      1137 2.59218E+01
 -1      1138 2.44399E+01
 -1      1139 2.28378E+01
 -1      1140 2.12357E+01
 -1      1141 2.12638E+01
 -1      1142 2.28386E+01
 -1      1143 2.44133E+01
 -1      1144 2.59069E+01
 -1      1145 2.74006E+01
 -1      1146 2.74006E+01
 -1      1147 2.74006E+01
 -1      1148 2.91010E+01
 -1      1149 3.08015E+01
 -1      1150 3.08015E+01
 -1      1151 3.08015E+01
 -1      1152 2.74036E+01
 -1      1153 2.74036E+01
 -1      1154 2.44399E+01
 -1      1155 2.12357E+01
 -1      1156 2.12638E+01
 -1      1157 2.44133E+01
 -1      1158 2.74006E+01
 -1      1159 2.74006E+01
 -1      1160 2.74036E+01
 -1      1161 2.74036E+01
 -1      1162 2.74036E+01
 -1      1163 2.59218E+01
 -1      1164 2.44399E+01
 -1      1165 2.28378E+01
 -1      1166 2.12357E+01
 -1      1167 2.12638E+01
 -1      1168 2.28386E+01
 -1      1169 2.44133E+01
 -1      1170 2.59069E+01
 -1      1171 2.74006E+01
 -1      1172 2.74006E+01
 -1      1173 2.74006E+01
 -1      1174 2.90608E+01
 -1      1175 2.77019E+01
 -1      1176 2.60998E+01
 -1      1177 2.61150E+01
 -1      1178 2.76898E+01
 -1      1179 2.90615E+01
 -1      1180 3.07179E+01
 -1      1181 3.08409E+01
 -1      1182 3.09638E+01
 -1      1183 3.09638E+01
 -1      1184 3.09638E+01
 -1      1185 3.02679E+01
 -1      1186 2.95720E+01
 -1      1187 2.95962E+01
 -1      1188 2.96204E+01
 -1      1189 3.02933E+01
 -1      1190 3.09663E+01
 -1      1191 3.09663E+01
 -1      1192 3.09663E+01
 -1      1193 3.08444E+01
 -1      1194 3.07224E+01
 -1      1195 3.07179E+01
 -1      1196 3.09638E+01
 -1      1197 3.09638E+01
 -1      1198 2.95720E+01
 -1      1199 2.96204E+01
 -1      1200 3.09663E+01
 -1      1201 3.09663E+01
 -1      1202 3.07224E+01
 -1      1203 3.07179E+01
 -1      1204 3.08409E+01
 -1      1205 3.09638E+01
 -1      1206 3.09638E+01
 -1      1207 3.09638E+01
 -1      1208 3.02679E+01
 -1      1209 2.95720E+01
 -1      1210 2.95962E+01
 -1      1211 2.96204E+01
 -1      1212 3.02933E+01
 -1      1213 3.09663E+01
 -1      1214 3.09663E+01
 -1      1215 3.09663E+01
 -1      1216 3.08444E+01
 -1      1217 3.07224E+01
 -1      1218 2.31743E+01
 -1      1219 2.30037E+01
 -1      1220 2.03847E+01
 -1      1221 1.92870E+01
 -1      1222 2.23916E+01
 -1      1223 2.31369E+01
 -1      1224 2.25494E+01
 -1      1225 2.34965E+01
 -1      1226 2.57815E+01
 -1      1227 2.56951E+01
 -1      1228 2.34722E+01
 -1      1229 2.30805E+01
 -1      1230 1.97646E+01
 -1      1231 2.48494E+01
 -1      1232 2.57815E+01
 -1      1233 2.56951E+01
 -1      1234 2.43132E+01
 -1      1235 2.05291E+01
 -1      1236 1.93275E+01
 -1      1237 2.44065E+01
 -1      1238 2.44065E+01
 -1      1239 2.40264E+01
 -1      1240 2.40264E+01
 -1      1241 1.94525E+01
 -1      1242 2.26280E+01
 -1      1243 2.30271E+01
 -1      1244 2.32110E+01
 -1      1245 2.32807E+01
 -1      1246 2.31227E+01
 -1      1247 2.27281E+01
 -1      1248 2.28317E+01
 -1      1249 2.29623E+01
 -1      1250 1.99380E+01
 -1      1251 1.99687E+01
 -1      1252 2.29829E+01
 -1      1253 2.28196E+01
 -1      1254 2.23034E+01
 -1      1255 2.23034E+01
 -1      1256 2.23034E+01
 -1      1257 1.96844E+01
 -1      1258 1.70653E+01
 -1      1259 1.65944E+01
 -1      1260 1.61234E+01
 -1      1261 1.92280E+01
 -1      1262 2.23326E+01
 -1      1263 2.23326E+01
 -1      1264 2.23326E+01
 -1      1265 2.23034E+01
 -1      1266 2.27962E+01
 -1      1267 2.01771E+01
 -1      1268 1.96197E+01
 -1      1269 2.27243E+01
 -1      1270 2.23326E+01
 -1      1271 2.23034E+01
 -1      1272 2.27962E+01
 -1      1273 2.32889E+01
 -1      1274 2.32889E+01
 -1      1275 2.32889E+01
 -1      1276 2.32025E+01
 -1      1277 2.31161E+01
 -1      1278 2.31161E+01
 -1      1279 2.31161E+01
 -1      1280 2.27243E+01
 -1      1281 2.23326E+01
 -1      1282 1.95186E+01
 -1      1283 2.32889E+01
 -1      1284 2.32889E+01
 -1      1285 2.31161E+01
 -1      1286 2.31161E+01
 -1      1287 1.97812E+01
 -1      1288 1.67339E+01
 -1      1289 2.00114E+01
 -1      1290 2.32889E+01
 -1      1291 2.32889E+01
 -1      1292 2.32889E+01
 -1      1293 2.32025E+01
 -1      1294 2.31161E+01
 -1      1295 2.31161E+01
 -1      1296 2.31161E+01
 -1      1297 2.01730E+01
 -1      1298 1.72299E+01
 -1      1299 1.62032E+01
 -1      1300 2.28460E+01
 -1      1301 2.28460E+01
 -1      1302 2.28293E+01
 -1      1303 2.28293E+01
 -1      1304 1.64708E+01
 -1      1305 1.56726E+01
 -1      1306 1.90379E+01
 -1      1307 2.24032E+01
 -1      1308 2.24032E+01
 -1      1309 2.24032E+01
 -1      1310 2.24729E+01
 -1      1311 2.25426E+01
 -1      1312 2.25426E+01
 -1      1313 2.25426E+01
 -1      1314 1.91272E+01
 -1      1315 1.57118E+01
 -1      1316 1.89731E+01
 -1      1317 2.24032E+01
 -1      1318 2.24032E+01
 -1      1319 2.25426E+01
 -1      1320 2.25426E+01
 -1      1321 1.89874E+01
 -1      1322 2.22736E+01
 -1      1323 2.23384E+01
 -1      1324 2.24032E+01
 -1      1325 2.24032E+01
 -1      1326 2.24032E+01
 -1      1327 2.24729E+01
 -1      1328 2.25426E+01
 -1      1329 2.25426E+01
 -1      1330 2.25426E+01
 -1      1331 2.24028E+01
 -1      1332 2.22630E+01
 -1      1333 2.22736E+01
 -1      1334 2.23384E+01
 -1      1335 1.93140E+01
 -1      1336 1.93886E+01
 -1      1337 2.24028E+01
 -1      1338 2.22630E+01
 -1      1339 2.22736E+01
 -1      1340 2.22736E+01
 -1      1341 2.22736E+01
 -1      1342 1.92493E+01
 -1      1343 1.62249E+01
 -1      1344 1.62297E+01
 -1      1345 1.62345E+01
 -1      1346 1.92488E+01
 -1      1347 2.22630E+01
 -1      1348 2.22630E+01
 -1      1349 2.22630E+01
 -1      1350 1.61223E+01
 -1      1351 1.61223E+01
 -1      1352 1.33277E+01
 -1      1353 1.26576E+01
 -1      1354 1.61332E+01
 -1      1355 1.61332E+01
 -1      1356 1.61223E+01
 -1      1357 1.66151E+01
 -1      1358 1.64395E+01
 -1      1359 1.61539E+01
 -1      1360 1.66635E+01
 -1      1361 1.62718E+01
 -1      1362 1.30702E+01
 -1      1363 1.63477E+01
 -1      1364 1.53631E+01
 -1      1365 1.52077E+01
 -1      1366 1.66635E+01
 -1      1367 1.37204E+01
 -1      1368 1.21962E+01
 -1      1369 1.55615E+01
 -1      1370 1.43878E+01
 -1      1371 1.46503E+01
 -1      1372 1.55429E+01
 -1      1373 1.21275E+01
 -1      1374 1.59051E+01
 -1      1375 1.59698E+01
 -1      1376 1.58760E+01
 -1      1377 1.58161E+01
 -1      1378 1.60331E+01
 -1      1379 1.58933E+01
 -1      1380 1.59051E+01
 -1      1381 1.59051E+01
 -1      1382 1.27868E+01
 -1      1383 1.26620E+01
 -1      1384 1.58933E+01
 -1      1385 1.58933E+01
 -1      1386 9.94121E+00
 -1      1387 9.94121E+00
 -1      1388 9.94121E+00
 -1      1389 9.76563E+00
 -1      1390 9.59005E+00
 -1      1391 9.39091E+00
 -1      1392 9.19176E+00
 -1      1393 9.56285E+00
 -1      1394 9.93393E+00
 -1      1395 9.93393E+00
 -1      1396 9.93393E+00
 -1      1397 9.94121E+00
 -1      1398 9.94121E+00
 -1      1399 9.59005E+00
 -1      1400 9.19176E+00
 -1      1401 1.00725E+01
 -1      1402 1.00725E+01
 -1      1403 9.94121E+00
 -1      1404 9.94121E+00
 -1      1405 9.94121E+00
 -1      1406 9.76563E+00
 -1      1407 9.59005E+00
 -1      1408 9.39091E+00
 -1      1409 9.19176E+00
 -1      1410 9.70137E+00
 -1      1411 1.02110E+01
 -1      1412 1.02110E+01
 -1      1413 1.02110E+01
 -1      1414 9.67388E+00
 -1      1415 9.67388E+00
 -1      1416 8.51371E+00
 -1      1417 8.24556E+00
 -1      1418 1.02110E+01
 -1      1419 1.02110E+01
 -1      1420 9.40655E+00
 -1      1421 9.40655E+00
 -1      1422 9.40655E+00
 -1      1423 8.42196E+00
 -1      1424 7.43737E+00
 -1      1425 7.36836E+00
 -1      1426 7.29936E+00
 -1      1427 8.75516E+00
 -1      1428 1.02110E+01
 -1      1429 1.02110E+01
 -1      1430 1.02110E+01
 -1      1431 9.06321E+00
 -1      1432 9.06321E+00
 -1      1433 6.90489E+00
 -1      1434 7.02871E+00
 -1      1435 9.37711E+00
 -1      1436 9.37711E+00
 -1      1437 8.71986E+00
 -1      1438 8.71986E+00
 -1      1439 8.71986E+00
 -1      1440 7.54613E+00
 -1      1441 6.37240E+00
 -1      1442 6.56524E+00
 -1      1443 6.75807E+00
 -1      1444 7.65066E+00
 -1      1445 8.54324E+00
 -1      1446 8.54324E+00
 -1      1447 8.54324E+00
 -1      1448 9.12819E+00
 -1      1449 9.12819E+00
 -1      1450 7.86058E+00
 -1      1451 7.92381E+00
 -1      1452 9.03342E+00
 -1      1453 9.03342E+00
 -1      1454 9.53652E+00
 -1      1455 9.53652E+00
 -1      1456 9.53652E+00
 -1      1457 9.44264E+00
 -1      1458 9.34875E+00
 -1      1459 9.21915E+00
 -1      1460 9.08955E+00
 -1      1461 9.30657E+00
 -1      1462 9.52359E+00
 -1      1463 9.52359E+00
 -1      1464 9.52359E+00
 -1      1465 9.53652E+00
 -1      1466 9.53652E+00
 -1      1467 9.34875E+00
 -1      1468 9.08955E+00
 -1      1469 9.52359E+00
 -1      1470 9.52359E+00
 -1      1471 9.53652E+00
 -1      1472 9.53652E+00
 -1      1473 9.53652E+00
 -1      1474 9.44264E+00
 -1      1475 9.34875E+00
 -1      1476 9.21915E+00
 -1      1477 9.08955E+00
 -1      1478 9.30657E+00
 -1      1479 9.52359E+00
 -1      1480 9.52359E+00
 -1      1481 9.52359E+00
 -3
    1PSTEP                        21           1           1          
    1PGM                1.000000E+00                                  
    1PGK                1.575735E+12                                  
    1PHID                         -1                                  
    1PSUBC                         0                                  
    1PMODE                         6                                  
  100CL  106 199784.4837        1481                     2    6MODAL      1
 -4  DISP        4    1
 -5  D1          1    2    1    0
 -5  D2          1    2    2    0
 -5  D3          1    2    3    0
 -5  ALL         1    2    0    0    1ALL
 -1         1 7.11906E+02 3.28753E+02-1.33473E+04
 -1         2 8.68378E+02 5.63322E+02-1.26077E+04
 -1         3 1.13857E+03 8.97116E+02-1.16199E+04
 -1         4 1.30421E+03 1.04647E+03-1.02221E+04
 -1         5 1.42772E+03 1.13703E+03-8.59472E+03
 -1         6 1.52146E+03 1.18981E+03-6.78215E+03
 -1         7 1.57767E+03 1.21882E+03-4.84986E+03
 -1         8 1.59776E+03 1.23572E+03-2.86593E+03
 -1         9 1.58658E+03 1.25441E+03-8.78716E+02
 -1        10 1.53476E+03 1.31130E+03 1.03663E+03
 -1        11 1.49960E+03 1.34869E+03 2.89427E+03
 -1        12 9.90189E+02 4.56514E+02-1.31449E+04
 -1        13 1.18942E+03 8.79455E+02-1.05297E+04
 -1        14 1.45116E+03 1.11980E+03-7.18444E+03
 -1        15 1.58828E+03 1.21107E+03-3.33213E+03
 -1        16 1.59383E+03 1.25245E+03 6.97266E+02
 -1        17 1.56104E+03 1.31920E+03 4.63008E+03
 -1        18 1.33108E+03 7.04989E+02-1.27036E+04
 -1        19 1.31289E+03 7.57382E+02-1.10713E+04
 -1        20 1.35379E+03 9.21558E+02-9.40625E+03
 -1        21 1.43842E+03 1.03843E+03-7.65326E+03
 -1        22 1.51972E+03 1.12208E+03-5.78977E+03
 -1        23 1.57619E+03 1.17483E+03-3.82900E+03
 -1        24 1.61045E+03 1.20457E+03-1.81111E+03
 -1        25 1.61744E+03 1.21946E+03 2.26876E+02
 -1        26 1.61147E+03 1.22821E+03 2.26080E+03
 -1        27 1.60996E+03 1.24258E+03 4.28030E+03
 -1        28 1.62192E+03 1.24572E+03 6.29784E+03
 -1        29 1.48023E+03 8.79756E+02-1.18492E+04
 -1        30 1.47018E+03 1.01006E+03-8.19599E+03
 -1        31 1.57281E+03 1.14855E+03-4.35655E+03
 -1        32 1.62090E+03 1.19077E+03-2.99803E+02
 -1        33 1.60840E+03 1.17242E+03 3.77835E+03
 -1        34 1.63012E+03 1.15122E+03 7.81874E+03
 -1        35 1.56816E+03 1.02245E+03-1.07423E+04
 -1        36 1.54692E+03 1.04188E+03-8.79743E+03
 -1        37 1.54855E+03 1.10206E+03-6.86751E+03
 -1        38 1.57588E+03 1.14877E+03-4.89640E+03
 -1        39 1.60250E+03 1.17564E+03-2.88647E+03
 -1        40 1.61299E+03 1.18163E+03-8.48672E+02
 -1        41 1.61082E+03 1.16820E+03 1.19326E+03
 -1        42 1.59361E+03 1.13614E+03 3.21714E+03
 -1        43 1.57689E+03 1.09471E+03 5.21411E+03
 -1        44 1.58066E+03 1.04903E+03 7.18981E+03
 -1        45 1.60494E+03 1.03155E+03 9.17535E+03
 -1        46 1.61006E+03 1.14591E+03-9.41463E+03
 -1        47 1.58870E+03 1.17885E+03-5.42296E+03
 -1        48 1.60513E+03 1.19225E+03-1.38545E+03
 -1        49 1.57217E+03 1.12878E+03 2.64844E+03
 -1        50 1.50985E+03 9.90644E+02 6.53444E+03
 -1        51 1.53944E+03 8.78857E+02 1.03233E+04
 -1        52 1.61766E+03 1.24313E+03-7.91091E+03
 -1        53 1.60255E+03 1.24485E+03-5.89971E+03
 -1        54 1.59654E+03 1.23965E+03-3.89184E+03
 -1        55 1.59323E+03 1.22698E+03-1.87943E+03
 -1        56 1.58182E+03 1.20000E+03 1.29359E+02
 -1        57 1.54955E+03 1.15148E+03 2.11351E+03
 -1        58 1.50460E+03 1.08063E+03 4.05030E+03
 -1        59 1.44911E+03 9.86215E+02 5.91677E+03
 -1        60 1.40134E+03 8.70696E+02 7.71349E+03
 -1        61 1.39756E+03 7.39830E+02 9.45075E+03
 -1        62 1.42767E+03 6.99403E+02 1.12112E+04
 -1        63 1.59855E+03 1.31139E+03-6.28098E+03
 -1        64 1.57814E+03 1.27921E+03-2.29966E+03
 -1        65 1.53290E+03 1.19638E+03 1.64273E+03
 -1        66 1.40752E+03 1.02747E+03 5.38248E+03
 -1        67 1.24494E+03 7.40043E+02 8.72228E+03
 -1        68 1.25793E+03 5.04805E+02 1.17964E+04
 -1        69 1.56081E+03 1.36017E+03-4.56304E+03
 -1        70 1.55226E+03 1.34844E+03-2.61523E+03
 -1        71 1.54189E+03 1.30498E+03-6.69410E+02
 -1        72 1.51582E+03 1.25683E+03 1.25981E+03
 -1        73 1.46846E+03 1.19216E+03 3.14666E+03
 -1        74 1.38841E+03 1.10355E+03 4.95610E+03
 -1        75 1.28609E+03 9.82861E+02 6.65025E+03
 -1        76 1.16290E+03 8.21843E+02 8.18917E+03
 -1        77 1.04295E+03 6.20083E+02 9.56916E+03
 -1        78 9.88181E+02 3.58887E+02 1.08289E+04
 -1        79 1.01237E+03 2.75666E+02 1.20508E+04
 -1        80 1.49794E+03 1.40020E+03-2.77548E+03
 -1        81 1.49518E+03 1.31844E+03 9.78136E+02
 -1        82 1.39574E+03 1.19765E+03 4.64572E+03
 -1        83 1.14734E+03 9.80181E+02 7.86381E+03
 -1        84 7.81673E+02 5.66341E+02 1.03022E+04
 -1        85 5.21035E+02-4.61862E+01 1.17782E+04
 -1        86 1.44884E+03 1.41677E+03-9.61262E+02
 -1        87 1.46572E+03 1.38430E+03 8.29748E+02
 -1        88 1.47898E+03 1.32447E+03 2.63500E+03
 -1        89 1.44279E+03 1.27648E+03 4.43263E+03
 -1        90 1.36950E+03 1.21534E+03 6.14905E+03
 -1        91 1.25554E+03 1.12909E+03 7.72935E+03
 -1        92 1.10284E+03 1.00747E+03 9.10337E+03
 -1        93 9.24773E+02 8.36787E+02 1.02061E+04
 -1        94 7.01424E+02 5.91433E+02 1.09983E+04
 -1        95 3.40473E+02 1.11313E+02 1.12604E+04
 -1        96 1.28185E+02-2.10730E+02 1.11981E+04
 -1        97 5.58252E+02 2.63469E+02-1.33449E+04
 -1        98 9.40979E+02 7.19865E+02-1.16310E+04
 -1        99 1.15511E+03 9.14869E+02-8.59973E+03
 -1       100 1.26798E+03 9.80150E+02-4.85160E+03
 -1       101 1.27853E+03 1.00833E+03-8.76995E+02
 -1       102 1.20053E+03 1.08205E+03 2.89374E+03
 -1       103 1.06832E+03 5.92491E+02-1.27146E+04
 -1       104 1.08640E+03 7.38984E+02-9.41608E+03
 -1       105 1.21803E+03 9.02234E+02-5.79429E+03
 -1       106 1.29126E+03 9.66420E+02-1.81176E+03
 -1       107 1.29405E+03 9.85863E+02 2.26383E+03
 -1       108 1.30355E+03 9.95775E+02 6.30180E+03
 -1       109 1.26175E+03 8.29412E+02-1.07484E+04
 -1       110 1.24457E+03 8.83332E+02-6.87298E+03
 -1       111 1.28518E+03 9.42750E+02-2.88914E+03
 -1       112 1.29211E+03 9.36962E+02 1.19567E+03
 -1       113 1.26643E+03 8.77345E+02 5.21967E+03
 -1       114 1.29132E+03 8.30153E+02 9.18141E+03
 -1       115 1.30110E+03 9.95882E+02-7.91464E+03
 -1       116 1.28164E+03 9.94149E+02-3.89442E+03
 -1       117 1.26867E+03 9.62637E+02 1.30458E+02
 -1       118 1.20679E+03 8.66641E+02 4.05652E+03
 -1       119 1.12709E+03 6.97312E+02 7.72183E+03
 -1       120 1.14932E+03 5.78048E+02 1.12197E+04
 -1       121 1.25414E+03 1.08714E+03-4.56518E+03
 -1       122 1.23740E+03 1.04819E+03-6.69818E+02
 -1       123 1.17682E+03 9.56973E+02 3.15032E+03
 -1       124 1.03010E+03 7.91159E+02 6.65766E+03
 -1       125 8.36599E+02 4.96430E+02 9.58234E+03
 -1       126 8.11348E+02 2.59607E+02 1.20651E+04
 -1       127 1.16158E+03 1.13720E+03-9.60916E+02
 -1       128 1.19256E+03 1.06497E+03 2.63520E+03
 -1       129 1.10491E+03 9.77806E+02 6.15324E+03
 -1       130 9.02258E+02 8.11160E+02 9.11088E+03
 -1       131 6.02083E+02 4.73578E+02 1.10129E+04
 -1       132 8.70119E+01-1.63973E+02 1.11946E+04
 -1       133 3.65095E+02 1.60195E+02-1.33384E+04
 -1       134 5.25622E+02 3.44255E+02-1.26305E+04
 -1       135 7.39955E+02 5.49186E+02-1.16405E+04
 -1       136 8.05994E+02 6.41367E+02-1.02311E+04
 -1       137 8.79335E+02 6.90329E+02-8.60328E+03
 -1       138 9.27745E+02 7.22777E+02-6.78652E+03
 -1       139 9.58809E+02 7.42193E+02-4.85290E+03
 -1       140 9.71216E+02 7.49983E+02-2.86646E+03
 -1       141 9.71214E+02 7.60809E+02-8.75430E+02
 -1       142 9.29820E+02 7.95926E+02 1.04161E+03
 -1       143 8.93252E+02 8.23468E+02 2.89233E+03
 -1       144 6.03473E+02 2.83796E+02-1.31644E+04
 -1       145 7.28227E+02 5.31209E+02-1.05440E+04
 -1       146 8.80945E+02 6.80448E+02-7.19506E+03
 -1       147 9.63014E+02 7.35424E+02-3.33414E+03
 -1       148 9.67526E+02 7.60825E+02 7.00229E+02
 -1       149 9.49161E+02 7.99594E+02 4.63477E+03
 -1       150 8.12410E+02 4.75215E+02-1.27240E+04
 -1       151 7.93679E+02 4.67244E+02-1.10859E+04
 -1       152 8.20841E+02 5.58299E+02-9.42353E+03
 -1       153 8.74415E+02 6.29586E+02-7.66677E+03
 -1       154 9.18825E+02 6.82301E+02-5.79769E+03
 -1       155 9.55096E+02 7.13155E+02-3.83379E+03
 -1       156 9.73947E+02 7.29469E+02-1.81221E+03
 -1       157 9.81060E+02 7.38954E+02 2.29262E+02
 -1       158 9.77582E+02 7.44342E+02 2.26617E+03
 -1       159 9.76928E+02 7.50851E+02 4.28603E+03
 -1       160 9.86316E+02 7.47297E+02 6.30496E+03
 -1       161 9.05026E+02 5.48519E+02-1.18592E+04
 -1       162 8.91626E+02 6.14345E+02-8.21022E+03
 -1       163 9.51729E+02 6.95357E+02-4.36288E+03
 -1       164 9.80788E+02 7.21570E+02-2.98565E+02
 -1       165 9.75756E+02 7.10086E+02 3.78605E+03
 -1       166 9.92570E+02 6.99164E+02 7.82593E+03
 -1       167 9.52911E+02 6.33206E+02-1.07527E+04
 -1       168 9.40061E+02 6.32628E+02-8.80980E+03
 -1       169 9.40875E+02 6.66500E+02-6.87712E+03
 -1       170 9.54289E+02 6.95312E+02-4.90366E+03
 -1       171 9.69841E+02 7.11366E+02-2.89113E+03
 -1       172 9.76475E+02 7.15077E+02-8.48667E+02
 -1       173 9.75352E+02 7.07085E+02 1.19754E+03
 -1       174 9.65733E+02 6.86871E+02 3.22452E+03
 -1       175 9.56859E+02 6.61576E+02 5.22387E+03
 -1       176 9.60492E+02 6.36202E+02 7.20083E+03
 -1       177 9.77512E+02 6.28301E+02 9.18591E+03
 -1       178 9.78170E+02 6.98165E+02-9.42121E+03
 -1       179 9.64553E+02 7.14352E+02-5.43033E+03
 -1       180 9.71435E+02 7.21755E+02-1.38655E+03
 -1       181 9.51704E+02 6.83124E+02 2.65576E+03
 -1       182 9.17789E+02 6.00315E+02 6.54708E+03
 -1       183 9.35476E+02 5.44772E+02 1.03334E+04
 -1       184 9.84461E+02 7.50514E+02-7.91737E+03
 -1       185 9.73339E+02 7.54274E+02-5.90596E+03
 -1       186 9.67869E+02 7.49829E+02-3.89632E+03
 -1       187 9.65281E+02 7.42413E+02-1.88107E+03
 -1       188 9.57400E+02 7.26716E+02 1.31325E+02
 -1       189 9.37869E+02 6.97011E+02 2.11972E+03
 -1       190 9.10695E+02 6.53929E+02 4.06127E+03
 -1       191 8.77299E+02 5.96893E+02 5.92970E+03
 -1       192 8.52544E+02 5.26315E+02 7.72820E+03
 -1       193 8.49685E+02 4.51025E+02 9.46825E+03
 -1       194 8.67729E+02 4.49389E+02 1.12258E+04
 -1       195 9.72328E+02 7.91676E+02-6.28491E+03
 -1       196 9.56483E+02 7.75226E+02-2.30228E+03
 -1       197 9.26957E+02 7.25170E+02 1.64727E+03
 -1       198 8.51605E+02 6.21839E+02 5.39450E+03
 -1       199 7.55427E+02 4.51087E+02 8.74215E+03
 -1       200 7.71562E+02 3.33033E+02 1.18099E+04
 -1       201 9.48318E+02 8.16475E+02-4.56693E+03
 -1       202 9.41893E+02 8.16165E+02-2.61728E+03
 -1       203 9.34425E+02 7.91751E+02-6.70106E+02
 -1       204 9.18969E+02 7.62445E+02 1.26255E+03
 -1       205 8.87463E+02 7.22788E+02 3.15308E+03
 -1       206 8.41294E+02 6.70953E+02 4.96624E+03
 -1       207 7.77149E+02 5.98775E+02 6.66330E+03
 -1       208 7.08094E+02 4.98437E+02 8.20840E+03
 -1       209 6.32539E+02 3.75350E+02 9.59238E+03
 -1       210 5.95555E+02 2.28701E+02 1.08478E+04
 -1       211 6.19599E+02 2.34531E+02 1.20775E+04
 -1       212 9.10085E+02 8.47472E+02-2.77810E+03
 -1       213 9.06681E+02 8.01003E+02 9.78922E+02
 -1       214 8.46870E+02 7.27698E+02 4.65262E+03
 -1       215 6.98395E+02 5.95876E+02 7.87980E+03
 -1       216 4.83595E+02 3.40565E+02 1.03211E+04
 -1       217 3.19674E+02-1.29903E+01 1.18032E+04
 -1       218 8.69158E+02 8.62913E+02-9.60029E+02
 -1       219 8.90620E+02 8.41023E+02 8.27469E+02
 -1       220 9.05803E+02 8.04275E+02 2.63514E+03
 -1       221 8.81821E+02 7.75822E+02 4.43653E+03
 -1       222 8.38608E+02 7.40859E+02 6.15641E+03
 -1       223 7.74811E+02 6.86018E+02 7.73737E+03
 -1       224 6.94294E+02 6.11751E+02 9.11630E+03
 -1       225 5.87598E+02 5.15614E+02 1.02188E+04
 -1       226 4.95731E+02 3.64517E+02 1.10257E+04
 -1       227 2.08325E+02 7.09431E+01 1.12908E+04
 -1       228-6.93894E+00-1.67469E+02 1.11854E+04
 -1       229-6.59688E+01-1.64260E+02-1.32885E+04
 -1       230 5.10497E+02 3.62636E+02-1.16407E+04
 -1       231 5.90337E+02 4.58451E+02-8.59844E+03
 -1       232 6.48841E+02 5.05256E+02-4.85620E+03
 -1       233 6.59311E+02 5.16848E+02-8.75216E+02
 -1       234 5.35597E+02 6.09907E+02 2.88191E+03
 -1       235 5.39994E+02 3.30265E+02-1.27250E+04
 -1       236 5.77349E+02 3.97549E+02-9.44197E+03
 -1       237 6.18336E+02 4.59885E+02-5.79854E+03
 -1       238 6.59190E+02 4.95089E+02-1.81378E+03
 -1       239 6.66046E+02 4.99428E+02 2.27051E+03
 -1       240 6.65357E+02 5.04381E+02 6.30547E+03
 -1       241 6.35280E+02 4.24358E+02-1.07493E+04
 -1       242 6.35049E+02 4.47685E+02-6.87874E+03
 -1       243 6.55872E+02 4.80970E+02-2.89221E+03
 -1       244 6.59715E+02 4.78373E+02 1.19883E+03
 -1       245 6.48793E+02 4.49216E+02 5.22780E+03
 -1       246 6.61073E+02 4.28101E+02 9.18879E+03
 -1       247 6.66338E+02 5.09197E+02-7.91921E+03
 -1       248 6.55972E+02 5.08643E+02-3.89844E+03
 -1       249 6.47587E+02 4.91635E+02 1.31994E+02
 -1       250 6.15794E+02 4.42023E+02 4.06429E+03
 -1       251 5.74874E+02 3.51859E+02 7.73104E+03
 -1       252 5.74724E+02 3.00335E+02 1.12219E+04
 -1       253 6.40492E+02 5.51282E+02-4.56692E+03
 -1       254 6.34842E+02 5.33111E+02-6.72133E+02
 -1       255 6.01074E+02 4.90811E+02 3.15651E+03
 -1       256 5.21250E+02 4.03082E+02 6.66542E+03
 -1       257 4.56033E+02 2.78430E+02 9.61656E+03
 -1       258 4.06037E+02 1.70699E+02 1.20793E+04
 -1       259 5.45291E+02 6.17738E+02-9.52905E+02
 -1       260 6.14726E+02 5.45607E+02 2.63527E+03
 -1       261 5.69396E+02 5.03944E+02 6.16073E+03
 -1       262 4.64767E+02 4.03182E+02 9.11062E+03
 -1       263 3.49219E+02 2.34723E+02 1.10261E+04
 -1       264-4.08474E+02-4.51003E+02 1.11165E+04
 -1       265 0.00000E+00 0.00000E+00 0.00000E+00
 -1       266 0.00000E+00 0.00000E+00 0.00000E+00
 -1       267 0.00000E+00 0.00000E+00 0.00000E+00
 -1       268 0.00000E+00 0.00000E+00 0.00000E+00
 -1       269 0.00000E+00 0.00000E+00 0.00000E+00
 -1       270 0.00000E+00 0.00000E+00 0.00000E+00
 -1       271 0.00000E+00 0.00000E+00 0.00000E+00
 -1       272 0.00000E+00 0.00000E+00 0.00000E+00
 -1       273 0.00000E+00 0.00000E+00 0.00000E+00
 -1       274 0.00000E+00 0.00000E+00 0.00000E+00
 -1       275 0.00000E+00 0.00000E+00 0.00000E+00
 -1       276 0.00000E+00 0.00000E+00 0.00000E+00
 -1       277 0.00000E+00 0.00000E+00 0.00000E+00
 -1       278 0.00000E+00 0.00000E+00 0.00000E+00
 -1       279 0.00000E+00 0.00000E+00 0.00000E+00
 -1       280-3.27440E+02 2.46329E+03 8.09983E+03
 -1       281-2.49943E+02 1.46945E+03 4.74371E+03
 -1       282-1.06322E+02 8.86131E+02 2.76373E+03
 -1       283-1.41036E+02 4.84657E+02 1.43732E+03
 -1       284-7.23215E+01 7.41316E+01 2.98909E+02
 -1       285-4.89796E+01-1.21055E+02-3.72056E+02
 -1       286-6.03916E+01-2.90729E+02-9.48363E+02
 -1       287-7.24330E+01-5.22774E+02-1.73632E+03
 -1       288-1.19134E+03 4.24936E+03 2.83030E+04
 -1       289-9.97344E+02 3.33334E+03 2.19742E+04
 -1       290-7.65970E+02 2.59482E+03 1.67964E+04
 -1       291-5.70736E+02 2.03891E+03 1.29480E+04
 -1       292-3.74969E+02 1.63408E+03 1.02533E+04
 -1       293-3.90584E+02 1.31668E+03 8.01889E+03
 -1       294-4.48806E+02 9.78824E+02 5.63466E+03
 -1       295-3.74726E+02 4.84854E+02 2.97127E+03
 -1       296-2.55679E+02 8.04529E+01 8.10226E+02
 -1       297-1.90785E+02-7.38366E+01-3.94860E+02
 -1       298-1.50015E+02-2.06915E+02-1.36061E+03
 -1       299-1.65950E+02-3.50980E+02-2.29591E+03
 -1       300-1.94628E+02-5.05757E+02-3.33830E+03
 -1       301-2.37738E+02-6.95773E+02-4.59401E+03
 -1       302-2.65708E+02-8.96230E+02-6.05404E+03
 -1       303-2.14501E+03 2.70128E+03 4.96877E+04
 -1       304-1.18023E+03 1.80688E+03 2.99055E+04
 -1       305-5.79921E+02 1.68377E+03 1.98823E+04
 -1       306-6.19059E+02 1.51336E+03 1.30658E+04
 -1       307-3.06747E+02-5.46946E+01 7.85706E+02
 -1       308-2.50979E+02-1.61715E+02-2.46133E+03
 -1       309-3.35114E+02-3.33435E+02-5.83831E+03
 -1       310-4.66199E+02-5.71357E+02-1.05347E+04
 -1       311-2.39191E+03-2.69403E+03 9.06791E+04
 -1       312-2.47540E+03-1.12228E+03 7.58120E+04
 -1       313-2.62577E+03 3.63092E+02 6.02036E+04
 -1       314-1.93333E+03 6.51586E+02 4.69450E+04
 -1       315-1.12550E+03 7.68189E+02 3.79442E+04
 -1       316-7.16567E+02 1.34025E+03 3.29216E+04
 -1       317-4.93374E+02 1.73629E+03 2.99213E+04
 -1       318-5.85256E+02 1.82199E+03 2.66178E+04
 -1       319-6.88581E+02 1.85997E+03 2.29903E+04
 -1       320-3.09542E+02-1.59747E+02 1.40449E+02
 -1       321-2.96423E+02-1.17178E+02-1.58780E+03
 -1       322-2.78581E+02-9.37069E+01-3.22488E+03
 -1       323-3.43541E+02-9.52763E+01-5.02904E+03
 -1       324-3.98171E+02-1.22971E+02-7.19868E+03
 -1       325-4.78199E+02-1.21949E+02-9.73366E+03
 -1       326-5.72121E+02-8.15409E+01-1.27396E+04
 -1       327-5.53771E+02 2.29233E+02-1.62256E+04
 -1       328-5.42609E+02 5.71302E+02-1.95779E+04
 -1       329-8.32623E+02-2.77295E+03 7.40014E+04
 -1       330-2.14015E+03-1.25990E+03 5.68783E+04
 -1       331-1.80254E+03-1.68180E+03 3.43017E+04
 -1       332-2.53107E+02 9.94762E+01-3.16550E+03
 -1       333-4.04233E+02 2.27491E+02-6.93353E+03
 -1       334-4.84438E+02 2.71960E+02-1.20769E+04
 -1       335-2.06730E+02 6.02332E+02-1.60151E+04
 -1       336 0.00000E+00 0.00000E+00 0.00000E+00
 -1       337 2.29753E+03-3.55270E+02 7.68592E+03
 -1       338 3.93272E+03-1.27655E+03 2.66501E+04
 -1       339 2.55871E+03-2.27663E+03 4.65043E+04
 -1       340 4.65871E+02-2.87798E+03 5.67317E+04
 -1       341-1.00196E+03-2.57796E+03 5.46377E+04
 -1       342-2.18216E+03-2.69409E+03 4.49844E+04
 -1       343-2.28781E+03-3.03463E+03 3.23747E+04
 -1       344-2.61610E+03-3.74341E+03 1.75829E+04
 -1       345-1.18950E+02 2.25863E+02-2.24265E+03
 -1       346-2.08610E+02 4.01533E+02-3.10795E+03
 -1       347-3.58560E+02 6.00304E+02-4.52779E+03
 -1       348-4.22272E+02 5.90654E+02-6.98026E+03
 -1       349-4.83947E+02 5.67673E+02-9.54277E+03
 -1       350-2.20863E+02 5.60361E+02-1.16784E+04
 -1       351 8.58232E+01 6.49795E+02-1.22245E+04
 -1       352 5.45749E+02 5.16075E+02-1.00471E+04
 -1       353 8.52336E+02 2.86484E+02-5.73830E+03
 -1       354 4.97916E+02 8.28740E+01-1.65611E+03
 -1       355 0.00000E+00 0.00000E+00 0.00000E+00
 -1       356 0.00000E+00 0.00000E+00 0.00000E+00
 -1       357 2.97338E+03-1.12795E+03 1.96670E+04
 -1       358 5.20484E+02-2.39202E+03 4.15707E+04
 -1       359-2.45631E+03-2.53012E+03 3.01075E+04
 -1       360-2.46653E+03-2.63331E+03-9.74070E+02
 -1       361-2.84995E+02 6.43598E+02-7.85053E+02
 -1       362-5.55226E+02 6.40068E+02-6.12079E+03
 -1       363 1.10864E+02 5.10102E+02-8.84979E+03
 -1       364 6.33518E+02 2.47484E+02-4.19076E+03
 -1       365 0.00000E+00 0.00000E+00 0.00000E+00
 -1       366 0.00000E+00 0.00000E+00 0.00000E+00
 -1       367 1.20064E+03-2.82811E+02 3.91616E+03
 -1       368 2.08336E+03-8.99579E+02 1.37566E+04
 -1       369 1.31126E+03-1.57782E+03 2.38820E+04
 -1       370 3.93768E+02-1.96017E+03 2.90057E+04
 -1       371-1.16628E+03-2.17639E+03 2.68845E+04
 -1       372-2.83172E+03-2.24362E+03 1.53301E+04
 -1       373-2.44672E+03-2.33647E+03-9.91246E+02
 -1       374-5.42005E+02-5.32700E+02-1.32589E+04
 -1       375 1.26695E+02 9.34585E+01-1.26736E+04
 -1       376 2.91549E+02 1.88575E+02-1.16343E+04
 -1       377 3.11016E+02 2.55106E+02-1.02460E+04
 -1       378 2.97272E+02 2.22733E+02-8.59431E+03
 -1       379 3.23875E+02 2.52875E+02-6.78703E+03
 -1       380 3.39430E+02 2.70011E+02-4.85842E+03
 -1       381 3.50589E+02 2.62049E+02-2.86521E+03
 -1       382 3.50023E+02 2.70067E+02-8.76312E+02
 -1       383 3.15548E+02 2.87604E+02 1.05104E+03
 -1       384 1.68879E+02 4.05806E+02 2.87567E+03
 -1       385-4.10439E+02 7.62141E+02 1.41145E+03
 -1       386-7.36471E+02 7.43136E+02-1.99996E+03
 -1       387-3.57829E+02 5.34893E+02-5.35216E+03
 -1       388 9.36055E+01 3.47066E+02-6.33845E+03
 -1       389 2.93344E+02 3.18915E+02-5.10427E+03
 -1       390 4.48355E+02 2.01360E+02-2.88454E+03
 -1       391 2.52998E+02 6.30041E+01-8.10910E+02
 -1       392 0.00000E+00 0.00000E+00 0.00000E+00
 -1       393 0.00000E+00 0.00000E+00 0.00000E+00
 -1       394 1.40927E+03-6.87575E+02 9.16776E+03
 -1       395 1.24146E+02-1.51473E+03 1.87962E+04
 -1       396-2.14971E+03-1.23661E+03 6.36296E+03
 -1       397 1.83211E+02 5.03758E+01-1.32006E+04
 -1       398 2.16892E+02 1.41255E+02-1.05254E+04
 -1       399 3.17791E+02 2.45600E+02-7.20388E+03
 -1       400 3.40995E+02 2.57869E+02-3.33255E+03
 -1       401 3.33841E+02 2.79029E+02 6.95730E+02
 -1       402 3.29612E+02 2.92590E+02 4.64203E+03
 -1       403 1.90350E+02 2.34632E+02-4.72900E+03
 -1       404 2.93181E+02 1.53304E+02-1.85565E+03
 -1       405 0.00000E+00 0.00000E+00 0.00000E+00
 -1       406 0.00000E+00 0.00000E+00 0.00000E+00
 -1       407 4.85870E+02-1.56506E+02 1.59758E+03
 -1       408 8.67529E+02-5.28542E+02 5.60400E+03
 -1       409 5.37509E+02-8.32604E+02 9.81464E+03
 -1       410 2.67233E+01-9.57352E+02 1.16154E+04
 -1       411-9.40945E+02-1.03798E+03 8.61217E+03
 -1       412-1.57775E+03-6.24154E+02 1.32501E+03
 -1       413 2.80293E+02 1.94833E+02-1.27195E+04
 -1       414 2.28167E+02 1.29933E+02-1.10688E+04
 -1       415 3.30748E+02 2.33761E+02-9.45926E+03
 -1       416 3.20242E+02 2.27385E+02-7.67671E+03
 -1       417 3.19952E+02 2.38694E+02-5.79799E+03
 -1       418 3.34832E+02 2.51071E+02-3.83452E+03
 -1       419 3.45225E+02 2.60667E+02-1.81533E+03
 -1       420 3.50494E+02 2.61511E+02 2.30589E+02
 -1       421 3.54363E+02 2.55928E+02 2.27439E+03
 -1       422 3.35128E+02 2.73080E+02 4.28455E+03
 -1       423 3.46631E+02 2.59440E+02 6.30441E+03
 -1       424 2.47987E+02 1.67079E+02-3.61173E+03
 -1       425 2.14490E+02 1.90338E+02-2.21356E+03
 -1       426 1.78901E+02 9.87849E+01-1.09377E+03
 -1       427 9.34201E+01 2.61473E+01-3.16026E+02
 -1       428 0.00000E+00 0.00000E+00 0.00000E+00
 -1       429 0.00000E+00 0.00000E+00 0.00000E+00
 -1       430 4.78513E+02-3.92138E+02 3.00595E+03
 -1       431 2.03229E+02-6.45163E+02 7.19118E+03
 -1       432 3.52117E+02 2.16570E+02-1.18739E+04
 -1       433 3.21312E+02 2.26561E+02-8.22117E+03
 -1       434 3.37465E+02 2.46649E+02-4.36646E+03
 -1       435 3.47283E+02 2.55703E+02-2.97859E+02
 -1       436 3.47724E+02 2.50463E+02 3.79141E+03
 -1       437 3.60997E+02 2.45152E+02 7.83223E+03
 -1       438 1.48096E+02-2.45692E+01-9.42850E+02
 -1       439 0.00000E+00 0.00000E+00 0.00000E+00
 -1       440 0.00000E+00 0.00000E+00 0.00000E+00
 -1       441 9.32341E+01-7.25147E+01 3.11344E+02
 -1       442 1.90390E+02-2.50919E+02 1.09105E+03
 -1       443 2.50358E+02-4.96478E+02 2.29018E+03
 -1       444 3.53853E+02-4.56474E+02 4.10324E+03
 -1       445 3.14078E+02 2.11158E+02-1.07463E+04
 -1       446 3.37366E+02 2.29551E+02-8.81897E+03
 -1       447 3.30508E+02 2.30793E+02-6.87880E+03
 -1       448 3.38336E+02 2.46840E+02-4.90774E+03
 -1       449 3.42552E+02 2.50902E+02-2.89283E+03
 -1       450 3.45471E+02 2.53082E+02-8.48854E+02
 -1       451 3.45226E+02 2.50692E+02 1.19963E+03
 -1       452 3.42511E+02 2.42831E+02 3.22838E+03
 -1       453 3.40942E+02 2.37007E+02 5.23049E+03
 -1       454 3.38539E+02 2.22945E+02 7.20477E+03
 -1       455 3.44982E+02 2.29324E+02 9.19030E+03
 -1       456 2.02141E+02-1.52545E+02-1.35220E+03
 -1       457 1.20416E+02-4.29676E+01-4.26588E+02
 -1       458 0.00000E+00 0.00000E+00 0.00000E+00
 -1       459 0.00000E+00 0.00000E+00 0.00000E+00
 -1       460 1.28970E+01-1.28637E+02 4.50940E+01
 -1       461 3.41560E+02 2.44402E+02-9.42222E+03
 -1       462 3.39183E+02 2.50802E+02-5.43164E+03
 -1       463 3.43859E+02 2.55346E+02-1.38736E+03
 -1       464 3.36956E+02 2.41607E+02 2.65972E+03
 -1       465 3.21827E+02 2.09967E+02 6.55030E+03
 -1       466 3.24762E+02 1.90579E+02 1.03355E+04
 -1       467 4.72341E+02-2.98258E+02-2.89274E+03
 -1       468 0.00000E+00 0.00000E+00 0.00000E+00
 -1       469 0.00000E+00 0.00000E+00 0.00000E+00
 -1       470-4.26979E+01-7.43908E+00-9.80029E+01
 -1       471-8.90542E+01-1.88272E+01-4.94488E+02
 -1       472-1.31874E+02 2.20390E+01-1.18803E+03
 -1       473-1.53144E+02 2.83310E+01-2.02213E+03
 -1       474 3.48662E+02 2.70002E+02-7.92011E+03
 -1       475 3.43303E+02 2.65249E+02-5.90768E+03
 -1       476 3.44398E+02 2.67589E+02-3.89998E+03
 -1       477 3.42214E+02 2.62684E+02-1.88193E+03
 -1       478 3.38933E+02 2.57581E+02 1.32410E+02
 -1       479 3.31766E+02 2.46705E+02 2.12306E+03
 -1       480 3.21363E+02 2.30275E+02 4.06612E+03
 -1       481 3.11166E+02 2.12187E+02 5.93683E+03
 -1       482 2.98494E+02 1.79747E+02 7.73162E+03
 -1       483 3.06285E+02 1.66893E+02 9.48092E+03
 -1       484 2.77183E+02 1.44244E+02 1.12182E+04
 -1       485 1.39903E+03-6.11173E+02-1.84515E+04
 -1       486 1.13853E+03-7.12957E+02-1.09595E+04
 -1       487 8.67048E+02-4.31650E+02-5.11388E+03
 -1       488 4.42465E+02-1.31785E+02-1.34781E+03
 -1       489 0.00000E+00 0.00000E+00 0.00000E+00
 -1       490 0.00000E+00 0.00000E+00 0.00000E+00
 -1       491-7.03967E+01 3.20451E+01-4.20776E+02
 -1       492-1.46281E+02 8.84519E+01-1.68994E+03
 -1       493 3.50757E+02 2.78316E+02-6.28884E+03
 -1       494 3.40201E+02 2.74150E+02-2.30465E+03
 -1       495 3.28096E+02 2.57079E+02 1.64958E+03
 -1       496 3.02109E+02 2.20770E+02 5.40113E+03
 -1       497 2.74723E+02 1.70730E+02 8.75725E+03
 -1       498 3.13580E+02 1.47346E+02 1.18294E+04
 -1       499 1.10551E+03-6.97999E+02-2.21029E+04
 -1       500 1.26061E+03-5.11738E+02-7.86066E+03
 -1       501 0.00000E+00 0.00000E+00 0.00000E+00
 -1       502 0.00000E+00 0.00000E+00 0.00000E+00
 -1       503-1.12696E+01 2.04003E+01-1.88885E+01
 -1       504-2.02734E+01 7.45407E+01-1.19262E+02
 -1       505-6.84205E+01 1.28846E+02-3.70170E+02
 -1       506-1.33328E+02 1.79645E+02-9.44928E+02
 -1       507-2.06931E+02 2.43146E+02-1.98046E+03
 -1       508-2.55258E+02 2.48886E+02-3.33049E+03
 -1       509 3.34082E+02 2.85401E+02-4.56605E+03
 -1       510 3.26856E+02 2.93679E+02-2.61558E+03
 -1       511 3.35665E+02 2.75389E+02-6.74202E+02
 -1       512 3.27703E+02 2.70317E+02 1.26418E+03
 -1       513 3.15486E+02 2.58694E+02 3.15924E+03
 -1       514 2.93936E+02 2.35565E+02 4.96893E+03
 -1       515 2.67901E+02 2.08607E+02 6.66545E+03
 -1       516 2.64168E+02 1.81997E+02 8.22226E+03
 -1       517 2.75551E+02 1.77791E+02 9.63905E+03
 -1       518 1.42843E+02 3.69608E+01 1.08259E+04
 -1       519 2.08652E+02 1.17273E+02 1.20732E+04
 -1       520-1.65773E+03 1.16445E+01-1.94408E+04
 -1       521-6.99810E+02-7.29349E+02-2.61539E+04
 -1       522 7.27949E+02-8.78166E+02-2.64063E+04
 -1       523 1.35638E+03-8.82870E+02-2.01375E+04
 -1       524 1.71812E+03-6.03087E+02-1.10148E+04
 -1       525 9.57173E+02-1.81977E+02-3.06109E+03
 -1       526 0.00000E+00 0.00000E+00 0.00000E+00
 -1       527 0.00000E+00 0.00000E+00 0.00000E+00
 -1       528 6.06504E+01 1.02995E+02 3.99225E+02
 -1       529-7.60933E+01 2.66510E+02 3.61774E+02
 -1       530-2.62974E+02 3.34621E+02-1.66131E+03
 -1       531 3.18287E+02 3.06078E+02-2.78274E+03
 -1       532 3.15845E+02 2.90178E+02 9.83454E+02
 -1       533 2.99091E+02 2.55024E+02 4.65322E+03
 -1       534 2.55315E+02 2.16344E+02 7.89213E+03
 -1       535 1.18205E+02 6.25332E+01 1.02968E+04
 -1       536 7.50804E+01-6.82257E+01 1.18476E+04
 -1       537-2.55746E+03-7.67659E+02-2.10994E+04
 -1       538 6.46224E+02-1.48781E+03-3.32553E+04
 -1       539 2.31080E+03-7.51066E+02-1.49748E+04
 -1       540 0.00000E+00 0.00000E+00 0.00000E+00
 -1       541 0.00000E+00 0.00000E+00 0.00000E+00
 -1       542 9.50214E+01 4.26609E+01 3.16333E+02
 -1       543 1.63717E+02 1.36894E+02 1.09495E+03
 -1       544 8.71340E+01 2.48037E+02 1.84472E+03
 -1       545 3.86967E+00 3.31570E+02 2.12810E+03
 -1       546-1.33447E+02 4.10957E+02 1.75509E+03
 -1       547-2.76654E+02 4.74227E+02 5.78803E+02
 -1       548-1.17711E+02 5.38033E+02-7.20819E+02
 -1       549 2.15886E+02 3.78699E+02-9.48275E+02
 -1       550 3.06766E+02 3.01426E+02 8.21898E+02
 -1       551 3.24768E+02 2.84876E+02 2.63599E+03
 -1       552 3.18106E+02 2.73659E+02 4.43794E+03
 -1       553 3.00098E+02 2.68627E+02 6.16353E+03
 -1       554 2.69892E+02 2.38504E+02 7.73886E+03
 -1       555 2.28443E+02 1.89837E+02 9.10545E+03
 -1       556 2.42527E+02 2.17400E+02 1.02393E+04
 -1       557 2.14701E+02 1.20673E+02 1.10185E+04
 -1       558-5.05352E+00-9.64587E+00 1.13466E+04
 -1       559-8.67565E+02-7.90392E+02 1.10718E+04
 -1       560-3.24344E+03-2.46253E+03-5.78466E+03
 -1       561-3.66337E+03-2.05987E+03-2.76897E+04
 -1       562-1.35833E+03-2.08047E+03-4.19844E+04
 -1       563 8.03054E+02-1.96476E+03-4.34092E+04
 -1       564 2.02600E+03-1.66941E+03-3.50119E+04
 -1       565 3.03315E+03-9.76858E+02-1.99471E+04
 -1       566 1.74347E+03-3.09795E+02-5.64809E+03
 -1       567 0.00000E+00 0.00000E+00 0.00000E+00
 -1       568 0.00000E+00 0.00000E+00 0.00000E+00
 -1       569 2.97563E+02 1.67554E+02 1.98077E+03
 -1       570 5.72569E+01 3.82802E+02 4.18634E+03
 -1       571-1.86687E+02 4.52846E+02 3.38199E+03
 -1       572-3.03662E+00 4.92603E+02 2.01249E+03
 -1       573-2.82684E+03-2.76503E+03-3.45611E+03
 -1       574-3.19779E+03-2.38276E+03-4.17264E+04
 -1       575 7.53165E+02-2.52984E+03-5.63478E+04
 -1       576 4.01389E+03-1.25160E+03-2.64576E+04
 -1       577 0.00000E+00 0.00000E+00 0.00000E+00
 -1       578 0.00000E+00 0.00000E+00 0.00000E+00
 -1       579 2.58502E+02 5.50782E+01 8.82811E+02
 -1       580 4.38059E+02 1.88914E+02 3.01791E+03
 -1       581 2.97498E+02 3.35583E+02 5.27471E+03
 -1       582 7.97655E+01 4.34557E+02 6.55298E+03
 -1       583-5.47435E+01 4.12623E+02 6.55341E+03
 -1       584-1.53951E+02 4.24974E+02 5.90564E+03
 -1       585-8.45488E+01 4.22815E+02 5.24118E+03
 -1       586-2.11556E+01 4.17037E+02 4.81319E+03
 -1       587 8.63534E+01 2.25335E+02 5.19980E+03
 -1       588 1.45427E+02 7.26339E+01 5.94833E+03
 -1       589-1.08800E+03-1.62366E+03-2.52133E+03
 -1       590-1.71828E+03-2.35105E+03-1.02339E+04
 -1       591-2.75176E+03-3.17981E+03-2.19138E+04
 -1       592-2.84895E+03-2.79581E+03-3.92853E+04
 -1       593-3.01554E+03-2.64069E+03-5.60537E+04
 -1       594-1.43050E+03-2.64686E+03-6.94201E+04
 -1       595 5.29435E+02-3.16541E+03-7.27327E+04
 -1       596 3.28842E+03-2.56099E+03-5.98587E+04
 -1       597 5.09770E+03-1.42914E+03-3.42378E+04
 -1       598 2.95937E+03-3.87260E+02-9.80841E+03
 -1       599 0.00000E+00 0.00000E+00 0.00000E+00
 -1       600-5.13482E+01 4.01523E+02 9.06645E+03
 -1       601-1.71101E+02 2.09628E+02 7.80081E+03
 -1       602-8.46218E+01 1.21115E+02 6.35005E+03
 -1       603 2.09071E+01-4.61362E+01 5.99582E+03
 -1       604-1.62417E+03-9.81075E+02-9.99400E+03
 -1       605-2.70171E+03-1.25947E+03-3.47073E+04
 -1       606-3.00094E+03-1.19390E+03-6.76391E+04
 -1       607-1.19556E+03-3.00223E+03-9.17648E+04
 -1       608-2.40179E+02 3.82201E+02 1.14264E+04
 -1       609-2.43343E+02 1.73337E+02 9.93234E+03
 -1       610-2.51478E+02-4.30913E+01 8.35154E+03
 -1       611-1.83393E+02-1.05498E+02 7.11369E+03
 -1       612-1.25503E+02-1.56356E+02 6.22156E+03
 -1       613-8.81410E+01-1.78857E+02 5.59282E+03
 -1       614-3.51766E+01-2.21152E+02 5.24680E+03
 -1       615-1.57164E+03-2.08025E+01-1.30982E+04
 -1       616-2.02966E+03 2.05351E+02-2.34918E+04
 -1       617-2.40838E+03 5.87797E+02-3.65132E+04
 -1       618-2.90358E+03 6.99684E+02-5.18603E+04
 -1       619-3.42846E+03 5.80512E+02-7.00839E+04
 -1       620-3.22349E+03-1.01884E+03-9.04887E+04
 -1       621-3.12939E+03-2.89986E+03-1.09761E+05
 -1       622-2.17764E+02-3.80123E+02 6.93705E+03
 -1       623-1.32573E+02-2.97386E+02 4.87834E+03
 -1       624-7.98041E+01-3.01476E+02 3.64056E+03
 -1       625-1.26860E+03 6.67241E+02-1.10889E+04
 -1       626-1.95748E+03 1.66417E+03-2.97956E+04
 -1       627-2.74674E+03 3.16766E+03-5.74401E+04
 -1       628-1.19377E+02-5.97218E+02 3.95505E+03
 -1       629-1.05955E+02-5.03050E+02 3.30475E+03
 -1       630-8.31086E+01-4.18979E+02 2.75227E+03
 -1       631-8.14028E+01-3.56524E+02 2.27706E+03
 -1       632-9.45797E+01-2.97863E+02 1.78377E+03
 -1       633-9.49162E+01-1.84832E+02 1.15005E+03
 -1       634-7.85693E+01-8.84938E+01 5.72637E+02
 -1       635-1.16931E+02-2.48337E+00 1.91033E+00
 -1       636-1.79640E+02 1.18950E+02-8.01063E+02
 -1       637-4.37392E+02 4.60615E+02-2.82416E+03
 -1       638-7.39407E+02 9.91019E+02-6.14997E+03
 -1       639-9.23925E+02 1.72700E+03-1.11067E+04
 -1       640-1.13965E+03 2.59976E+03-1.71315E+04
 -1       641-1.37940E+03 3.69116E+03-2.44212E+04
 -1       642-1.54518E+03 4.85753E+03-3.29073E+04
 -1       643-2.91198E+01-3.43020E+02 1.11941E+03
 -1       644-2.73874E+01-2.42056E+02 7.72517E+02
 -1       645-3.13979E+01-1.55215E+02 4.70781E+02
 -1       646-2.51663E+01-5.06357E+01 1.55705E+02
 -1       647-5.46861E+01 6.92615E+01-2.75947E+02
 -1       648-2.26230E+02 5.28681E+02-1.72103E+03
 -1       649-3.57136E+02 1.49618E+03-4.85549E+03
 -1       650-4.31505E+02 2.83950E+03-9.48422E+03
 -1       651 0.00000E+00 0.00000E+00 0.00000E+00
 -1       652 0.00000E+00 0.00000E+00 0.00000E+00
 -1       653 0.00000E+00 0.00000E+00 0.00000E+00
 -1       654 0.00000E+00 0.00000E+00 0.00000E+00
 -1       655 0.00000E+00 0.00000E+00 0.00000E+00
 -1       656 0.00000E+00 0.00000E+00 0.00000E+00
 -1       657 0.00000E+00 0.00000E+00 0.00000E+00
 -1       658 0.00000E+00 0.00000E+00 0.00000E+00
 -1       659 0.00000E+00 0.00000E+00 0.00000E+00
 -1       660 0.00000E+00 0.00000E+00 0.00000E+00
 -1       661 0.00000E+00 0.00000E+00 0.00000E+00
 -1       662 0.00000E+00 0.00000E+00 0.00000E+00
 -1       663 0.00000E+00 0.00000E+00 0.00000E+00
 -1       664 0.00000E+00 0.00000E+00 0.00000E+00
 -1       665 0.00000E+00 0.00000E+00 0.00000E+00
 -1       666 0.00000E+00 0.00000E+00 0.00000E+00
 -1       667 0.00000E+00 0.00000E+00 0.00000E+00
 -1       668 0.00000E+00 0.00000E+00 0.00000E+00
 -1       669 0.00000E+00 0.00000E+00 0.00000E+00
 -1       670 0.00000E+00 0.00000E+00 0.00000E+00
 -1       671 0.00000E+00 0.00000E+00 0.00000E+00
 -1       672 0.00000E+00 0.00000E+00 0.00000E+00
 -1       673 0.00000E+00 0.00000E+00 0.00000E+00
 -1       674-1.22348E-10-7.55391E-11 2.82675E+04
 -1       675-4.17837E-11 6.24984E-11 1.67600E+04
 -1       676-2.52081E-11 4.92736E-11 1.02285E+04
 -1       677-3.19102E-11 1.09706E-11 5.61207E+03
 -1       678-2.57295E-11-1.44017E-11 8.07485E+02
 -1       679-2.80260E-11 2.45042E-11-1.35821E+03
 -1       680-4.62361E-11 8.00533E-11-3.33245E+03
 -1       681-8.00917E-11 1.50666E-10-6.04696E+03
 -1       682-6.28160E-10 4.40815E-10 9.06740E+04
 -1       683-3.47574E-10-9.63937E-11 6.02791E+04
 -1       684-1.51142E-10-2.32168E-11 3.79958E+04
 -1       685-2.44893E-11 7.85609E-11 2.99225E+04
 -1       686-7.15646E-11 5.18158E-11 2.29905E+04
 -1       687-1.12479E-10-4.04436E-11 1.44714E+02
 -1       688-1.21737E-10 5.19516E-11-3.22888E+03
 -1       689-1.58218E-10 1.94058E-10-7.20947E+03
 -1       690-2.36797E-10 2.75743E-10-1.27562E+04
 -1       691-3.00279E-10 2.12135E-10-1.95771E+04
 -1       692 0.00000E+00 0.00000E+00 0.00000E+00
 -1       693 6.33397E-11 7.52967E-11 2.66179E+04
 -1       694 2.15537E-11 1.34156E-10 5.68010E+04
 -1       695-1.07804E-10-7.77581E-11 4.50245E+04
 -1       696-9.54753E-11-2.25255E-10 1.76130E+04
 -1       697-2.70278E-10 6.15834E-11-2.24498E+03
 -1       698-2.58684E-10 3.52587E-10-4.53313E+03
 -1       699-2.24105E-10 2.87383E-10-9.55159E+03
 -1       700-2.02525E-10 1.62760E-10-1.22394E+04
 -1       701-8.33802E-11 4.86538E-11-5.73093E+03
 -1       702 0.00000E+00 0.00000E+00 0.00000E+00
 -1       703 0.00000E+00 0.00000E+00 0.00000E+00
 -1       704 6.56090E-11 7.57644E-11 1.37305E+04
 -1       705 9.35530E-11 3.41317E-11 2.90490E+04
 -1       706 9.08850E-11-8.95839E-12 1.53426E+04
 -1       707 2.13979E-10-5.45068E-10-1.33603E+04
 -1       708 2.51047E-10-2.72325E-10-1.16115E+04
 -1       709 2.07798E-10 8.54629E-11-8.60163E+03
 -1       710 1.78148E-10 4.12748E-10-4.85558E+03
 -1       711 1.54049E-10 7.42866E-10-8.81390E+02
 -1       712 1.22996E-10 9.19866E-10 2.89640E+03
 -1       713-3.03005E-11 2.89197E-10-2.00506E+03
 -1       714-4.67136E-11 1.15583E-10-6.34758E+03
 -1       715-2.25307E-11 1.81118E-11-2.87850E+03
 -1       716 0.00000E+00 0.00000E+00 0.00000E+00
 -1       717 0.00000E+00 0.00000E+00 0.00000E+00
 -1       718 3.77662E-11 1.02440E-11 5.59270E+03
 -1       719 4.28413E-11 9.54684E-12 1.16263E+04
 -1       720 4.08725E-11 7.16549E-11 1.33191E+03
 -1       721-1.42869E-10-6.51151E-10-1.26965E+04
 -1       722-1.60722E-10-2.66223E-10-9.46624E+03
 -1       723-1.50121E-10 8.84876E-11-5.79699E+03
 -1       724-1.66147E-10 4.18780E-10-1.81611E+03
 -1       725-1.66199E-10 7.42852E-10 2.27594E+03
 -1       726-1.58098E-10 1.06221E-09 6.30033E+03
 -1       727 3.34218E-11 8.13025E-11-3.60848E+03
 -1       728 1.61711E-11 8.15277E-13-1.08882E+03
 -1       729 0.00000E+00 0.00000E+00 0.00000E+00
 -1       730 0.00000E+00 0.00000E+00 0.00000E+00
 -1       731 2.80073E-12 1.23034E-11 1.08360E+03
 -1       732-8.24270E-13 5.36412E-11 4.09726E+03
 -1       733-5.40623E-10-6.43162E-10-1.07533E+04
 -1       734-5.35146E-10-2.72075E-10-6.87805E+03
 -1       735-5.22798E-10 7.05074E-11-2.89351E+03
 -1       736-5.31443E-10 3.92577E-10 1.20000E+03
 -1       737-5.12065E-10 7.27153E-10 5.23131E+03
 -1       738-5.30835E-10 1.10733E-09 9.19043E+03
 -1       739 1.34430E-11-3.70486E-11-1.34347E+03
 -1       740 0.00000E+00 0.00000E+00 0.00000E+00
 -1       741 0.00000E+00 0.00000E+00 0.00000E+00
 -1       742 5.46511E-12 1.30222E-11-4.94095E+02
 -1       743 1.85365E-11 8.67805E-11-2.02352E+03
 -1       744-9.04080E-10-6.20554E-10-7.91953E+03
 -1       745-9.18501E-10-2.83826E-10-3.90054E+03
 -1       746-9.04169E-10 4.52489E-11 1.32514E+02
 -1       747-9.02947E-10 3.77915E-10 4.06725E+03
 -1       748-9.15198E-10 7.19618E-10 7.73120E+03
 -1       749-9.12777E-10 1.09729E-09 1.12258E+04
 -1       750 1.34144E-10-5.67100E-10-1.84484E+04
 -1       751 1.02716E-10-1.64583E-10-5.09358E+03
 -1       752 0.00000E+00 0.00000E+00 0.00000E+00
 -1       753 0.00000E+00 0.00000E+00 0.00000E+00
 -1       754-3.55208E-11 1.60712E-11-1.19203E+02
 -1       755-6.24366E-11 9.64190E-11-9.45851E+02
 -1       756-7.18766E-11 2.60739E-10-3.33130E+03
 -1       757-1.25629E-09-5.64142E-10-4.56398E+03
 -1       758-1.23889E-09-2.84121E-10-6.74881E+02
 -1       759-1.24461E-09 3.95356E-11 3.16030E+03
 -1       760-1.26531E-09 3.82818E-10 6.66478E+03
 -1       761-1.28197E-09 7.10813E-10 9.64681E+03
 -1       762-1.28013E-09 1.02968E-09 1.20483E+04
 -1       763-1.10046E-10-1.12300E-09-1.94527E+04
 -1       764-1.12674E-10-6.79244E-10-2.64309E+04
 -1       765-4.72876E-11-2.81379E-10-1.09933E+04
 -1       766 0.00000E+00 0.00000E+00 0.00000E+00
 -1       767 0.00000E+00 0.00000E+00 0.00000E+00
 -1       768-9.13215E-11 4.01999E-11 1.09263E+03
 -1       769-2.03857E-10 1.26862E-10 2.13132E+03
 -1       770-3.83951E-10 2.37548E-10 5.78803E+02
 -1       771-1.27643E-09-4.39974E-10-9.59925E+02
 -1       772-1.52013E-09-2.74516E-10 2.63914E+03
 -1       773-1.55930E-09 3.61323E-11 6.16144E+03
 -1       774-1.59325E-09 3.65069E-10 9.11345E+03
 -1       775-1.58929E-09 6.94465E-10 1.09942E+04
 -1       776-1.52779E-09 7.71693E-10 1.11848E+04
 -1       777-8.25466E-10-9.44743E-10-2.77138E+04
 -1       778-4.89042E-10-8.05503E-10-4.34698E+04
 -1       779-2.09590E-10-3.45076E-10-1.99101E+04
 -1       780 0.00000E+00 0.00000E+00 0.00000E+00
 -1       781 0.00000E+00 0.00000E+00 0.00000E+00
 -1       782-1.61068E-10 7.87898E-11 3.01394E+03
 -1       783-2.83037E-10 1.93880E-10 6.56039E+03
 -1       784-2.97120E-10 2.01362E-10 5.90996E+03
 -1       785-2.95822E-10-1.78825E-11 4.81815E+03
 -1       786-2.76584E-10-8.71615E-11 5.95074E+03
 -1       787-3.60270E-10 3.17959E-10-2.52439E+03
 -1       788-4.97552E-10 4.28449E-12-2.19366E+04
 -1       789-5.39653E-10-7.74651E-10-5.60946E+04
 -1       790-7.32712E-10-1.27551E-09-7.28256E+04
 -1       791-5.47575E-10-4.88414E-10-3.41961E+04
 -1       792 0.00000E+00 0.00000E+00 0.00000E+00
 -1       793-2.25690E-10 2.33174E-10 1.14260E+04
 -1       794-1.84834E-10 1.47500E-10 8.36304E+03
 -1       795-1.57814E-10 1.35971E-11 6.22968E+03
 -1       796-1.56128E-10-8.54967E-11 5.25099E+03
 -1       797-9.84833E-11 2.42087E-10-1.31184E+04
 -1       798-1.01946E-10 1.65818E-11-3.65663E+04
 -1       799 1.44678E-10-4.45877E-10-7.01725E+04
 -1       800 4.09310E-11-1.70204E-09-1.09757E+05
 -1       801-4.51475E-11 8.21738E-11 3.95024E+03
 -1       802-3.74065E-11 1.05793E-11 2.74793E+03
 -1       803-2.04255E-11-3.02993E-11 1.77887E+03
 -1       804 5.23152E-13-4.68099E-12 5.68833E+02
 -1       805 7.80423E-12-9.12260E-13-7.92138E+02
 -1       806 3.80983E-11 3.62937E-11-6.12899E+03
 -1       807 7.43847E-11-3.31961E-11-1.71027E+04
 -1       808 1.35000E-11-1.47403E-10-3.28661E+04
 -1       809 0.00000E+00 0.00000E+00 0.00000E+00
 -1       810 0.00000E+00 0.00000E+00 0.00000E+00
 -1       811 0.00000E+00 0.00000E+00 0.00000E+00
 -1       812 0.00000E+00 0.00000E+00 0.00000E+00
 -1       813 0.00000E+00 0.00000E+00 0.00000E+00
 -1       814 0.00000E+00 0.00000E+00 0.00000E+00
 -1       815 0.00000E+00 0.00000E+00 0.00000E+00
 -1       816 0.00000E+00 0.00000E+00 0.00000E+00
 -1       817 0.00000E+00 0.00000E+00 0.00000E+00
 -1       818 0.00000E+00 0.00000E+00 0.00000E+00
 -1       819 0.00000E+00 0.00000E+00 0.00000E+00
 -1       820 0.00000E+00 0.00000E+00 0.00000E+00
 -1       821 0.00000E+00 0.00000E+00 0.00000E+00
 -1       822 0.00000E+00 0.00000E+00 0.00000E+00
 -1       823 0.00000E+00 0.00000E+00 0.00000E+00
 -1       824 0.00000E+00 0.00000E+00 0.00000E+00
 -1       825 0.00000E+00 0.00000E+00 0.00000E+00
 -1       826 0.00000E+00 0.00000E+00 0.00000E+00
 -1       827 0.00000E+00 0.00000E+00 0.00000E+00
 -1       828 0.00000E+00 0.00000E+00 0.00000E+00
 -1       829 0.00000E+00 0.00000E+00 0.00000E+00
 -1       830 0.00000E+00 0.00000E+00 0.00000E+00
 -1       831 0.00000E+00 0.00000E+00 0.00000E+00
 -1       832 3.27440E+02-2.46329E+03 8.09983E+03
 -1       833 2.49943E+02-1.46945E+03 4.74371E+03
 -1       834 1.06322E+02-8.86131E+02 2.76373E+03
 -1       835 1.41036E+02-4.84657E+02 1.43732E+03
 -1       836 7.23215E+01-7.41316E+01 2.98909E+02
 -1       837 4.89796E+01 1.21055E+02-3.72056E+02
 -1       838 6.03916E+01 2.90729E+02-9.48363E+02
 -1       839 7.24330E+01 5.22774E+02-1.73632E+03
 -1       840 1.19134E+03-4.24936E+03 2.83030E+04
 -1       841 9.97344E+02-3.33334E+03 2.19742E+04
 -1       842 7.65970E+02-2.59482E+03 1.67964E+04
 -1       843 5.70736E+02-2.03891E+03 1.29480E+04
 -1       844 3.74969E+02-1.63408E+03 1.02533E+04
 -1       845 3.90584E+02-1.31668E+03 8.01889E+03
 -1       846 4.48806E+02-9.78824E+02 5.63466E+03
 -1       847 3.74726E+02-4.84854E+02 2.97127E+03
 -1       848 2.55679E+02-8.04529E+01 8.10226E+02
 -1       849 1.90785E+02 7.38366E+01-3.94860E+02
 -1       850 1.50015E+02 2.06915E+02-1.36061E+03
 -1       851 1.65950E+02 3.50980E+02-2.29591E+03
 -1       852 1.94628E+02 5.05757E+02-3.33830E+03
 -1       853 2.37738E+02 6.95773E+02-4.59401E+03
 -1       854 2.65708E+02 8.96230E+02-6.05404E+03
 -1       855 2.14501E+03-2.70128E+03 4.96877E+04
 -1       856 1.18023E+03-1.80688E+03 2.99055E+04
 -1       857 5.79921E+02-1.68377E+03 1.98823E+04
 -1       858 6.19059E+02-1.51336E+03 1.30658E+04
 -1       859 3.06747E+02 5.46946E+01 7.85706E+02
 -1       860 2.50979E+02 1.61715E+02-2.46133E+03
 -1       861 3.35114E+02 3.33435E+02-5.83831E+03
 -1       862 4.66199E+02 5.71357E+02-1.05347E+04
 -1       863 2.39191E+03 2.69403E+03 9.06791E+04
 -1       864 2.47540E+03 1.12228E+03 7.58120E+04
 -1       865 2.62577E+03-3.63092E+02 6.02036E+04
 -1       866 1.93333E+03-6.51586E+02 4.69450E+04
 -1       867 1.12550E+03-7.68189E+02 3.79442E+04
 -1       868 7.16567E+02-1.34025E+03 3.29216E+04
 -1       869 4.93374E+02-1.73629E+03 2.99213E+04
 -1       870 5.85256E+02-1.82199E+03 2.66178E+04
 -1       871 6.88581E+02-1.85997E+03 2.29903E+04
 -1       872 3.09542E+02 1.59747E+02 1.40449E+02
 -1       873 2.96423E+02 1.17178E+02-1.58780E+03
 -1       874 2.78581E+02 9.37069E+01-3.22488E+03
 -1       875 3.43541E+02 9.52763E+01-5.02904E+03
 -1       876 3.98171E+02 1.22971E+02-7.19868E+03
 -1       877 4.78199E+02 1.21949E+02-9.73366E+03
 -1       878 5.72121E+02 8.15409E+01-1.27396E+04
 -1       879 5.53771E+02-2.29233E+02-1.62256E+04
 -1       880 5.42609E+02-5.71302E+02-1.95779E+04
 -1       881 8.32623E+02 2.77295E+03 7.40014E+04
 -1       882 2.14015E+03 1.25990E+03 5.68783E+04
 -1       883 1.80254E+03 1.68180E+03 3.43017E+04
 -1       884 2.53107E+02-9.94762E+01-3.16550E+03
 -1       885 4.04233E+02-2.27491E+02-6.93353E+03
 -1       886 4.84438E+02-2.71960E+02-1.20769E+04
 -1       887 2.06730E+02-6.02332E+02-1.60151E+04
 -1       888 0.00000E+00 0.00000E+00 0.00000E+00
 -1       889-2.29753E+03 3.55270E+02 7.68592E+03
 -1       890-3.93272E+03 1.27655E+03 2.66501E+04
 -1       891-2.55871E+03 2.27663E+03 4.65043E+04
 -1       892-4.65871E+02 2.87798E+03 5.67317E+04
 -1       893 1.00196E+03 2.57796E+03 5.46377E+04
 -1       894 2.18216E+03 2.69409E+03 4.49844E+04
 -1       895 2.28781E+03 3.03463E+03 3.23747E+04
 -1       896 2.61610E+03 3.74341E+03 1.75829E+04
 -1       897 1.18950E+02-2.25863E+02-2.24265E+03
 -1       898 2.08610E+02-4.01533E+02-3.10795E+03
 -1       899 3.58560E+02-6.00304E+02-4.52779E+03
 -1       900 4.22272E+02-5.90654E+02-6.98026E+03
 -1       901 4.83947E+02-5.67673E+02-9.54277E+03
 -1       902 2.20863E+02-5.60361E+02-1.16784E+04
 -1       903-8.58232E+01-6.49795E+02-1.22245E+04
 -1       904-5.45749E+02-5.16075E+02-1.00471E+04
 -1       905-8.52336E+02-2.86484E+02-5.73830E+03
 -1       906-4.97916E+02-8.28740E+01-1.65611E+03
 -1       907 0.00000E+00 0.00000E+00 0.00000E+00
 -1       908 0.00000E+00 0.00000E+00 0.00000E+00
 -1       909-2.97338E+03 1.12795E+03 1.96670E+04
 -1       910-5.20484E+02 2.39202E+03 4.15707E+04
 -1       911 2.45631E+03 2.53012E+03 3.01075E+04
 -1       912 2.46653E+03 2.63331E+03-9.74070E+02
 -1       913 2.84995E+02-6.43598E+02-7.85053E+02
 -1       914 5.55226E+02-6.40068E+02-6.12079E+03
 -1       915-1.10864E+02-5.10102E+02-8.84979E+03
 -1       916-6.33518E+02-2.47484E+02-4.19076E+03
 -1       917 0.00000E+00 0.00000E+00 0.00000E+00
 -1       918 0.00000E+00 0.00000E+00 0.00000E+00
 -1       919-1.20064E+03 2.82811E+02 3.91616E+03
 -1       920-2.08336E+03 8.99579E+02 1.37566E+04
 -1       921-1.31126E+03 1.57782E+03 2.38820E+04
 -1       922-3.93768E+02 1.96017E+03 2.90057E+04
 -1       923 1.16628E+03 2.17639E+03 2.68845E+04
 -1       924 2.83172E+03 2.24362E+03 1.53301E+04
 -1       925 2.44672E+03 2.33647E+03-9.91246E+02
 -1       926 5.42005E+02 5.32700E+02-1.32589E+04
 -1       927-1.26695E+02-9.34585E+01-1.26736E+04
 -1       928-2.91549E+02-1.88575E+02-1.16343E+04
 -1       929-3.11016E+02-2.55106E+02-1.02460E+04
 -1       930-2.97272E+02-2.22733E+02-8.59431E+03
 -1       931-3.23875E+02-2.52875E+02-6.78703E+03
 -1       932-3.39430E+02-2.70011E+02-4.85842E+03
 -1       933-3.50589E+02-2.62049E+02-2.86521E+03
 -1       934-3.50023E+02-2.70067E+02-8.76312E+02
 -1       935-3.15548E+02-2.87604E+02 1.05104E+03
 -1       936-1.68879E+02-4.05806E+02 2.87567E+03
 -1       937 4.10439E+02-7.62141E+02 1.41145E+03
 -1       938 7.36471E+02-7.43136E+02-1.99996E+03
 -1       939 3.57829E+02-5.34893E+02-5.35216E+03
 -1       940-9.36055E+01-3.47066E+02-6.33845E+03
 -1       941-2.93344E+02-3.18915E+02-5.10427E+03
 -1       942-4.48355E+02-2.01360E+02-2.88454E+03
 -1       943-2.52998E+02-6.30041E+01-8.10910E+02
 -1       944 0.00000E+00 0.00000E+00 0.00000E+00
 -1       945 0.00000E+00 0.00000E+00 0.00000E+00
 -1       946-1.40927E+03 6.87575E+02 9.16776E+03
 -1       947-1.24146E+02 1.51473E+03 1.87962E+04
 -1       948 2.14971E+03 1.23661E+03 6.36296E+03
 -1       949-1.83211E+02-5.03758E+01-1.32006E+04
 -1       950-2.16892E+02-1.41255E+02-1.05254E+04
 -1       951-3.17791E+02-2.45600E+02-7.20388E+03
 -1       952-3.40995E+02-2.57869E+02-3.33255E+03
 -1       953-3.33841E+02-2.79029E+02 6.95730E+02
 -1       954-3.29612E+02-2.92590E+02 4.64203E+03
 -1       955-1.90350E+02-2.34632E+02-4.72900E+03
 -1       956-2.93181E+02-1.53304E+02-1.85565E+03
 -1       957 0.00000E+00 0.00000E+00 0.00000E+00
 -1       958 0.00000E+00 0.00000E+00 0.00000E+00
 -1       959-4.85870E+02 1.56506E+02 1.59758E+03
 -1       960-8.67529E+02 5.28542E+02 5.60400E+03
 -1       961-5.37509E+02 8.32604E+02 9.81464E+03
 -1       962-2.67233E+01 9.57352E+02 1.16154E+04
 -1       963 9.40945E+02 1.03798E+03 8.61217E+03
 -1       964 1.57775E+03 6.24154E+02 1.32501E+03
 -1       965-2.80293E+02-1.94833E+02-1.27195E+04
 -1       966-2.28167E+02-1.29933E+02-1.10688E+04
 -1       967-3.30748E+02-2.33761E+02-9.45926E+03
 -1       968-3.20242E+02-2.27385E+02-7.67671E+03
 -1       969-3.19952E+02-2.38694E+02-5.79799E+03
 -1       970-3.34832E+02-2.51071E+02-3.83452E+03
 -1       971-3.45225E+02-2.60667E+02-1.81533E+03
 -1       972-3.50494E+02-2.61511E+02 2.30589E+02
 -1       973-3.54363E+02-2.55928E+02 2.27439E+03
 -1       974-3.35128E+02-2.73080E+02 4.28455E+03
 -1       975-3.46631E+02-2.59440E+02 6.30441E+03
 -1       976-2.47987E+02-1.67079E+02-3.61173E+03
 -1       977-2.14490E+02-1.90338E+02-2.21356E+03
 -1       978-1.78901E+02-9.87849E+01-1.09377E+03
 -1       979-9.34201E+01-2.61473E+01-3.16026E+02
 -1       980 0.00000E+00 0.00000E+00 0.00000E+00
 -1       981 0.00000E+00 0.00000E+00 0.00000E+00
 -1       982-4.78513E+02 3.92138E+02 3.00595E+03
 -1       983-2.03229E+02 6.45163E+02 7.19118E+03
 -1       984-3.52117E+02-2.16570E+02-1.18739E+04
 -1       985-3.21312E+02-2.26561E+02-8.22117E+03
 -1       986-3.37465E+02-2.46649E+02-4.36646E+03
 -1       987-3.47283E+02-2.55703E+02-2.97859E+02
 -1       988-3.47724E+02-2.50463E+02 3.79141E+03
 -1       989-3.60997E+02-2.45152E+02 7.83223E+03
 -1       990-1.48096E+02 2.45692E+01-9.42850E+02
 -1       991 0.00000E+00 0.00000E+00 0.00000E+00
 -1       992 0.00000E+00 0.00000E+00 0.00000E+00
 -1       993-9.32341E+01 7.25147E+01 3.11344E+02
 -1       994-1.90390E+02 2.50919E+02 1.09105E+03
 -1       995-2.50358E+02 4.96478E+02 2.29018E+03
 -1       996-3.53853E+02 4.56474E+02 4.10324E+03
 -1       997-3.14078E+02-2.11158E+02-1.07463E+04
 -1       998-3.37366E+02-2.29551E+02-8.81897E+03
 -1       999-3.30508E+02-2.30793E+02-6.87880E+03
 -1      1000-3.38336E+02-2.46840E+02-4.90774E+03
 -1      1001-3.42552E+02-2.50902E+02-2.89283E+03
 -1      1002-3.45471E+02-2.53082E+02-8.48854E+02
 -1      1003-3.45226E+02-2.50692E+02 1.19963E+03
 -1      1004-3.42511E+02-2.42831E+02 3.22838E+03
 -1      1005-3.40942E+02-2.37007E+02 5.23049E+03
 -1      1006-3.38539E+02-2.22945E+02 7.20477E+03
 -1      1007-3.44982E+02-2.29324E+02 9.19030E+03
 -1      1008-2.02141E+02 1.52545E+02-1.35220E+03
 -1      1009-1.20416E+02 4.29676E+01-4.26588E+02
 -1      1010 0.00000E+00 0.00000E+00 0.00000E+00
 -1      1011 0.00000E+00 0.00000E+00 0.00000E+00
 -1      1012-1.28970E+01 1.28637E+02 4.50940E+01
 -1      1013-3.41560E+02-2.44402E+02-9.42222E+03
 -1      1014-3.39183E+02-2.50802E+02-5.43164E+03
 -1      1015-3.43859E+02-2.55346E+02-1.38736E+03
 -1      1016-3.36956E+02-2.41607E+02 2.65972E+03
 -1      1017-3.21827E+02-2.09967E+02 6.55030E+03
 -1      1018-3.24762E+02-1.90579E+02 1.03355E+04
 -1      1019-4.72341E+02 2.98258E+02-2.89274E+03
 -1      1020 0.00000E+00 0.00000E+00 0.00000E+00
 -1      1021 0.00000E+00 0.00000E+00 0.00000E+00
 -1      1022 4.26979E+01 7.43908E+00-9.80029E+01
 -1      1023 8.90542E+01 1.88272E+01-4.94488E+02
 -1      1024 1.31874E+02-2.20390E+01-1.18803E+03
 -1      1025 1.53144E+02-2.83310E+01-2.02213E+03
 -1      1026-3.48662E+02-2.70002E+02-7.92011E+03
 -1      1027-3.43303E+02-2.65249E+02-5.90768E+03
 -1      1028-3.44398E+02-2.67589E+02-3.89998E+03
 -1      1029-3.42214E+02-2.62684E+02-1.88193E+03
 -1      1030-3.38933E+02-2.57581E+02 1.32410E+02
 -1      1031-3.31766E+02-2.46705E+02 2.12306E+03
 -1      1032-3.21363E+02-2.30275E+02 4.06612E+03
 -1      1033-3.11166E+02-2.12187E+02 5.93683E+03
 -1      1034-2.98494E+02-1.79747E+02 7.73162E+03
 -1      1035-3.06285E+02-1.66893E+02 9.48092E+03
 -1      1036-2.77183E+02-1.44244E+02 1.12182E+04
 -1      1037-1.39903E+03 6.11173E+02-1.84515E+04
 -1      1038-1.13853E+03 7.12957E+02-1.09595E+04
 -1      1039-8.67048E+02 4.31650E+02-5.11388E+03
 -1      1040-4.42465E+02 1.31785E+02-1.34781E+03
 -1      1041 0.00000E+00 0.00000E+00 0.00000E+00
 -1      1042 0.00000E+00 0.00000E+00 0.00000E+00
 -1      1043 7.03967E+01-3.20451E+01-4.20776E+02
 -1      1044 1.46281E+02-8.84519E+01-1.68994E+03
 -1      1045-3.50757E+02-2.78316E+02-6.28884E+03
 -1      1046-3.40201E+02-2.74150E+02-2.30465E+03
 -1      1047-3.28096E+02-2.57079E+02 1.64958E+03
 -1      1048-3.02109E+02-2.20770E+02 5.40113E+03
 -1      1049-2.74723E+02-1.70730E+02 8.75725E+03
 -1      1050-3.13580E+02-1.47346E+02 1.18294E+04
 -1      1051-1.10551E+03 6.97999E+02-2.21029E+04
 -1      1052-1.26061E+03 5.11738E+02-7.86066E+03
 -1      1053 0.00000E+00 0.00000E+00 0.00000E+00
 -1      1054 0.00000E+00 0.00000E+00 0.00000E+00
 -1      1055 1.12696E+01-2.04003E+01-1.88885E+01
 -1      1056 2.02734E+01-7.45407E+01-1.19262E+02
 -1      1057 6.84205E+01-1.28846E+02-3.70170E+02
 -1      1058 1.33328E+02-1.79645E+02-9.44928E+02
 -1      1059 2.06931E+02-2.43146E+02-1.98046E+03
 -1      1060 2.55258E+02-2.48886E+02-3.33049E+03
 -1      1061-3.34082E+02-2.85401E+02-4.56605E+03
 -1      1062-3.26856E+02-2.93679E+02-2.61558E+03
 -1      1063-3.35665E+02-2.75389E+02-6.74202E+02
 -1      1064-3.27703E+02-2.70317E+02 1.26418E+03
 -1      1065-3.15486E+02-2.58694E+02 3.15924E+03
 -1      1066-2.93936E+02-2.35565E+02 4.96893E+03
 -1      1067-2.67901E+02-2.08607E+02 6.66545E+03
 -1      1068-2.64168E+02-1.81997E+02 8.22226E+03
 -1      1069-2.75551E+02-1.77791E+02 9.63905E+03
 -1      1070-1.42843E+02-3.69608E+01 1.08259E+04
 -1      1071-2.08652E+02-1.17273E+02 1.20732E+04
 -1      1072 1.65773E+03-1.16445E+01-1.94408E+04
 -1      1073 6.99810E+02 7.29349E+02-2.61539E+04
 -1      1074-7.27949E+02 8.78166E+02-2.64063E+04
 -1      1075-1.35638E+03 8.82870E+02-2.01375E+04
 -1      1076-1.71812E+03 6.03087E+02-1.10148E+04
 -1      1077-9.57173E+02 1.81977E+02-3.06109E+03
 -1      1078 0.00000E+00 0.00000E+00 0.00000E+00
 -1      1079 0.00000E+00 0.00000E+00 0.00000E+00
 -1      1080-6.06504E+01-1.02995E+02 3.99225E+02
 -1      1081 7.60933E+01-2.66510E+02 3.61774E+02
 -1      1082 2.62974E+02-3.34621E+02-1.66131E+03
 -1      1083-3.18287E+02-3.06078E+02-2.78274E+03
 -1      1084-3.15845E+02-2.90178E+02 9.83454E+02
 -1      1085-2.99091E+02-2.55024E+02 4.65322E+03
 -1      1086-2.55315E+02-2.16344E+02 7.89213E+03
 -1      1087-1.18205E+02-6.25332E+01 1.02968E+04
 -1      1088-7.50804E+01 6.82257E+01 1.18476E+04
 -1      1089 2.55746E+03 7.67659E+02-2.10994E+04
 -1      1090-6.46224E+02 1.48781E+03-3.32553E+04
 -1      1091-2.31080E+03 7.51066E+02-1.49748E+04
 -1      1092 0.00000E+00 0.00000E+00 0.00000E+00
 -1      1093 0.00000E+00 0.00000E+00 0.00000E+00
 -1      1094-9.50214E+01-4.26609E+01 3.16333E+02
 -1      1095-1.63717E+02-1.36894E+02 1.09495E+03
 -1      1096-8.71340E+01-2.48037E+02 1.84472E+03
 -1      1097-3.86967E+00-3.31570E+02 2.12810E+03
 -1      1098 1.33447E+02-4.10957E+02 1.75509E+03
 -1      1099 2.76654E+02-4.74227E+02 5.78803E+02
 -1      1100 1.17711E+02-5.38033E+02-7.20819E+02
 -1      1101-2.15886E+02-3.78699E+02-9.48275E+02
 -1      1102-3.06766E+02-3.01426E+02 8.21898E+02
 -1      1103-3.24768E+02-2.84876E+02 2.63599E+03
 -1      1104-3.18106E+02-2.73659E+02 4.43794E+03
 -1      1105-3.00098E+02-2.68627E+02 6.16353E+03
 -1      1106-2.69892E+02-2.38504E+02 7.73886E+03
 -1      1107-2.28443E+02-1.89837E+02 9.10545E+03
 -1      1108-2.42527E+02-2.17400E+02 1.02393E+04
 -1      1109-2.14701E+02-1.20673E+02 1.10185E+04
 -1      1110 5.05352E+00 9.64587E+00 1.13466E+04
 -1      1111 8.67565E+02 7.90392E+02 1.10718E+04
 -1      1112 3.24344E+03 2.46253E+03-5.78466E+03
 -1      1113 3.66337E+03 2.05987E+03-2.76897E+04
 -1      1114 1.35833E+03 2.08047E+03-4.19844E+04
 -1      1115-8.03054E+02 1.96476E+03-4.34092E+04
 -1      1116-2.02600E+03 1.66941E+03-3.50119E+04
 -1      1117-3.03315E+03 9.76858E+02-1.99471E+04
 -1      1118-1.74347E+03 3.09795E+02-5.64809E+03
 -1      1119 0.00000E+00 0.00000E+00 0.00000E+00
 -1      1120 0.00000E+00 0.00000E+00 0.00000E+00
 -1      1121-2.97563E+02-1.67554E+02 1.98077E+03
 -1      1122-5.72569E+01-3.82802E+02 4.18634E+03
 -1      1123 1.86687E+02-4.52846E+02 3.38199E+03
 -1      1124 3.03662E+00-4.92603E+02 2.01249E+03
 -1      1125 2.82684E+03 2.76503E+03-3.45611E+03
 -1      1126 3.19779E+03 2.38276E+03-4.17264E+04
 -1      1127-7.53165E+02 2.52984E+03-5.63478E+04
 -1      1128-4.01389E+03 1.25160E+03-2.64576E+04
 -1      1129 0.00000E+00 0.00000E+00 0.00000E+00
 -1      1130 0.00000E+00 0.00000E+00 0.00000E+00
 -1      1131-2.58502E+02-5.50782E+01 8.82811E+02
 -1      1132-4.38059E+02-1.88914E+02 3.01791E+03
 -1      1133-2.97498E+02-3.35583E+02 5.27471E+03
 -1      1134-7.97655E+01-4.34557E+02 6.55298E+03
 -1      1135 5.47435E+01-4.12623E+02 6.55341E+03
 -1      1136 1.53951E+02-4.24974E+02 5.90564E+03
 -1      1137 8.45488E+01-4.22815E+02 5.24118E+03
 -1      1138 2.11556E+01-4.17037E+02 4.81319E+03
 -1      1139-8.63534E+01-2.25335E+02 5.19980E+03
 -1      1140-1.45427E+02-7.26339E+01 5.94833E+03
 -1      1141 1.08800E+03 1.62366E+03-2.52133E+03
 -1      1142 1.71828E+03 2.35105E+03-1.02339E+04
 -1      1143 2.75176E+03 3.17981E+03-2.19138E+04
 -1      1144 2.84895E+03 2.79581E+03-3.92853E+04
 -1      1145 3.01554E+03 2.64069E+03-5.60537E+04
 -1      1146 1.43050E+03 2.64686E+03-6.94201E+04
 -1      1147-5.29435E+02 3.16541E+03-7.27327E+04
 -1      1148-3.28842E+03 2.56099E+03-5.98587E+04
 -1      1149-5.09770E+03 1.42914E+03-3.42378E+04
 -1      1150-2.95937E+03 3.87260E+02-9.80841E+03
 -1      1151 0.00000E+00 0.00000E+00 0.00000E+00
 -1      1152 5.13482E+01-4.01523E+02 9.06645E+03
 -1      1153 1.71101E+02-2.09628E+02 7.80081E+03
 -1      1154 8.46218E+01-1.21115E+02 6.35005E+03
 -1      1155-2.09071E+01 4.61362E+01 5.99582E+03
 -1      1156 1.62417E+03 9.81075E+02-9.99400E+03
 -1      1157 2.70171E+03 1.25947E+03-3.47073E+04
 -1      1158 3.00094E+03 1.19390E+03-6.76391E+04
 -1      1159 1.19556E+03 3.00223E+03-9.17648E+04
 -1      1160 2.40179E+02-3.82201E+02 1.14264E+04
 -1      1161 2.43343E+02-1.73337E+02 9.93234E+03
 -1      1162 2.51478E+02 4.30913E+01 8.35154E+03
 -1      1163 1.83393E+02 1.05498E+02 7.11369E+03
 -1      1164 1.25503E+02 1.56356E+02 6.22156E+03
 -1      1165 8.81410E+01 1.78857E+02 5.59282E+03
 -1      1166 3.51766E+01 2.21152E+02 5.24680E+03
 -1      1167 1.57164E+03 2.08025E+01-1.30982E+04
 -1      1168 2.02966E+03-2.05351E+02-2.34918E+04
 -1      1169 2.40838E+03-5.87797E+02-3.65132E+04
 -1      1170 2.90358E+03-6.99684E+02-5.18603E+04
 -1      1171 3.42846E+03-5.80512E+02-7.00839E+04
 -1      1172 3.22349E+03 1.01884E+03-9.04887E+04
 -1      1173 3.12939E+03 2.89986E+03-1.09761E+05
 -1      1174 2.17764E+02 3.80123E+02 6.93705E+03
 -1      1175 1.32573E+02 2.97386E+02 4.87834E+03
 -1      1176 7.98041E+01 3.01476E+02 3.64056E+03
 -1      1177 1.26860E+03-6.67241E+02-1.10889E+04
 -1      1178 1.95748E+03-1.66417E+03-2.97956E+04
 -1      1179 2.74674E+03-3.16766E+03-5.74401E+04
 -1      1180 1.19377E+02 5.97218E+02 3.95505E+03
 -1      1181 1.05955E+02 5.03050E+02 3.30475E+03
 -1      1182 8.31086E+01 4.18979E+02 2.75227E+03
 -1      1183 8.14028E+01 3.56524E+02 2.27706E+03
 -1      1184 9.45797E+01 2.97863E+02 1.78377E+03
 -1      1185 9.49162E+01 1.84832E+02 1.15005E+03
 -1      1186 7.85693E+01 8.84938E+01 5.72637E+02
 -1      1187 1.16931E+02 2.48337E+00 1.91033E+00
 -1      1188 1.79640E+02-1.18950E+02-8.01063E+02
 -1      1189 4.37392E+02-4.60615E+02-2.82416E+03
 -1      1190 7.39407E+02-9.91019E+02-6.14997E+03
 -1      1191 9.23925E+02-1.72700E+03-1.11067E+04
 -1      1192 1.13965E+03-2.59976E+03-1.71315E+04
 -1      1193 1.37940E+03-3.69116E+03-2.44212E+04
 -1      1194 1.54518E+03-4.85753E+03-3.29073E+04
 -1      1195 2.91198E+01 3.43020E+02 1.11941E+03
 -1      1196 2.73874E+01 2.42056E+02 7.72517E+02
 -1      1197 3.13979E+01 1.55215E+02 4.70781E+02
 -1      1198 2.51663E+01 5.06357E+01 1.55705E+02
 -1      1199 5.46861E+01-6.92615E+01-2.75947E+02
 -1      1200 2.26230E+02-5.28681E+02-1.72103E+03
 -1      1201 3.57136E+02-1.49618E+03-4.85549E+03
 -1      1202 4.31505E+02-2.83950E+03-9.48422E+03
 -1      1203 0.00000E+00 0.00000E+00 0.00000E+00
 -1      1204 0.00000E+00 0.00000E+00 0.00000E+00
 -1      1205 0.00000E+00 0.00000E+00 0.00000E+00
 -1      1206 0.00000E+00 0.00000E+00 0.00000E+00
 -1      1207 0.00000E+00 0.00000E+00 0.00000E+00
 -1      1208 0.00000E+00 0.00000E+00 0.00000E+00
 -1      1209 0.00000E+00 0.00000E+00 0.00000E+00
 -1      1210 0.00000E+00 0.00000E+00 0.00000E+00
 -1      1211 0.00000E+00 0.00000E+00 0.00000E+00
 -1      1212 0.00000E+00 0.00000E+00 0.00000E+00
 -1      1213 0.00000E+00 0.00000E+00 0.00000E+00
 -1      1214 0.00000E+00 0.00000E+00 0.00000E+00
 -1      1215 0.00000E+00 0.00000E+00 0.00000E+00
 -1      1216 0.00000E+00 0.00000E+00 0.00000E+00
 -1      1217 0.00000E+00 0.00000E+00 0.00000E+00
 -1      1218 6.59688E+01 1.64260E+02-1.32885E+04
 -1      1219-5.10497E+02-3.62636E+02-1.16407E+04
 -1      1220-5.90337E+02-4.58451E+02-8.59844E+03
 -1      1221-6.48841E+02-5.05256E+02-4.85620E+03
 -1      1222-6.59311E+02-5.16848E+02-8.75216E+02
 -1      1223-5.35597E+02-6.09907E+02 2.88191E+03
 -1      1224-5.39994E+02-3.30265E+02-1.27250E+04
 -1      1225-5.77349E+02-3.97549E+02-9.44197E+03
 -1      1226-6.18336E+02-4.59885E+02-5.79854E+03
 -1      1227-6.59190E+02-4.95089E+02-1.81378E+03
 -1      1228-6.66046E+02-4.99428E+02 2.27051E+03
 -1      1229-6.65357E+02-5.04381E+02 6.30547E+03
 -1      1230-6.35280E+02-4.24358E+02-1.07493E+04
 -1      1231-6.35049E+02-4.47685E+02-6.87874E+03
 -1      1232-6.55872E+02-4.80970E+02-2.89221E+03
 -1      1233-6.59715E+02-4.78373E+02 1.19883E+03
 -1      1234-6.48793E+02-4.49216E+02 5.22780E+03
 -1      1235-6.61073E+02-4.28101E+02 9.18879E+03
 -1      1236-6.66338E+02-5.09197E+02-7.91921E+03
 -1      1237-6.55972E+02-5.08643E+02-3.89844E+03
 -1      1238-6.47587E+02-4.91635E+02 1.31994E+02
 -1      1239-6.15794E+02-4.42023E+02 4.06429E+03
 -1      1240-5.74874E+02-3.51859E+02 7.73104E+03
 -1      1241-5.74724E+02-3.00335E+02 1.12219E+04
 -1      1242-6.40492E+02-5.51282E+02-4.56692E+03
 -1      1243-6.34842E+02-5.33111E+02-6.72133E+02
 -1      1244-6.01074E+02-4.90811E+02 3.15651E+03
 -1      1245-5.21250E+02-4.03082E+02 6.66542E+03
 -1      1246-4.56033E+02-2.78430E+02 9.61656E+03
 -1      1247-4.06037E+02-1.70699E+02 1.20793E+04
 -1      1248-5.45291E+02-6.17738E+02-9.52905E+02
 -1      1249-6.14726E+02-5.45607E+02 2.63527E+03
 -1      1250-5.69396E+02-5.03944E+02 6.16073E+03
 -1      1251-4.64767E+02-4.03182E+02 9.11062E+03
 -1      1252-3.49219E+02-2.34723E+02 1.10261E+04
 -1      1253 4.08474E+02 4.51003E+02 1.11165E+04
 -1      1254-3.65095E+02-1.60195E+02-1.33384E+04
 -1      1255-5.25622E+02-3.44255E+02-1.26305E+04
 -1      1256-7.39955E+02-5.49186E+02-1.16405E+04
 -1      1257-8.05994E+02-6.41367E+02-1.02311E+04
 -1      1258-8.79335E+02-6.90329E+02-8.60328E+03
 -1      1259-9.27745E+02-7.22777E+02-6.78652E+03
 -1      1260-9.58809E+02-7.42193E+02-4.85290E+03
 -1      1261-9.71216E+02-7.49983E+02-2.86646E+03
 -1      1262-9.71214E+02-7.60809E+02-8.75430E+02
 -1      1263-9.29820E+02-7.95926E+02 1.04161E+03
 -1      1264-8.93252E+02-8.23468E+02 2.89233E+03
 -1      1265-6.03473E+02-2.83796E+02-1.31644E+04
 -1      1266-7.28227E+02-5.31209E+02-1.05440E+04
 -1      1267-8.80945E+02-6.80448E+02-7.19506E+03
 -1      1268-9.63014E+02-7.35424E+02-3.33414E+03
 -1      1269-9.67526E+02-7.60825E+02 7.00229E+02
 -1      1270-9.49161E+02-7.99594E+02 4.63477E+03
 -1      1271-8.12410E+02-4.75215E+02-1.27240E+04
 -1      1272-7.93679E+02-4.67244E+02-1.10859E+04
 -1      1273-8.20841E+02-5.58299E+02-9.42353E+03
 -1      1274-8.74415E+02-6.29586E+02-7.66677E+03
 -1      1275-9.18825E+02-6.82301E+02-5.79769E+03
 -1      1276-9.55096E+02-7.13155E+02-3.83379E+03
 -1      1277-9.73947E+02-7.29469E+02-1.81221E+03
 -1      1278-9.81060E+02-7.38954E+02 2.29262E+02
 -1      1279-9.77582E+02-7.44342E+02 2.26617E+03
 -1      1280-9.76928E+02-7.50851E+02 4.28603E+03
 -1      1281-9.86316E+02-7.47297E+02 6.30496E+03
 -1      1282-9.05026E+02-5.48519E+02-1.18592E+04
 -1      1283-8.91626E+02-6.14345E+02-8.21022E+03
 -1      1284-9.51729E+02-6.95357E+02-4.36288E+03
 -1      1285-9.80788E+02-7.21570E+02-2.98565E+02
 -1      1286-9.75756E+02-7.10086E+02 3.78605E+03
 -1      1287-9.92570E+02-6.99164E+02 7.82593E+03
 -1      1288-9.52911E+02-6.33206E+02-1.07527E+04
 -1      1289-9.40061E+02-6.32628E+02-8.80980E+03
 -1      1290-9.40875E+02-6.66500E+02-6.87712E+03
 -1      1291-9.54289E+02-6.95312E+02-4.90366E+03
 -1      1292-9.69841E+02-7.11366E+02-2.89113E+03
 -1      1293-9.76475E+02-7.15077E+02-8.48667E+02
 -1      1294-9.75352E+02-7.07085E+02 1.19754E+03
 -1      1295-9.65733E+02-6.86871E+02 3.22452E+03
 -1      1296-9.56859E+02-6.61576E+02 5.22387E+03
 -1      1297-9.60492E+02-6.36202E+02 7.20083E+03
 -1      1298-9.77512E+02-6.28301E+02 9.18591E+03
 -1      1299-9.78170E+02-6.98165E+02-9.42121E+03
 -1      1300-9.64553E+02-7.14352E+02-5.43033E+03
 -1      1301-9.71435E+02-7.21755E+02-1.38655E+03
 -1      1302-9.51704E+02-6.83124E+02 2.65576E+03
 -1      1303-9.17789E+02-6.00315E+02 6.54708E+03
 -1      1304-9.35476E+02-5.44772E+02 1.03334E+04
 -1      1305-9.84461E+02-7.50514E+02-7.91737E+03
 -1      1306-9.73339E+02-7.54274E+02-5.90596E+03
 -1      1307-9.67869E+02-7.49829E+02-3.89632E+03
 -1      1308-9.65281E+02-7.42413E+02-1.88107E+03
 -1      1309-9.57400E+02-7.26716E+02 1.31325E+02
 -1      1310-9.37869E+02-6.97011E+02 2.11972E+03
 -1      1311-9.10695E+02-6.53929E+02 4.06127E+03
 -1      1312-8.77299E+02-5.96893E+02 5.92970E+03
 -1      1313-8.52544E+02-5.26315E+02 7.72820E+03
 -1      1314-8.49685E+02-4.51025E+02 9.46825E+03
 -1      1315-8.67729E+02-4.49389E+02 1.12258E+04
 -1      1316-9.72328E+02-7.91676E+02-6.28491E+03
 -1      1317-9.56483E+02-7.75226E+02-2.30228E+03
 -1      1318-9.26957E+02-7.25170E+02 1.64727E+03
 -1      1319-8.51605E+02-6.21839E+02 5.39450E+03
 -1      1320-7.55427E+02-4.51087E+02 8.74215E+03
 -1      1321-7.71562E+02-3.33033E+02 1.18099E+04
 -1      1322-9.48318E+02-8.16475E+02-4.56693E+03
 -1      1323-9.41893E+02-8.16165E+02-2.61728E+03
 -1      1324-9.34425E+02-7.91751E+02-6.70106E+02
 -1      1325-9.18969E+02-7.62445E+02 1.26255E+03
 -1      1326-8.87463E+02-7.22788E+02 3.15308E+03
 -1      1327-8.41294E+02-6.70953E+02 4.96624E+03
 -1      1328-7.77149E+02-5.98775E+02 6.66330E+03
 -1      1329-7.08094E+02-4.98437E+02 8.20840E+03
 -1      1330-6.32539E+02-3.75350E+02 9.59238E+03
 -1      1331-5.95555E+02-2.28701E+02 1.08478E+04
 -1      1332-6.19599E+02-2.34531E+02 1.20775E+04
 -1      1333-9.10085E+02-8.47472E+02-2.77810E+03
 -1      1334-9.06681E+02-8.01003E+02 9.78922E+02
 -1      1335-8.46870E+02-7.27698E+02 4.65262E+03
 -1      1336-6.98395E+02-5.95876E+02 7.87980E+03
 -1      1337-4.83595E+02-3.40565E+02 1.03211E+04
 -1      1338-3.19674E+02 1.29903E+01 1.18032E+04
 -1      1339-8.69158E+02-8.62913E+02-9.60029E+02
 -1      1340-8.90620E+02-8.41023E+02 8.27469E+02
 -1      1341-9.05803E+02-8.04275E+02 2.63514E+03
 -1      1342-8.81821E+02-7.75822E+02 4.43653E+03
 -1      1343-8.38608E+02-7.40859E+02 6.15641E+03
 -1      1344-7.74811E+02-6.86018E+02 7.73737E+03
 -1      1345-6.94294E+02-6.11751E+02 9.11630E+03
 -1      1346-5.87598E+02-5.15614E+02 1.02188E+04
 -1      1347-4.95731E+02-3.64517E+02 1.10257E+04
 -1      1348-2.08325E+02-7.09431E+01 1.12908E+04
 -1      1349 6.93894E+00 1.67469E+02 1.11854E+04
 -1      1350-5.58252E+02-2.63469E+02-1.33449E+04
 -1      1351-9.40979E+02-7.19865E+02-1.16310E+04
 -1      1352-1.15511E+03-9.14869E+02-8.59973E+03
 -1      1353-1.26798E+03-9.80150E+02-4.85160E+03
 -1      1354-1.27853E+03-1.00833E+03-8.76995E+02
 -1      1355-1.20053E+03-1.08205E+03 2.89374E+03
 -1      1356-1.06832E+03-5.92491E+02-1.27146E+04
 -1      1357-1.08640E+03-7.38984E+02-9.41608E+03
 -1      1358-1.21803E+03-9.02234E+02-5.79429E+03
 -1      1359-1.29126E+03-9.66420E+02-1.81176E+03
 -1      1360-1.29405E+03-9.85863E+02 2.26383E+03
 -1      1361-1.30355E+03-9.95775E+02 6.30180E+03
 -1      1362-1.26175E+03-8.29412E+02-1.07484E+04
 -1      1363-1.24457E+03-8.83332E+02-6.87298E+03
 -1      1364-1.28518E+03-9.42750E+02-2.88914E+03
 -1      1365-1.29211E+03-9.36962E+02 1.19567E+03
 -1      1366-1.26643E+03-8.77345E+02 5.21967E+03
 -1      1367-1.29132E+03-8.30153E+02 9.18141E+03
 -1      1368-1.30110E+03-9.95882E+02-7.91464E+03
 -1      1369-1.28164E+03-9.94149E+02-3.89442E+03
 -1      1370-1.26867E+03-9.62637E+02 1.30458E+02
 -1      1371-1.20679E+03-8.66641E+02 4.05652E+03
 -1      1372-1.12709E+03-6.97312E+02 7.72183E+03
 -1      1373-1.14932E+03-5.78048E+02 1.12197E+04
 -1      1374-1.25414E+03-1.08714E+03-4.56518E+03
 -1      1375-1.23740E+03-1.04819E+03-6.69818E+02
 -1      1376-1.17682E+03-9.56973E+02 3.15032E+03
 -1      1377-1.03010E+03-7.91159E+02 6.65766E+03
 -1      1378-8.36599E+02-4.96430E+02 9.58234E+03
 -1      1379-8.11348E+02-2.59607E+02 1.20651E+04
 -1      1380-1.16158E+03-1.13720E+03-9.60916E+02
 -1      1381-1.19256E+03-1.06497E+03 2.63520E+03
 -1      1382-1.10491E+03-9.77806E+02 6.15324E+03
 -1      1383-9.02258E+02-8.11160E+02 9.11088E+03
 -1      1384-6.02083E+02-4.73578E+02 1.10129E+04
 -1      1385-8.70119E+01 1.63973E+02 1.11946E+04
 -1      1386-7.11906E+02-3.28753E+02-1.33473E+04
 -1      1387-8.68378E+02-5.63322E+02-1.26077E+04
 -1      1388-1.13857E+03-8.97116E+02-1.16199E+04
 -1      1389-1.30421E+03-1.04647E+03-1.02221E+04
 -1      1390-1.42772E+03-1.13703E+03-8.59472E+03
 -1      1391-1.52146E+03-1.18981E+03-6.78215E+03
 -1      1392-1.57767E+03-1.21882E+03-4.84986E+03
 -1      1393-1.59776E+03-1.23572E+03-2.86593E+03
 -1      1394-1.58658E+03-1.25441E+03-8.78716E+02
 -1      1395-1.53476E+03-1.31130E+03 1.03663E+03
 -1      1396-1.49960E+03-1.34869E+03 2.89427E+03
 -1      1397-9.90189E+02-4.56514E+02-1.31449E+04
 -1      1398-1.18942E+03-8.79455E+02-1.05297E+04
 -1      1399-1.45116E+03-1.11980E+03-7.18444E+03
 -1      1400-1.58828E+03-1.21107E+03-3.33213E+03
 -1      1401-1.59383E+03-1.25245E+03 6.97266E+02
 -1      1402-1.56104E+03-1.31920E+03 4.63008E+03
 -1      1403-1.33108E+03-7.04989E+02-1.27036E+04
 -1      1404-1.31289E+03-7.57382E+02-1.10713E+04
 -1      1405-1.35379E+03-9.21558E+02-9.40625E+03
 -1      1406-1.43842E+03-1.03843E+03-7.65326E+03
 -1      1407-1.51972E+03-1.12208E+03-5.78977E+03
 -1      1408-1.57619E+03-1.17483E+03-3.82900E+03
 -1      1409-1.61045E+03-1.20457E+03-1.81111E+03
 -1      1410-1.61744E+03-1.21946E+03 2.26876E+02
 -1      1411-1.61147E+03-1.22821E+03 2.26080E+03
 -1      1412-1.60996E+03-1.24258E+03 4.28030E+03
 -1      1413-1.62192E+03-1.24572E+03 6.29784E+03
 -1      1414-1.48023E+03-8.79756E+02-1.18492E+04
 -1      1415-1.47018E+03-1.01006E+03-8.19599E+03
 -1      1416-1.57281E+03-1.14855E+03-4.35655E+03
 -1      1417-1.62090E+03-1.19077E+03-2.99803E+02
 -1      1418-1.60840E+03-1.17242E+03 3.77835E+03
 -1      1419-1.63012E+03-1.15122E+03 7.81874E+03
 -1      1420-1.56816E+03-1.02245E+03-1.07423E+04
 -1      1421-1.54692E+03-1.04188E+03-8.79743E+03
 -1      1422-1.54855E+03-1.10206E+03-6.86751E+03
 -1      1423-1.57588E+03-1.14877E+03-4.89640E+03
 -1      1424-1.60250E+03-1.17564E+03-2.88647E+03
 -1      1425-1.61299E+03-1.18163E+03-8.48672E+02
 -1      1426-1.61082E+03-1.16820E+03 1.19326E+03
 -1      1427-1.59361E+03-1.13614E+03 3.21714E+03
 -1      1428-1.57689E+03-1.09471E+03 5.21411E+03
 -1      1429-1.58066E+03-1.04903E+03 7.18981E+03
 -1      1430-1.60494E+03-1.03155E+03 9.17535E+03
 -1      1431-1.61006E+03-1.14591E+03-9.41463E+03
 -1      1432-1.58870E+03-1.17885E+03-5.42296E+03
 -1      1433-1.60513E+03-1.19225E+03-1.38545E+03
 -1      1434-1.57217E+03-1.12878E+03 2.64844E+03
 -1      1435-1.50985E+03-9.90644E+02 6.53444E+03
 -1      1436-1.53944E+03-8.78857E+02 1.03233E+04
 -1      1437-1.61766E+03-1.24313E+03-7.91091E+03
 -1      1438-1.60255E+03-1.24485E+03-5.89971E+03
 -1      1439-1.59654E+03-1.23965E+03-3.89184E+03
 -1      1440-1.59323E+03-1.22698E+03-1.87943E+03
 -1      1441-1.58182E+03-1.20000E+03 1.29359E+02
 -1      1442-1.54955E+03-1.15148E+03 2.11351E+03
 -1      1443-1.50460E+03-1.08063E+03 4.05030E+03
 -1      1444-1.44911E+03-9.86215E+02 5.91677E+03
 -1      1445-1.40134E+03-8.70696E+02 7.71349E+03
 -1      1446-1.39756E+03-7.39830E+02 9.45075E+03
 -1      1447-1.42767E+03-6.99403E+02 1.12112E+04
 -1      1448-1.59855E+03-1.31139E+03-6.28098E+03
 -1      1449-1.57814E+03-1.27921E+03-2.29966E+03
 -1      1450-1.53290E+03-1.19638E+03 1.64273E+03
 -1      1451-1.40752E+03-1.02747E+03 5.38248E+03
 -1      1452-1.24494E+03-7.40043E+02 8.72228E+03
 -1      1453-1.25793E+03-5.04805E+02 1.17964E+04
 -1      1454-1.56081E+03-1.36017E+03-4.56304E+03
 -1      1455-1.55226E+03-1.34844E+03-2.61523E+03
 -1      1456-1.54189E+03-1.30498E+03-6.69410E+02
 -1      1457-1.51582E+03-1.25683E+03 1.25981E+03
 -1      1458-1.46846E+03-1.19216E+03 3.14666E+03
 -1      1459-1.38841E+03-1.10355E+03 4.95610E+03
 -1      1460-1.28609E+03-9.82861E+02 6.65025E+03
 -1      1461-1.16290E+03-8.21843E+02 8.18917E+03
 -1      1462-1.04295E+03-6.20083E+02 9.56916E+03
 -1      1463-9.88181E+02-3.58887E+02 1.08289E+04
 -1      1464-1.01237E+03-2.75666E+02 1.20508E+04
 -1      1465-1.49794E+03-1.40020E+03-2.77548E+03
 -1      1466-1.49518E+03-1.31844E+03 9.78136E+02
 -1      1467-1.39574E+03-1.19765E+03 4.64572E+03
 -1      1468-1.14734E+03-9.80181E+02 7.86381E+03
 -1      1469-7.81673E+02-5.66341E+02 1.03022E+04
 -1      1470-5.21035E+02 4.61862E+01 1.17782E+04
 -1      1471-1.44884E+03-1.41677E+03-9.61262E+02
 -1      1472-1.46572E+03-1.38430E+03 8.29748E+02
 -1      1473-1.47898E+03-1.32447E+03 2.63500E+03
 -1      1474-1.44279E+03-1.27648E+03 4.43263E+03
 -1      1475-1.36950E+03-1.21534E+03 6.14905E+03
 -1      1476-1.25554E+03-1.12909E+03 7.72935E+03
 -1      1477-1.10284E+03-1.00747E+03 9.10337E+03
 -1      1478-9.24773E+02-8.36787E+02 1.02061E+04
 -1      1479-7.01424E+02-5.91433E+02 1.09983E+04
 -1      1480-3.40473E+02-1.11313E+02 1.12604E+04
 -1      1481-1.28185E+02 2.10730E+02 1.11981E+04
 -3
    1PSTEP                        22           1           1          
    1PGM                1.000000E+00                                  
    1PGK                1.575735E+12                                  
    1PHID                         -1                                  
    1PSUBC                         0                                  
    1PMODE                         6                                  
  100CL  106 199784.4837        1481                     2    6MODAL      1
 -4  STRESS      6    1
 -5  SXX         1    4    1    1
 -5  SYY         1    4    2    2
 -5  SZZ         1    4    3    3
 -5  SXY         1    4    1    2
 -5  SYZ         1    4    2    3
 -5  SZX         1    4    3    1
 -1         1 1.37912E+08 1.16526E+08 7.36372E+07 1.43412E+08-7.04044E+07-7.90588E+07
 -1         2 1.96430E+08 5.92727E+07-5.36957E+06 1.38917E+08 1.13274E+07-3.05170E+07
 -1         3 2.26973E+08 2.48155E+07 5.98848E+06 9.13604E+07-2.56309E+07-1.69777E+07
 -1         4 1.22423E+08-2.57715E+06 8.96917E+05 3.57737E+07-9.59735E+06-1.80356E+07
 -1         5 8.99144E+07 6.33743E+05-5.74670E+06 2.11745E+07 3.15111E+06 6.57016E+06
 -1         6 6.54844E+07 3.82982E+06 2.44150E+06 1.32538E+07-1.65492E+05-3.79993E+06
 -1         7 3.09373E+07 1.07250E+06-1.65050E+06 7.10228E+06-2.52101E+06 3.79911E+06
 -1         8 4.76297E+06 3.37798E+06 9.69907E+04 5.53046E+06 1.69945E+06-5.10270E+06
 -1         9-3.85319E+07-3.57036E+06-2.04912E+06 1.49966E+07 6.00710E+06 1.81767E+05
 -1        10-3.96898E+07-1.16268E+07 1.90548E+06 2.65027E+07-5.47683E+05-5.90449E+06
 -1        11-3.25786E+07-1.97330E+07-1.51643E+07 2.96667E+07 1.47788E+07-1.70969E+07
 -1        12 5.98640E+07 1.76016E+08-2.32000E+06 1.37982E+08-3.06528E+07 1.28256E+07
 -1        13 1.65002E+08 6.03485E+07 1.34224E+07 1.15946E+08-9.98660E+06 3.48000E+06
 -1        14 9.12915E+07 1.77382E+07-5.24296E+06 3.90452E+07 3.32156E+06 8.27909E+06
 -1        15 2.79652E+07 2.12346E+06 1.24154E+06 1.29301E+07-9.03393E+05 4.75144E+06
 -1        16-2.79919E+07-1.98242E+07-3.04009E+06 1.53001E+07 1.57739E+06 1.24197E+06
 -1        17-1.46061E+07-4.79159E+07-2.23780E+05 2.62878E+07 5.09196E+06 2.95486E+06
 -1        18 2.17132E+07 2.19309E+08 3.16699E+06 9.04695E+07-1.90851E+07-2.68397E+07
 -1        19 5.99308E+07 1.66546E+08 1.30093E+07 1.15140E+08 4.10408E+06-1.12392E+07
 -1        20 8.89976E+07 8.96590E+07-9.72905E+06 1.17883E+08-8.05067E+06-6.90174E+06
 -1        21 8.59783E+07 6.03432E+07-5.14077E+06 7.41101E+07-3.90895E+06-1.06442E+06
 -1        22 7.43570E+07 3.81590E+07 3.96628E+06 4.76822E+07-9.57106E+04-1.87165E+06
 -1        23 4.32545E+07 1.65726E+07 1.92009E+05 2.96484E+07 2.00082E+05-1.39698E+06
 -1        24 1.46289E+07-2.60131E+06-7.31967E+05 1.40890E+07-1.33308E+05 8.47771E+05
 -1        25-5.06061E+06-2.03235E+07 6.98957E+05 9.46926E+06 1.83052E+06-4.56849E+05
 -1        26-1.90668E+07-3.88228E+07 2.14403E+06 9.90533E+06 3.44133E+06-7.75521E+04
 -1        27-1.42988E+07-6.44971E+07-2.44011E+06 1.26659E+07 1.69450E+06-1.90660E+06
 -1        28-5.38668E+06-7.67060E+07 6.85818E+05 1.33708E+07 6.78963E+06-5.47668E+06
 -1        29-9.89433E+05 1.34978E+08 1.18052E+06 3.56719E+07-1.65100E+07-9.86193E+06
 -1        30 6.24676E+07 9.27496E+07-5.20177E+06 7.17129E+07-1.30425E+06-3.47290E+06
 -1        31 4.97011E+07 3.73426E+07 2.36633E+06 2.78621E+07 8.98284E+05 7.58969E+05
 -1        32-1.97262E+06-1.62396E+07-8.12716E+05-1.91780E+05-4.84364E+05 1.45043E+06
 -1        33-2.51854E+07-6.33349E+07 1.64021E+06-1.17204E+07-1.54395E+06-7.87916E+05
 -1        34-2.11461E+06-9.17215E+07-3.71735E+05-3.52180E+06-1.75703E+06-3.61823E+06
 -1        35 1.31475E+06 1.10420E+08-6.49841E+06 1.90030E+07 5.32356E+06 2.26716E+06
 -1        36 2.14536E+07 1.11158E+08-4.77794E+06 3.45528E+07 6.51817E+06 3.33000E+06
 -1        37 4.33071E+07 8.90479E+07 3.75119E+06 4.19745E+07-1.94745E+06-5.13265E+05
 -1        38 3.97960E+07 5.79966E+07 2.25355E+06 2.48029E+07 3.46862E+05 7.19717E+05
 -1        39 2.55625E+07 2.73399E+07-1.44174E+06 1.09978E+07 6.60028E+05 1.17779E+06
 -1        40 2.89578E+06-2.17792E+06-1.14685E+05-2.54088E+06 1.33033E+06-4.48731E+05
 -1        41-1.99472E+07-3.19200E+07 7.12302E+04-1.57821E+07 1.49982E+06 9.48918E+05
 -1        42-3.12010E+07-5.96677E+07-2.64078E+05-2.43980E+07 1.57354E+06 4.99546E+04
 -1        43-3.47253E+07-8.84586E+07-7.19677E+05-3.28605E+07 7.44371E+05-1.58478E+06
 -1        44-1.95747E+07-1.13093E+08 6.14095E+05-2.59649E+07 3.98441E+06 5.75366E+05
 -1        45-1.42301E+06-1.14514E+08 4.63994E+06-1.51034E+07-2.04128E+06-2.67477E+06
 -1        46 5.06219E+06 9.60488E+07 2.98388E+06 8.06922E+06-2.41781E+06-3.53153E+05
 -1        47 2.61589E+07 6.58927E+07 3.19636E+05 1.74564E+07-8.03287E+05 5.28976E+04
 -1        48 3.07614E+06 1.11649E+07-1.86056E+05-6.95768E+06-3.51916E+05 1.80955E+06
 -1        49-4.09198E+07-4.86078E+07 2.44704E+05-3.53061E+07-1.01078E+05 1.35324E+06
 -1        50-4.72598E+07-1.08543E+08-3.61541E+05-6.22709E+07-2.35222E+06-8.95469E+05
 -1        51-5.58912E+06-1.43759E+08-3.66625E+06-2.82924E+07-7.35086E+06-1.02715E+06
 -1        52 1.48023E+06 6.83556E+07-3.40886E+06-1.49525E+06 2.23780E+06-1.61988E+06
 -1        53 9.27672E+06 6.57006E+07-5.02614E+05-2.63479E+06 2.11012E+06 2.33950E+05
 -1        54 1.27063E+07 4.59051E+07 5.86428E+05-5.30321E+06 1.68361E+06-2.19100E+05
 -1        55-4.93426E+05 2.05988E+07-1.52293E+04-1.36324E+07 1.38359E+06-1.27890E+05
 -1        56-1.92090E+07-5.46972E+06-3.29129E+05-2.47230E+07 7.30150E+05 1.74531E+06
 -1        57-4.22391E+07-3.38024E+07 1.51414E+05-3.97036E+07 8.53955E+05-1.94742E+05
 -1        58-6.45903E+07-6.43552E+07 1.62063E+06-5.52493E+07 5.46688E+05 1.10591E+06
 -1        59-7.18969E+07-9.70688E+07-2.95636E+06-7.06455E+07-5.33215E+05 1.51388E+06
 -1        60-6.57653E+07-1.31923E+08-4.85066E+06-9.38004E+07-4.57294E+06-1.16363E+06
 -1        61-3.11744E+07-1.57616E+08 6.31179E+06-7.48285E+07 9.23001E+06 4.62435E+06
 -1        62-1.11477E+06-1.55263E+08 8.44118E+06-4.26891E+07 1.30530E+06 2.68156E+06
 -1        63 2.51735E+06 5.05660E+07 4.29969E+05-8.36860E+06 1.30589E+06-1.69003E+06
 -1        64 1.32301E+06 2.78308E+07-1.09636E+06-1.92675E+07 1.48715E+04 4.40322E+05
 -1        65-3.88672E+07-1.40721E+07 5.14537E+05-3.77584E+07-3.36382E+05 1.71720E+06
 -1        66-9.08235E+07-6.78522E+07-3.09895E+06-7.35431E+07 1.73427E+06-2.12382E+05
 -1        67-8.76467E+07-1.29113E+08 6.94065E+06-1.30301E+08-2.97239E+06-5.50311E+06
 -1        68 2.82206E+06-1.79662E+08-1.27528E+06-6.34422E+07-2.51371E+07-1.31887E+07
 -1        69 4.59904E+06 3.98148E+07-2.21600E+05-1.80199E+07 6.69052E+06-2.90787E+06
 -1        70 7.49606E+05 2.97870E+07 1.60497E+06-2.72241E+07-7.04165E+04-2.03036E+06
 -1        71-8.16217E+06 1.26753E+07-1.27758E+06-3.42552E+07 2.69338E+06 6.04191E+05
 -1        72-3.19623E+07-2.54560E+06-1.41414E+05-4.03794E+07 5.83091E+05-2.10600E+06
 -1        73-5.89803E+07-1.85499E+07 5.28191E+05-5.20715E+07-1.43998E+06 3.22208E+04
 -1        74-8.78402E+07-3.66863E+07-2.04983E+05-7.41474E+07-6.31558E+05-2.97413E+06
 -1        75-1.19405E+08-5.95488E+07-5.22935E+06-9.90869E+07-5.87728E+05-4.67473E+06
 -1        76-1.24864E+08-8.38091E+07 6.92676E+06-1.32411E+08-6.08055E+06-2.36698E+06
 -1        77-1.19681E+08-1.18088E+08 1.32981E+07-1.90729E+08-1.25164E+07-1.09865E+07
 -1        78-7.82672E+07-2.15622E+08-1.74758E+07-1.78211E+08 6.95528E+06-1.57619E+07
 -1        79-2.64220E+07-2.83498E+08-4.15749E+06-1.34886E+08-2.94042E+07-3.58928E+07
 -1        80 8.65405E+06 2.65541E+07 2.57169E+05-2.23565E+07 4.91270E+06 3.59337E+06
 -1        81-7.99744E+06 6.65428E+06 2.17306E+06-2.97022E+07 1.90964E+06 3.25036E+06
 -1        82-7.70135E+07-1.20010E+07-1.03984E+06-4.13717E+07-5.73789E+05 6.55285E+06
 -1        83-1.40056E+08-2.67874E+07 7.03983E+06-7.88469E+07 4.56442E+06 1.12929E+07
 -1        84-2.17330E+08-7.80961E+07-1.80909E+07-1.79378E+08-1.37077E+07 5.57217E+06
 -1        85-7.68128E+07-2.27350E+08 3.14483E+06-1.92696E+08-4.36969E+07 1.78360E+07
 -1        86 2.25590E+07 1.33567E+07 1.04678E+07-2.02541E+07 9.46752E+06-1.02175E+07
 -1        87 1.39985E+07 5.64613E+06-1.39145E+06-2.23405E+07-1.37057E+06-5.75601E+06
 -1        88-1.44945E+06 2.15382E+06 2.07010E+06-1.93962E+07 3.70836E+06 1.91791E+05
 -1        89-4.73255E+07-2.85813E+06 1.43356E+04-1.74617E+07-1.87608E+05-8.10325E+06
 -1        90-7.85960E+07-8.87646E+05 3.16615E+06-2.36182E+07-3.51652E+06-5.19157E+05
 -1        91-1.15597E+08-4.57225E+06-3.50831E+06-3.32096E+07-7.93688E+05-8.65111E+06
 -1        92-1.37028E+08-2.27315E+05 7.90562E+06-4.43889E+07 3.68892E+06 3.09633E+06
 -1        93-1.69474E+08 4.90091E+06-8.50446E+05-6.29033E+07-1.28955E+07-2.70112E+07
 -1        94-3.00858E+08-3.18169E+07-8.61346E+06-1.36347E+08-3.37771E+07-2.66614E+07
 -1        95-2.62715E+08-7.61756E+07 8.02499E+06-1.94305E+08 1.55964E+07-4.33956E+07
 -1        96-1.88051E+08-1.53475E+08-9.93520E+07-1.94767E+08-9.14888E+07-1.05798E+08
 -1        97 1.58646E+08 1.33840E+08 1.06096E+08 1.35010E+08-1.57639E+08-1.70547E+08
 -1        98 1.71240E+08 1.00963E+07-5.09024E+06 6.04847E+07-9.98182E+06-2.11192E+07
 -1        99 7.34806E+07 1.29688E+06-2.25431E+06 1.31242E+07-2.59134E+06-4.79906E+04
 -1       100 2.30544E+07-8.26981E+05-2.01387E+06 5.13091E+06-8.09474E+05 5.11590E+06
 -1       101-2.81560E+07-7.28530E+05 8.14727E+05 9.67745E+06 2.74293E+06 2.64549E+06
 -1       102-3.62592E+07-2.20960E+07-2.16098E+07 2.80548E+07 3.32574E+07-3.62701E+07
 -1       103 7.15133E+06 1.64702E+08-7.24388E+06 5.92709E+07-2.67181E+07-1.07282E+07
 -1       104 7.77049E+07 7.79551E+07-3.22368E+06 9.57409E+07-4.48044E+06-3.33319E+06
 -1       105 5.82232E+07 2.89279E+07 2.93508E+06 3.84227E+07 2.98842E+05 4.27481E+06
 -1       106 1.20821E+07-2.14525E+06-1.95278E+05 1.09198E+07 2.68963E+06 5.54691E+06
 -1       107-1.63263E+07-3.27310E+07 8.10688E+05 8.13202E+06 5.76708E+06 2.19207E+06
 -1       108-1.66780E+06-5.85237E+07 2.44273E+06 8.58471E+06 9.81866E+06-2.75882E+06
 -1       109 1.30360E+06 8.91281E+07-2.92562E+06 1.14166E+07-1.37593E+06-3.55443E+06
 -1       110 3.28729E+07 7.01583E+07 2.80678E+06 3.39919E+07 2.73688E+06 7.37989E+05
 -1       111 2.08489E+07 2.23223E+07-5.23815E+05 8.81440E+06 4.35776E+06 6.05770E+06
 -1       112-1.58971E+07-2.59853E+07-1.21196E+05-1.27082E+07 4.96169E+06 5.78137E+06
 -1       113-2.72290E+07-7.08357E+07-1.02767E+06-2.58804E+07 4.60784E+06 7.00491E+05
 -1       114 1.05529E+06-8.93567E+07 3.90234E+06-1.16196E+07-2.75840E+06-3.28861E+06
 -1       115-3.68414E+05 5.32778E+07-2.68595E+06-2.99317E+05 6.44992E+06-1.82743E+06
 -1       116 9.60347E+06 3.67394E+07 8.16015E+05-4.73826E+06 4.65237E+06 2.62229E+06
 -1       117-1.56568E+07-4.15373E+06-2.19093E+05-1.99014E+07 4.32943E+06 6.47253E+06
 -1       118-5.23869E+07-5.22308E+07 4.37855E+05-4.44078E+07 3.71540E+06 5.40418E+06
 -1       119-5.05804E+07-1.04342E+08-3.51668E+06-7.58274E+07 1.19416E+06-1.14361E+06
 -1       120-1.17591E+06-1.25113E+08 4.00794E+06-2.74525E+07-1.42455E+07-5.10661E+06
 -1       121 2.48502E+06 3.10777E+07-1.15352E+06-1.22305E+07 1.16068E+07-7.45188E+05
 -1       122-6.07444E+06 1.12617E+07-4.33561E+05-2.77342E+07 3.83279E+06 4.22780E+06
 -1       123-4.75909E+07-1.47749E+07-7.25939E+04-4.13918E+07 8.84966E+05 5.57931E+06
 -1       124-9.40690E+07-4.58255E+07-3.82866E+06-7.99093E+07-1.42774E+06 2.67268E+06
 -1       125-1.04158E+08-1.02353E+08 5.09560E+06-1.54729E+08-7.77219E+06-6.74949E+06
 -1       126-8.30921E+06-2.13928E+08 1.01040E+07-8.95269E+07-4.53152E+07-1.40650E+07
 -1       127 2.62020E+07 1.62928E+07 1.52402E+07-1.85091E+07 2.15104E+07-2.21600E+07
 -1       128-1.88208E+06 9.43264E+05 1.13782E+05-1.30254E+07 9.15345E+05 3.24630E+05
 -1       129-6.04720E+07 1.58269E+06 3.44077E+06-1.70086E+07-2.18535E+06-3.90909E+06
 -1       130-1.11462E+08-1.00694E+06 3.52731E+06-2.88281E+07-3.85827E+06-1.25434E+07
 -1       131-2.28521E+08-1.33712E+07 6.64606E+06-9.15483E+07-1.27655E+07-3.73465E+07
 -1       132-2.13587E+08-1.73398E+08-1.42740E+08-1.78782E+08-2.06799E+08-2.28186E+08
 -1       133 2.75271E+08 2.46097E+08 3.31377E+08 1.41682E+08-4.35955E+08-4.69504E+08
 -1       134 1.74474E+08 5.33630E+07 7.59725E+05 9.66500E+07-4.03594E+07-1.15064E+08
 -1       135 1.31619E+08 3.90667E+06 5.31529E+06 3.34261E+07-2.10818E+07-5.93083E+07
 -1       136 4.33302E+07-2.57223E+07-3.10968E+07 1.14491E+07 2.44224E+06-2.82036E+07
 -1       137 6.93742E+07 1.44000E+07 2.98629E+07 5.52192E+06-1.28664E+07-1.69245E+07
 -1       138 3.62371E+07 2.48642E+06 6.29548E+06 6.01350E+06-4.03026E+06-1.06039E+07
 -1       139 1.26223E+07-5.75597E+06-1.13953E+07 3.46188E+06 6.70830E+05 4.88121E+06
 -1       140 8.56032E+06 5.98700E+06 5.75636E+06 1.32671E+06 4.36057E+04-6.14611E+05
 -1       141-2.05067E+07 1.58805E+06 1.08611E+06 5.00180E+06 5.40055E+06-1.61752E+06
 -1       142-3.53260E+07-9.49149E+06 1.66535E+06 1.90558E+07 1.05475E+07-2.01663E+07
 -1       143-6.05492E+07-4.42848E+07-6.82799E+07 2.95637E+07 9.01344E+07-9.97363E+07
 -1       144 5.56723E+07 1.51950E+08 8.83726E+06 9.54358E+07-1.17303E+08-4.30334E+07
 -1       145 1.05370E+08 4.54691E+07 4.31827E+07 6.14383E+07-2.30713E+07-2.58780E+07
 -1       146 5.92084E+07 1.20994E+07-3.81015E+06 2.06681E+07 3.27933E+06 1.24217E+07
 -1       147 1.70493E+07 4.03883E+05 3.70660E+06 6.98492E+06 5.77272E+05 1.04383E+07
 -1       148-1.79497E+07-1.48311E+07-1.00222E+07 7.76033E+06 6.91353E+06-5.35328E+04
 -1       149-1.28454E+07-3.69754E+07-3.59039E+06 1.89590E+07 2.44370E+07-9.69073E+06
 -1       150-6.37772E+05 1.24304E+08-5.43055E+04 3.22429E+07-6.63293E+07-2.23053E+07
 -1       151 4.54498E+07 1.08023E+08 4.14948E+07 5.99163E+07-2.57104E+07-2.65150E+07
 -1       152 4.75185E+07 4.73025E+07-4.19177E+07 7.42867E+07 2.07755E+07 2.42155E+07
 -1       153 4.98821E+07 3.58883E+07-6.47088E+06 4.75851E+07 3.06149E+06 1.31032E+07
 -1       154 4.42435E+07 2.24930E+07 6.79468E+06 2.95282E+07-2.60017E+06 6.44438E+06
 -1       155 2.70734E+07 1.01782E+07 2.84024E+06 1.76922E+07 1.81026E+06 5.59130E+06
 -1       156 7.51568E+06-3.34166E+06-4.03929E+06 7.94395E+06 7.53646E+06 1.13795E+07
 -1       157-1.68409E+06-1.25132E+07 9.81904E+05 6.14928E+06 6.79054E+06 7.84952E+06
 -1       158-9.97853E+06-2.24006E+07 8.69215E+06 6.39411E+06 3.21355E+06 9.17088E+06
 -1       159-9.75723E+06-4.04932E+07-7.61069E+06 5.80699E+06 1.31786E+07-4.05495E+06
 -1       160-7.15108E+05-4.45736E+07-1.72193E+06 4.56818E+06 1.89702E+07-5.77410E+06
 -1       161-2.46899E+07 5.19946E+07-2.94360E+07 1.20963E+07-3.05815E+07 4.04876E+06
 -1       162 3.73578E+07 5.44783E+07-7.03557E+06 4.57977E+07 1.07584E+07 5.02877E+06
 -1       163 2.85902E+07 2.04249E+07 2.36464E+05 1.69489E+07 5.23632E+06 1.14396E+07
 -1       164-9.70567E+05-9.84656E+06-2.18099E+05 3.91930E+04 5.72374E+06 1.12817E+07
 -1       165-1.47719E+07-3.86860E+07 2.24017E+06-6.67744E+06 3.64195E+06 5.00185E+06
 -1       166 6.18002E+06-4.66949E+07 7.68069E+06-2.04456E+06-2.94768E+05-5.32238E+05
 -1       167 1.28572E+07 7.95954E+07 2.60693E+07 4.09244E+06-1.75263E+07-1.55715E+07
 -1       168 1.39689E+07 7.10109E+07-2.85245E+06 1.82054E+07 9.21208E+06 3.46637E+06
 -1       169 2.49782E+07 5.29537E+07 5.91142E+06 2.63337E+07 3.16065E+06-1.18274E+06
 -1       170 2.18005E+07 3.37142E+07 1.75239E+05 1.49637E+07 8.29254E+06 7.07887E+06
 -1       171 1.72249E+07 1.83723E+07 1.96156E+06 6.53450E+06 8.01694E+06 1.08450E+07
 -1       172 2.02152E+06-1.32145E+06 1.77028E+05-1.64925E+06 8.54012E+06 9.21859E+06
 -1       173-1.21989E+07-2.02101E+07-5.99942E+05-9.63817E+06 8.24786E+06 9.99590E+06
 -1       174-1.79053E+07-3.58261E+07-5.05477E+04-1.49911E+07 9.34072E+06 7.21722E+06
 -1       175-1.87608E+07-5.16189E+07 2.16645E+06-1.91512E+07 1.10483E+07 3.90014E+06
 -1       176-1.19046E+07-7.05976E+07-3.26900E+06-1.49664E+07 5.63079E+06 5.85426E+05
 -1       177 1.79427E+06-6.70200E+07 1.43867E+06-8.83505E+06-2.36786E+06-6.80018E+06
 -1       178 3.23632E+06 5.31233E+07 8.42446E+06 3.56839E+06-5.80976E+06-6.33291E+06
 -1       179 1.59516E+07 4.10083E+07 4.01811E+06 1.03647E+07 4.33704E+06 1.67135E+06
 -1       180 1.95516E+06 7.15217E+06 2.88251E+05-4.32234E+06 6.87101E+06 1.14918E+07
 -1       181-2.51729E+07-2.98017E+07-5.73567E+05-2.13515E+07 6.75922E+06 1.05688E+07
 -1       182-2.89494E+07-6.70338E+07-5.13842E+06-3.79139E+07 3.46417E+06-2.02001E+06
 -1       183-3.20973E+06-7.98757E+07-1.04853E+07-1.23194E+07-2.66785E+07-9.48595E+06
 -1       184-1.11851E+06 3.98152E+07-1.46306E+06 1.05200E+06 1.27159E+07-3.86861E+06
 -1       185 5.14134E+06 4.11635E+07 2.38471E+06-1.35449E+06 7.40239E+06 1.39429E+06
 -1       186 5.74183E+06 2.62291E+07-1.80063E+06-4.10684E+06 1.01391E+07 6.58196E+06
 -1       187-1.05156E+06 1.22262E+07-8.99912E+04-8.11966E+06 8.39455E+06 7.50443E+06
 -1       188-1.19351E+07-2.85334E+06 4.80524E+04-1.50435E+07 7.37824E+06 1.09534E+07
 -1       189-2.57786E+07-2.07260E+07-4.45830E+05-2.40176E+07 7.66301E+06 9.10380E+06
 -1       190-4.15177E+07-4.14187E+07-2.56607E+06-3.33896E+07 6.87956E+06 9.66330E+06
 -1       191-4.07858E+07-5.71592E+07-2.35332E+05-4.27732E+07 7.52006E+06 6.46489E+06
 -1       192-3.85490E+07-7.89217E+07-7.53407E+06-5.84409E+07 6.51469E+05-5.03159E+06
 -1       193-2.04188E+07-1.00078E+08 4.10447E+06-4.06019E+07 6.34151E+06 3.06924E+06
 -1       194-1.56580E+07-1.09814E+08-3.26117E+07-1.30284E+07-4.38200E+07-2.09312E+07
 -1       195-2.74488E+06 2.59490E+07-4.70379E+06-3.36824E+06 1.10760E+07 1.06384E+06
 -1       196 4.03499E+05 1.75475E+07-1.36750E+06-1.22087E+07 4.04424E+06 7.78880E+06
 -1       197-2.36655E+07-8.26790E+06 9.93086E+04-2.30916E+07 5.46846E+06 1.23406E+07
 -1       198-5.31990E+07-3.84255E+07-3.15091E+05-4.47105E+07 4.71005E+06 1.05959E+07
 -1       199-5.25348E+07-7.61268E+07 9.80828E+06-8.22839E+07 1.15948E+07 3.14612E+06
 -1       200 3.24864E+07-7.14183E+07 3.85899E+07-2.32537E+07-5.81693E+07 5.26203E+06
 -1       201 2.63043E+06 2.49418E+07 2.37142E+06-7.19661E+06 2.13892E+07-1.94620E+06
 -1       202 7.82715E+05 1.91842E+07 4.69857E+06-1.48499E+07 9.36974E+06-1.18505E+06
 -1       203-6.24679E+06 6.95205E+06-5.85525E+06-2.14435E+07 1.90111E+06 1.03207E+07
 -1       204-2.03387E+07-1.18673E+06-1.65766E+05-2.49286E+07 4.09014E+06 7.40207E+06
 -1       205-3.38986E+07-9.09898E+06 4.46274E+06-3.10894E+07 5.02390E+06 1.24907E+07
 -1       206-5.43539E+07-2.26765E+07-3.99513E+06-4.50323E+07-1.57361E+06 4.66724E+06
 -1       207-7.13106E+07-3.54182E+07-8.37938E+06-6.13463E+07-6.10344E+06 3.75310E+06
 -1       208-7.28979E+07-4.98287E+07 8.98759E+06-8.41250E+07 1.18503E+06 1.43060E+07
 -1       209-6.39628E+07-6.19179E+07 5.55385E+07-1.19961E+08 2.31556E+07 2.75275E+07
 -1       210-6.03400E+07-1.41463E+08-5.43890E+07-9.45474E+07-3.53643E+07-3.50731E+07
 -1       211 1.42982E+06-1.62172E+08 1.64670E+06-5.01831E+07-1.03242E+08-2.85816E+07
 -1       212 8.78065E+06 2.28986E+07 2.51177E+06-1.43890E+07 2.10305E+07-3.50915E+06
 -1       213-3.82569E+06 6.18642E+06 6.90933E+06-1.65293E+07 4.78885E+06 4.33015E+06
 -1       214-4.76706E+07-6.99330E+06-4.73454E+06-2.32377E+07-1.02365E+05 8.61719E+06
 -1       215-9.00860E+07-1.83217E+07 4.95429E+06-4.27432E+07 2.94432E+06 9.97747E+06
 -1       216-1.39662E+08-5.96577E+07-5.69512E+07-9.69439E+07-2.89753E+07-3.71447E+07
 -1       217-7.09505E+07-1.94217E+08-1.24884E+07-1.28246E+08-1.67064E+08-5.68227E+07
 -1       218 4.28052E+07 3.15559E+07 4.66354E+07-1.88370E+07 5.83343E+07-6.18483E+07
 -1       219 1.67853E+07 5.72072E+06-1.39607E+06-1.42346E+07 4.95282E+06-1.69606E+07
 -1       220-1.64043E+06-6.83172E+05-1.65155E+06-7.34749E+06 1.93396E+06-4.66544E+06
 -1       221-2.98744E+07-2.36639E+06-2.32989E+06-6.86840E+06-1.87469E+06-1.21482E+07
 -1       222-4.10928E+07 6.33306E+06 1.12334E+07-1.12120E+07-1.99784E+06-9.58060E+06
 -1       223-6.45259E+07-2.63102E+06-8.75997E+06-1.47120E+07-6.80883E+06-3.13187E+07
 -1       224-1.01711E+08-1.75394E+07-3.76183E+07-1.43062E+07-1.69871E+07-4.35723E+07
 -1       225-6.31737E+07 3.41982E+07 4.15869E+07-2.19166E+07 2.55963E+06-5.43730E+07
 -1       226-1.77343E+08-6.49038E+06-7.70893E+06-5.21874E+07-2.64660E+07-9.34616E+07
 -1       227-2.32390E+08-6.74718E+07 5.08384E+05-1.30299E+08-5.21875E+07-1.63842E+08
 -1       228-3.65635E+08-3.18331E+08-4.43542E+08-1.82874E+08-5.62936E+08-6.18322E+08
 -1       229 8.47705E+08 7.94187E+08 6.75222E+08 3.81942E+08-7.54162E+08-8.08606E+08
 -1       230 3.97746E+07-4.85686E+07 1.44098E+07-1.63792E+07-1.34798E+07-6.41023E+07
 -1       231 5.44493E+07 3.75334E+07 5.00418E+07 3.87861E+06-3.07770E+07-3.25932E+07
 -1       232 4.67823E+06-1.46719E+07-1.77347E+07 1.26683E+06 6.30350E+06 5.37034E+06
 -1       233-2.76023E+06 1.25619E+07 3.55540E+05-4.71846E+06 3.41857E+06-1.01010E+06
 -1       234-1.81193E+08-1.56652E+08-1.39713E+08 7.94192E+07 1.55625E+08-1.70901E+08
 -1       235-5.79652E+07 3.50167E+07 5.74284E+06-1.68209E+07-7.21859E+07-1.52531E+07
 -1       236 5.50947E+07 5.25231E+07-6.66614E+07 6.79500E+07 3.16630E+07 3.75806E+07
 -1       237 2.86151E+07 1.20839E+07 1.05727E+07 1.86475E+07-1.97114E+06 7.32650E+06
 -1       238 5.58893E+06-1.43183E+06-7.28861E+06 5.76096E+06 9.15693E+06 1.44062E+07
 -1       239-1.15121E+07-1.93732E+07 1.36268E+07 8.03254E+06 2.75009E+06 1.31472E+07
 -1       240 9.85175E+06-2.10406E+07-4.62757E+06-4.73992E+06 2.00628E+07-5.63593E+06
 -1       241 3.67849E+07 6.18411E+07 4.48654E+07 1.92268E+06-3.33429E+07-3.39090E+07
 -1       242 1.34397E+07 3.47986E+07 8.96384E+06 1.64520E+07 3.40724E+06-3.95002E+05
 -1       243 1.10540E+07 1.18052E+07 1.78258E+06 3.82779E+06 9.25807E+06 1.28628E+07
 -1       244-8.11236E+06-1.34797E+07-3.96264E+05-6.64790E+06 1.06581E+07 1.23737E+07
 -1       245-1.24951E+07-3.48934E+07 4.67589E+06-1.40475E+07 1.39691E+07 5.31049E+06
 -1       246 2.58892E+06-4.35491E+07 4.06271E+05-4.62050E+06 1.39260E+06-8.58459E+06
 -1       247-2.78170E+06 2.53109E+07-1.13306E+06-1.97296E+05 1.90674E+07-4.25407E+06
 -1       248 3.88349E+06 1.78754E+07-3.81361E+06-1.92705E+06 1.30322E+07 8.52144E+06
 -1       249-8.13619E+06-2.05791E+06 8.59180E+04-1.01273E+07 9.37526E+06 1.37587E+07
 -1       250-2.72728E+07-2.71696E+07-2.10917E+06-2.18851E+07 7.81512E+06 1.13782E+07
 -1       251-2.18994E+07-5.23411E+07-1.15142E+07-3.78053E+07-2.22992E+05-4.75222E+06
 -1       252-4.66422E+07-8.47030E+07-5.73820E+07-7.16634E+06-6.91743E+07-4.45206E+07
 -1       253-4.26627E+06 1.16453E+07 4.44845E+06 2.15721E+05 2.42619E+07-1.50726E+06
 -1       254-1.47655E+06 7.31698E+06-9.46090E+06-1.67771E+07 1.80948E+06 1.35886E+07
 -1       255-2.32323E+07-6.71289E+06 8.31443E+06-2.17080E+07 6.12308E+06 1.57088E+07
 -1       256-4.67471E+07-2.03302E+07-1.29546E+07-3.96730E+07-5.78379E+06 3.28215E+06
 -1       257-7.18664E+07-6.64803E+07 8.76993E+07-1.03605E+08 3.55912E+07 4.37298E+07
 -1       258 7.39480E+07-4.92590E+07-4.70201E+06 1.55379E+07-1.15438E+08-2.02960E+07
 -1       259 1.18296E+08 1.03106E+08 9.38353E+07-5.02198E+07 1.00902E+08-1.06284E+08
 -1       260-8.36400E+06-8.80806E+06-2.48756E+06 2.80276E+05-2.38324E+05-5.97827E+06
 -1       261-2.36872E+07 1.44795E+07 1.67227E+07-5.70140E+06 2.41756E+06-1.13895E+07
 -1       262-7.79164E+07-4.63189E+07-6.41786E+07-9.97684E+06-3.94553E+07-6.92542E+07
 -1       263-5.94080E+07 5.78940E+07-1.98284E+07 1.47765E+07-1.74096E+07-1.04089E+08
 -1       264-1.09990E+09-1.01258E+09-8.99414E+08-4.86643E+08-9.67435E+08-1.05734E+09
 -1       265 1.18404E+09 3.04469E+09 1.18404E+09-1.96592E+07 6.80048E+08-6.33660E+02
 -1       266 9.20104E+08 2.36598E+09 9.20105E+08-3.23394E+07 4.25321E+08 3.51042E+02
 -1       267 6.93670E+08 1.78372E+09 6.93671E+08-3.88145E+07 3.61649E+08-1.80773E+02
 -1       268 5.32705E+08 1.36981E+09 5.32705E+08-2.36285E+07 1.51591E+08 5.52106E+02
 -1       269 4.03664E+08 1.03799E+09 4.03665E+08-8.35341E+06 1.33075E+08-2.23383E+02
 -1       270 3.05394E+08 7.85298E+08 3.05394E+08-1.02140E+07 8.84858E+07 5.40541E+01
 -1       271 2.02800E+08 5.21487E+08 2.02801E+08-1.91480E+07 1.90291E+07-4.10539E+01
 -1       272 1.14765E+08 2.95110E+08 1.14765E+08-1.60960E+07-1.91436E+05 2.98864E+02
 -1       273 4.56548E+07 1.17398E+08 4.56550E+07-5.57895E+06 6.39843E+07 4.16522E+01
 -1       274-8.70989E+06-2.23965E+07-8.70980E+06-4.59735E+06 1.53253E+06 1.66924E+01
 -1       275-5.85927E+07-1.50667E+08-5.85927E+07-7.62046E+06-2.11856E+07-3.04807E+01
 -1       276-9.75916E+07-2.50950E+08-9.75917E+07-6.64878E+06-3.94855E+07 1.14964E+02
 -1       277-1.38854E+08-3.57053E+08-1.38854E+08-7.79240E+06-7.55617E+07-6.49902E+01
 -1       278-1.94558E+08-5.00291E+08-1.94558E+08-7.14715E+06-9.48031E+07 9.74279E+01
 -1       279-2.52468E+08-6.49203E+08-2.52468E+08-3.98825E+06-1.47960E+08-1.20364E+02
 -1       280 8.32818E+08 2.23043E+09 6.83032E+08-3.92244E+08-4.26374E+07-1.17984E+08
 -1       281 5.29165E+08 1.34790E+09 3.46192E+08-2.55888E+08-3.99497E+07 3.79216E+07
 -1       282 3.25767E+08 8.43093E+08 2.04965E+08-1.29757E+08-3.42503E+06 3.84033E+07
 -1       283 1.36914E+08 4.70810E+08 5.88287E+07-1.51045E+08 2.56539E+06 1.27400E+07
 -1       284 5.40636E+07 5.40231E+07 1.67603E+07-8.70517E+07-8.17975E+06 1.08457E+07
 -1       285-3.76858E+07-1.06479E+08-2.85288E+07-5.25415E+07 7.12572E+06 1.94997E+07
 -1       286-1.06479E+08-2.65884E+08-7.54378E+07-6.56799E+07 5.39121E+06 1.10693E+07
 -1       287-1.70335E+08-4.68943E+08-1.44103E+08-8.43684E+07 1.17998E+06-2.53131E+07
 -1       288 7.90252E+07 6.03783E+07-3.10322E+08-7.19152E+08 6.31837E+08 6.85223E+05
 -1       289 1.25994E+08 9.61823E+07-2.91856E+08-5.79967E+08 4.15180E+08 9.43579E+06
 -1       290 1.24867E+08 7.36484E+07-3.03190E+08-4.28165E+08 2.10266E+08-2.43833E+07
 -1       291 1.79284E+08 2.33059E+08-1.86247E+08-3.17668E+08 1.94057E+08 1.23105E+07
 -1       292 1.41619E+08 3.16071E+08-1.16478E+08-2.21958E+08 5.48871E+07 1.16485E+07
 -1       293 4.21703E+07 3.78535E+08-1.15852E+08-2.17238E+08 5.55111E+07-1.49714E+07
 -1       294 7.94677E+07 4.63255E+08-7.07060E+07-2.47676E+08 3.49979E+07-3.03838E+06
 -1       295 1.32995E+08 2.10500E+08-2.86597E+07-2.57470E+08 5.34900E+07-7.96518E+07
 -1       296 6.46594E+07-4.61967E+07-2.18385E+07-1.37502E+08 1.34702E+07-1.24830E+07
 -1       297 3.51671E+07-3.35677E+07-1.21880E+06-9.59482E+07 3.18510E+05 6.83394E+06
 -1       298 1.48889E+07-2.91158E+06 2.70285E+07-8.73066E+07-2.77385E+07 1.90417E+06
 -1       299-8.81278E+06-1.52556E+06 3.77668E+07-1.01097E+08-3.52984E+07-8.90252E+06
 -1       300-2.29744E+07-2.45362E+06 5.05284E+07-1.15430E+08-5.25763E+07 1.17364E+06
 -1       301-1.75076E+07-1.05110E+07 5.58735E+07-1.34958E+08-8.61699E+07 6.74847E+06
 -1       302 6.13981E+05-4.56548E+06 6.86826E+07-1.51544E+08-1.38755E+08-7.25605E+06
 -1       303-2.81956E+08-1.84194E+09-3.97560E+08-3.87557E+08 9.65238E+07-5.33368E+07
 -1       304 1.68219E+08-7.54224E+08-8.92961E+07-1.41614E+08 3.29471E+07-1.70358E+07
 -1       305 8.06461E+07 4.31939E+07-8.15201E+07-4.04322E+07 2.42370E+07 2.14053E+07
 -1       306 8.06576E+07 4.04168E+08 2.53427E+07-7.94151E+07-3.16490E+07-1.87367E+07
 -1       307-6.17656E+06-1.10890E+08-2.52656E+07-2.70601E+07-5.91622E+06-3.49542E+06
 -1       308 7.68644E+06 5.28049E+07 9.06833E+06-4.12485E+07 1.77340E+06-9.35399E+04
 -1       309 9.30654E+06 1.72741E+08 2.66109E+07-7.32557E+07 9.18630E+05-8.29068E+06
 -1       310 7.82997E+07 3.91914E+08 8.48042E+07-8.55631E+07-1.01442E+07 5.57809E+06
 -1       311-1.07361E+08-1.17858E+08-1.13620E+08 1.09724E+09-2.53749E+08-2.09262E+08
 -1       312-2.96729E+08-7.56431E+08 5.16421E+07 8.83041E+08 1.65704E+08-2.94696E+08
 -1       313-1.05895E+08-1.71154E+09 2.34732E+08 3.81354E+08 7.58002E+07-1.20468E+08
 -1       314 2.82650E+08-1.54130E+09 2.73559E+08 9.34489E+07 8.27576E+07 2.59058E+07
 -1       315 3.61100E+08-1.23380E+09 2.63988E+08 7.64845E+07 6.00799E+07-2.25450E+07
 -1       316 2.72857E+08-2.51323E+08 2.66323E+08 2.62764E+08-3.75073E+07 4.73279E+07
 -1       317 5.28726E+07 7.40278E+07 4.77731E+07 1.46456E+08 5.92837E+07 9.79168E+07
 -1       318-3.49012E+07 1.36232E+08 3.54188E+07 5.33309E+07 6.27086E+07-2.41448E+07
 -1       319-1.08158E+07 2.29365E+08 6.30453E+07-1.67317E+06 1.29038E+08 6.71185E+07
 -1       320-5.44792E+06-7.23612E+07 2.02472E+07 2.43912E+07-9.81327E+06 6.84232E+06
 -1       321 1.94939E+07 1.23885E+07 1.02373E+07 1.36198E+07-1.95801E+07 1.18631E+07
 -1       322-8.78814E+06 1.03096E+08-1.30072E+07 2.89985E+06 7.45812E+06 1.16855E+06
 -1       323-1.05807E+07 1.71554E+08-2.78208E+07-9.19859E+06-1.07901E+07 1.54101E+06
 -1       324 7.21463E+05 2.30279E+08-4.16934E+07-1.92082E+07-2.82129E+07-5.87903E+06
 -1       325-4.90616E+05 3.10434E+08-4.81529E+07 8.78086E+06-1.28735E+07 5.71126E+05
 -1       326 4.19333E+07 3.77701E+08-4.60025E+07 6.85369E+07-2.15747E+07-9.48802E+06
 -1       327 5.59904E+07 1.69868E+08-1.46969E+07 1.85319E+08-3.48239E+07-6.93607E+07
 -1       328 2.16555E+07 3.17788E+07 2.25869E+07 2.37489E+08 4.54833E+07-4.64459E+07
 -1       329-7.12117E+08-2.65753E+08 4.22044E+07 8.09058E+08-2.98368E+08 1.37984E+08
 -1       330-5.37204E+08-1.44572E+09 1.43031E+07 1.67342E+08-1.01558E+08-3.72872E+07
 -1       331-6.27818E+08-2.20230E+09-3.89560E+08-4.07176E+08-1.43153E+08 6.60869E+07
 -1       332-2.94597E+06 1.36752E+08 6.28320E+06 4.82559E+07-2.84076E+07 1.43700E+07
 -1       333 4.00969E+07 3.24978E+08 2.27071E+07 1.84798E+07 5.53042E+06 1.02201E+07
 -1       334 1.15466E+08 3.06251E+08-7.12921E+06 3.72873E+07 7.24602E+06-1.26531E+07
 -1       335 1.52826E+08 7.45887E+07-5.57783E+06 1.80434E+08 6.13949E+07 3.01875E+07
 -1       336 2.85649E+09 1.11086E+09 1.11086E+09-2.39936E+07-6.61488E+02 6.79589E+08
 -1       337 2.05633E+09 7.48105E+08 6.26577E+08-4.05539E+08-1.20088E+08 2.00644E+06
 -1       338 4.54255E+07 2.15244E+07-2.98582E+08-7.29102E+08-3.95595E+07 6.09958E+08
 -1       339-1.65061E+09-2.75991E+08-3.56823E+08-4.54366E+08 1.73687E+07 6.89742E+07
 -1       340-1.58853E+09-1.31245E+08 2.01039E+08 2.29418E+08-4.78078E+07 7.56090E+07
 -1       341-1.27218E+09-5.52294E+08 2.81500E+07 9.72092E+07-8.34182E+07-2.16494E+07
 -1       342-6.24815E+08-6.93337E+08 2.63482E+07-1.67671E+08 2.17345E+07 5.79194E+07
 -1       343-4.35838E+08-8.76786E+08-2.11178E+07-4.10880E+08-4.63578E+08-1.45471E+08
 -1       344-5.94510E+08-7.18481E+08-7.02349E+07-5.65373E+08-2.57015E+08-2.38097E+08
 -1       345-3.67872E+07 6.44855E+07-1.51962E+07 1.17081E+08 1.50150E+07 3.37115E+07
 -1       346-5.33993E+07 1.76359E+08-3.37465E+06 1.11196E+08 4.47715E+07 2.21678E+07
 -1       347-4.22930E+06 2.74981E+08 2.31559E+07 2.55498E+07 3.27310E+07-2.83519E+07
 -1       348 1.32924E+07 2.37388E+08 4.03163E+05-2.51766E+07 7.00514E+07-1.97672E+07
 -1       349 1.23360E+08 1.70924E+08-4.52045E+06-2.40283E+07-6.53767E+06 1.04721E+07
 -1       350 2.78787E+08 1.32267E+08-1.43137E+06 3.17038E+07 1.18952E+07-2.00935E+07
 -1       351 3.31458E+08 2.29020E+07-4.69129E+07 6.12159E+07 2.39722E+07 1.28766E+07
 -1       352 3.62966E+08 5.31112E+07 7.97346E+07-1.00784E+08 1.06417E+07 2.63486E+07
 -1       353-7.54558E+06-1.35623E+07 6.66893E+07-1.68141E+08 2.46494E+06 1.30755E+08
 -1       354-4.47743E+08-1.68972E+08-1.36381E+08-9.38088E+07 2.08614E+07-5.75049E+06
 -1       355-6.19027E+08-2.40733E+08-2.40733E+08-7.47263E+06 1.25507E+02 1.47110E+08
 -1       356 2.14812E+09 8.35381E+08 8.35382E+08-3.78478E+07 5.92335E+02 4.09148E+08
 -1       357 4.67495E+07 1.04775E+08-2.44746E+08-6.37947E+08 3.05731E+07 3.69711E+08
 -1       358-1.28977E+09 9.01152E+07 2.18495E+08-4.85251E+07 1.25320E+06 6.10218E+07
 -1       359-8.90332E+08-5.97901E+07-6.93882E+06-2.76913E+08-5.30571E+07-3.69465E+08
 -1       360 1.20288E+09 1.84166E+09 5.01075E+08 5.80939E+08-5.15622E+07-1.01680E+08
 -1       361-2.88958E+08-1.79036E+08-5.52353E+07 1.51504E+08-9.71867E+06 4.28004E+06
 -1       362 1.48267E+08 1.17743E+08 5.91485E+06-9.49932E+07 2.02082E+07-9.98235E+07
 -1       363 2.85712E+08-6.43608E+07-5.60705E+07-6.19086E+06-4.67120E+06 1.64111E+07
 -1       364-1.44353E+07-2.48037E+07 5.50576E+07-1.41066E+08-2.59332E+06 8.01283E+07
 -1       365-4.53490E+08-1.76357E+08-1.76357E+08-8.53245E+06-8.74020E+01 8.33333E+07
 -1       366 1.47743E+09 5.74554E+08 5.74555E+08-3.84592E+07-3.08573E+02 3.16766E+08
 -1       367 1.10307E+09 4.66369E+08 3.10936E+08-3.04958E+08 4.29345E+07-2.72138E+07
 -1       368-7.47618E+06 1.52695E+08-2.16355E+08-5.32173E+08-7.55781E+06 2.11505E+08
 -1       369-7.26899E+08 6.83000E+07-9.98047E+07-3.78427E+08-4.04674E+07 7.66098E+06
 -1       370-9.77262E+08 1.15725E+08 1.84992E+08-1.82322E+08-4.38568E+07 1.08351E+08
 -1       371-1.41625E+09-3.13403E+07-1.30834E+08-7.06115E+07 1.48748E+07-2.54877E+07
 -1       372-1.05181E+09 2.12333E+08-1.12294E+08-1.26362E+08-1.51335E+08-1.81804E+08
 -1       373 1.40865E+09 1.24976E+09 3.05635E+08 5.35520E+08 1.58226E+07-3.67255E+07
 -1       374 1.90989E+09 1.84234E+09 4.19235E+08 1.04325E+09-6.38356E+08-7.10331E+08
 -1       375 3.89058E+08 2.23610E+08-9.93453E+07 2.09575E+08-3.59823E+07-8.15560E+07
 -1       376-8.58014E+06-6.94973E+07 1.16266E+08-6.51213E+07 1.62386E+07-8.78868E+07
 -1       377-1.32407E+07-6.08873E+07 4.90842E+06-2.10454E+07-1.42297E+07-5.31366E+07
 -1       378 4.08005E+06 2.85608E+07-1.66856E+07 2.36010E+06-6.73895E+06-1.23512E+07
 -1       379 2.00666E+07 1.03951E+07-2.71955E+06 1.22738E+07-4.11241E+06-1.28677E+07
 -1       380 1.10843E+07-1.09203E+07 9.44600E+06-8.05852E+05 1.50289E+05 7.69952E+06
 -1       381 7.19280E+06 9.18295E+06 4.26652E+05-6.54224E+06 3.30818E+06-3.03444E+06
 -1       382 4.02106E+06 1.55741E+07-2.42769E+07-1.42536E+07-1.69966E+06-4.46596E+06
 -1       383-8.41710E+07-4.47860E+07 1.91280E+07 4.35512E+07 1.07263E+07-9.24189E+06
 -1       384-4.35083E+08-3.40639E+08-8.84976E+07 2.20280E+08 1.41724E+08-1.40407E+08
 -1       385-4.70286E+08-1.95887E+08-1.09506E+08 1.02848E+08 2.85784E+07-1.94116E+07
 -1       386 1.02688E+08 1.33883E+08 1.60237E+07-1.49014E+08 5.38622E+07-6.33113E+07
 -1       387 4.12324E+08 1.30689E+08 8.19536E+07-1.13771E+08-6.63491E+06-3.15009E+07
 -1       388 2.24655E+08-8.88553E+07-5.19401E+07-1.16250E+07-2.33721E+06 5.70350E+06
 -1       389 1.43479E+08-3.98229E+07 1.37864E+07-5.25527E+07 7.71235E+06 8.76955E+06
 -1       390-8.80669E+06-2.89346E+07 4.89218E+07-1.13264E+08 2.21621E+06 3.63868E+07
 -1       391-2.34878E+08-9.55366E+07-6.27715E+07-6.76063E+07-7.90196E+06-8.09571E+06
 -1       392-3.06238E+08-1.19093E+08-1.19093E+08-8.40970E+06 6.68419E+01 5.96156E+07
 -1       393 9.95058E+08 3.86967E+08 3.86967E+08-2.29242E+07 4.75167E+02 1.38571E+08
 -1       394-5.53433E+06 1.12986E+08-1.54126E+08-4.12641E+08-2.99968E+07 1.54577E+08
 -1       395-7.72070E+08 2.43327E+08 1.18962E+08-1.20474E+08 2.85162E+07 5.16169E+07
 -1       396-7.23341E+08 4.94505E+08 3.12938E+07 3.61176E+08 5.51744E+07-2.03560E+08
 -1       397 2.31985E+08 3.46440E+08-9.89991E+07 2.11754E+08-1.00698E+08-4.01726E+07
 -1       398-5.45201E+06 4.13534E+07 8.45557E+07-6.19600E+05 2.38116E+07 2.68126E+07
 -1       399 2.18532E+07 7.78732E+06-1.82679E+07 8.01421E+06-3.61049E+06 7.34420E+06
 -1       400 6.04998E+06 6.83274E+05 1.05729E+07 1.63367E+06 5.20636E+06 1.43655E+07
 -1       401 3.94383E+06-1.02055E+07-1.89301E+07-1.40418E+06-1.15287E+06 1.38498E+07
 -1       402-5.04357E+07-7.05840E+07 2.05149E+07 4.33611E+07 2.32935E+07-8.95398E+06
 -1       403 2.88730E+07-8.05775E+07-4.34539E+07 4.60315E+07 1.05430E+06-6.76782E+06
 -1       404-4.13595E+07-4.69312E+07 2.94426E+07-9.12759E+07 2.21254E+06 3.00667E+07
 -1       405-1.94924E+08-7.58038E+07-7.58040E+07-5.22313E+06-1.50279E+02 2.17828E+07
 -1       406 5.84593E+08 2.27342E+08 2.27342E+08-1.61831E+07-3.70636E+02 1.30541E+08
 -1       407 4.59769E+08 1.97040E+08 1.28202E+08-1.77060E+08 3.03981E+07-4.85997E+06
 -1       408 4.97838E+07 1.08431E+08-6.71094E+07-2.96930E+08 2.27697E+07 9.43154E+07
 -1       409-3.24720E+08 1.63471E+08-4.69555E+07-1.40200E+08-2.08172E+07-3.66245E+07
 -1       410-5.66872E+08 3.04401E+08 3.43060E+07-2.55926E+07 2.48236E+07-1.48752E+07
 -1       411-6.47234E+08 1.69650E+08-4.58376E+07 1.03043E+08 1.19560E+08 1.02787E+08
 -1       412-3.02976E+08 2.85742E+08 6.31490E+07 3.91131E+08 1.80940E+08-9.38884E+07
 -1       413-8.09562E+07-8.10308E+06 1.12038E+08-6.45409E+07-9.38233E+07 1.70811E+07
 -1       414 4.81483E+07 6.99460E+06 8.83788E+07-4.96804E+06 1.93570E+07 2.75192E+07
 -1       415 8.12636E+07 7.63438E+07-3.55293E+07 6.01526E+07-2.95922E+07-2.91972E+07
 -1       416-8.23328E+06 1.09660E+07-2.39863E+07 1.66965E+07-3.92087E+06 5.85925E+06
 -1       417 1.35173E+07 2.25243E+06 1.27214E+07 8.40439E+06 5.69091E+06 1.86414E+07
 -1       418 1.33160E+07 3.11803E+06 6.07585E+06 5.51089E+06 6.13322E+06 1.22687E+07
 -1       419 4.80958E+06 1.89131E+06-6.14082E+06 3.64204E+06 5.77539E+06 1.55832E+07
 -1       420 3.51758E+06-4.21558E+06 2.90854E+06 2.16408E+06 1.01905E+07 8.32685E+06
 -1       421-1.69373E+07-1.99811E+07 7.20359E+06 9.30678E+06 1.77035E+07 1.07615E+06
 -1       422-1.04169E+07-9.03264E+06-1.64335E+07-3.85734E+06 7.34406E+06 8.02206E+06
 -1       423 1.53171E+07-4.73021E+06-2.21430E+07-1.38385E+07 2.51096E+07 2.55063E+06
 -1       424-3.84133E+07-4.68212E+07 8.14510E+06 3.94290E+07-3.23361E+07 3.31231E+07
 -1       425-3.64894E+07-4.34860E+07 1.80317E+07-2.41323E+07-1.25000E+07 5.16590E+06
 -1       426-8.13588E+07-8.95244E+07 9.91409E+05-6.65860E+07-3.34218E+06-1.25630E+07
 -1       427-9.64512E+07-5.49493E+07-1.79729E+07-3.10539E+07 5.91615E+06 1.76692E+06
 -1       428-1.05829E+08-4.11555E+07-4.11558E+07-9.63588E+05 1.56459E+02 2.82771E+07
 -1       429 3.14479E+08 1.22297E+08 1.22298E+08-1.17400E+07 3.00360E+02 2.13744E+07
 -1       430 7.79591E+07 1.30265E+08-3.41185E+07-2.31239E+08 5.57539E+06 6.37826E+07
 -1       431-1.06171E+08 1.97108E+08 4.98638E+07 8.94802E+07-5.31122E+06 5.47678E+06
 -1       432-6.70366E+07-1.00295E+07 6.43417E+06-1.78960E+07-5.37568E+07-1.54880E+07
 -1       433 1.42684E+07-3.86674E+06-2.35757E+07 1.45665E+07 4.57282E+06-2.77946E+06
 -1       434 1.27400E+07 1.01155E+07 4.85529E+06 7.25472E+06 8.32066E+06 1.59726E+07
 -1       435-1.67133E+06-5.45828E+06-2.68193E+06 7.08990E+04 8.45624E+06 1.61428E+07
 -1       436-5.72072E+06-7.66649E+06 7.06089E+06-2.60910E+06 7.33752E+06 3.80582E+06
 -1       437 1.97903E+07-7.75998E+06-1.79029E+06-2.87406E+06 2.61423E+06-5.93168E+06
 -1       438-7.46964E+07-1.24456E+08 1.16947E+07 1.12773E+07 4.38785E+06 3.09689E+07
 -1       439-1.05800E+08-4.11442E+07-4.11445E+07 7.38731E+05-6.21593E+01-2.97187E+06
 -1       440 9.91822E+07 3.85706E+07 3.85709E+07-6.49746E+06-1.48066E+02 2.56199E+07
 -1       441 1.02764E+08 6.71665E+07 1.08639E+07-8.34279E+07 1.35054E+07 1.67295E+06
 -1       442 1.07701E+08 1.47397E+08-2.00648E+06-1.70627E+08-9.07148E+06-4.32962E+07
 -1       443 1.01839E+08 1.19760E+08-4.16667E+06-6.93440E+07 4.17067E+07 1.81765E+07
 -1       444 1.60426E+08 1.61540E+08 3.11553E+07 1.06406E+08 7.51769E+07 2.28125E+07
 -1       445 3.22967E+07 1.28240E+07-1.39362E+07-2.26138E+05-1.55155E+07-6.26632E+06
 -1       446 9.75956E+06 2.59641E+07-1.60474E+07 7.22318E+06 3.18543E+06-2.72979E+06
 -1       447 2.80852E+06 1.73729E+07 1.13245E+07 7.24167E+06 1.41179E+07 7.05954E+06
 -1       448 1.03645E+07 1.44104E+07 4.32327E+06 6.48217E+06 1.12913E+07 1.12172E+07
 -1       449 3.23460E+06 3.57945E+06-2.51784E+06 9.68004E+05 1.21142E+07 1.61979E+07
 -1       450 5.39745E+05-9.55971E+05-1.17488E+06-5.37165E+05 1.23261E+07 1.39941E+07
 -1       451-3.86954E+06-6.48653E+06 4.30859E+05-3.69803E+06 1.21339E+07 1.50147E+07
 -1       452-4.92373E+06-1.21238E+07 1.04219E+06-4.93218E+06 1.34547E+07 1.05050E+07
 -1       453-8.51403E+06-2.01611E+07 1.62642E+06-8.79004E+06 1.04536E+07 3.19768E+06
 -1       454-6.82064E+06-2.55863E+07-4.90570E+06-3.58270E+06 1.16617E+07 2.77853E+06
 -1       455 2.36558E+06-2.19655E+07-2.57159E+06-7.54897E+05-7.03935E+06-5.21487E+06
 -1       456-8.46094E+07-1.36872E+08 2.40615E+07 9.79798E+07-2.01045E+07 1.09578E+06
 -1       457-1.06906E+08-6.88211E+07-6.16559E+06 5.10066E+07 7.04564E+06-7.29130E+06
 -1       458-1.51871E+08-5.90609E+07-5.90613E+07 3.20812E+06 2.58357E+01 5.87940E+07
 -1       459 6.86406E+06 2.66911E+06 2.66935E+06-3.12060E+06 5.65639E+01-2.07170E+07
 -1       460 3.89001E+07 1.11593E+08 7.36054E+06-8.59834E+07-1.56215E+07 1.08648E+07
 -1       461 1.59398E+07 2.84011E+07-3.82692E+06 8.47404E+06-7.30114E+06-6.07033E+06
 -1       462 4.04500E+06 1.90330E+07 8.07664E+06 3.39080E+06 8.96405E+06 7.81020E+06
 -1       463 1.47635E+05 2.45424E+06-1.52056E+06-1.53513E+06 1.04161E+07 1.65085E+07
 -1       464-8.30221E+06-1.05819E+07 1.50147E+06-7.54674E+06 1.03666E+07 1.51077E+07
 -1       465-7.84991E+06-2.92739E+07-9.78274E+06-1.31892E+07 7.92665E+06 4.42424E+06
 -1       466-2.15177E+07-4.14303E+07 2.69624E+06-1.27076E+07-3.71432E+07-9.65906E+06
 -1       467-2.13737E+08-1.68360E+08 3.60952E+07 1.98864E+08-5.04039E+07 5.53838E+07
 -1       468-2.87373E+08-1.11756E+08-1.11756E+08 1.05530E+07 1.94256E+02-4.07311E+06
 -1       469-4.44104E+07-1.72709E+07-1.72707E+07-1.81429E+06 7.18577E+01 1.70128E+07
 -1       470-3.80381E+07 6.27638E+06-6.95390E+06-8.14157E+06 1.00309E+07 9.28905E+04
 -1       471-2.22906E+07 5.82077E+07 1.39355E+07-2.97757E+06-4.35431E+06-1.83659E+07
 -1       472-1.94999E+07 2.97079E+07-2.07127E+06 1.21284E+07-1.29965E+07 2.22051E+05
 -1       473 6.07561E+05 3.71839E+07-3.15605E+06-2.38336E+06-1.27674E+07-5.50867E+06
 -1       474-1.98291E+06 1.39145E+07 5.06951E+06-1.36252E+06 1.55062E+07-2.53008E+06
 -1       475 3.90003E+06 1.52465E+07 5.15461E+06-1.66577E+06 1.33645E+07 4.04211E+06
 -1       476 3.56619E+06 1.07748E+07-2.11782E+06 8.93135E+04 1.06698E+07 7.24471E+06
 -1       477-1.64055E+06 3.70250E+06-1.26616E+06-3.17330E+06 1.21927E+07 1.11888E+07
 -1       478-4.54116E+06-1.56999E+06-4.13474E+05-5.19487E+06 1.09447E+07 1.63147E+07
 -1       479-9.02518E+06-6.74894E+06 1.18623E+06-8.54818E+06 1.10665E+07 1.39152E+07
 -1       480-1.13371E+07-1.12206E+07 2.57605E+06-1.01513E+07 1.09039E+07 1.48752E+07
 -1       481-1.74961E+07-2.31314E+07-4.64166E+06-1.66509E+07 9.93569E+06 1.04328E+07
 -1       482-5.39113E+06-2.57088E+07-1.22564E+07-1.81094E+07 1.29397E+07 3.99842E+06
 -1       483-1.45683E+07-3.73193E+07 1.76367E+07-1.50709E+07-3.70059E+06-5.19958E+06
 -1       484-4.42379E+07-2.27694E+07 9.11641E+06-1.54164E+06-5.09872E+07-9.22464E+06
 -1       485-2.78950E+08-1.36264E+08-8.58042E+07-1.80903E+08 7.22842E+07 6.80295E+07
 -1       486-2.45534E+08-9.05817E+07 2.11597E+07 6.93052E+07 2.45024E+07 2.28029E+07
 -1       487-3.40850E+08-1.56659E+08 6.07859E+07 2.67927E+08-1.55684E+07-1.17650E+07
 -1       488-4.33546E+08-1.64821E+08-6.74989E+07 1.46145E+08 1.22996E+07-2.68064E+06
 -1       489-4.90521E+08-1.90758E+08-1.90758E+08 1.58525E+07-2.15513E+02 4.60477E+07
 -1       490-3.74918E+07-1.45802E+07-1.45802E+07 3.74157E+05-4.86875E+01-6.77501E+06
 -1       491-2.05818E+07 3.57309E+07 6.47256E+06 2.43950E+07 6.12450E+05 2.23254E+06
 -1       492-1.23316E+07 6.15150E+07 2.35463E+06 6.33209E+06 8.57812E+06-6.23543E+06
 -1       493-1.28766E+07 3.20916E+06 9.62686E+05 1.20727E+05 1.80949E+07-1.74599E+06
 -1       494 3.09336E+05 2.03984E+06-4.86574E+06-4.26928E+06 7.10535E+06 8.58524E+06
 -1       495-7.13156E+06-8.31294E+05 2.47415E+06-8.10529E+06 7.87392E+06 1.74770E+07
 -1       496-2.18051E+07-1.67582E+07-5.15542E+06-1.74912E+07 7.56630E+06 1.46616E+07
 -1       497-2.12672E+07 9.12338E+05 2.74977E+07-2.67799E+07 3.27600E+06-8.51448E+06
 -1       498 9.00738E+07 1.45502E+07 2.83581E+06 1.98269E+07-9.63361E+07-1.99079E+07
 -1       499 1.26129E+08-1.06212E+08-1.00198E+08-1.91318E+08 2.29049E+07 3.60612E+07
 -1       500-2.51315E+08-1.14152E+08 1.03844E+08 2.88449E+08 5.35358E+06 1.15370E+08
 -1       501-8.01250E+08-3.11597E+08-3.11598E+08 1.73523E+07 4.73360E+02 9.12700E+07
 -1       502-1.34772E+07-5.24124E+06-5.24115E+06 1.17208E+06 6.72646E+01 7.25610E+06
 -1       503-7.03747E+06 5.71695E+06-7.82839E+04 2.45807E+07-6.76359E+05 1.89259E+06
 -1       504-1.20621E+07 2.50187E+07 4.21075E+06 4.36255E+07-3.14687E+06 8.22775E+05
 -1       505-3.55391E+07 4.60022E+07-1.32678E+06 3.50212E+07 4.04834E+06-5.37650E+06
 -1       506-4.62743E+07 7.21691E+07-1.84523E+06 3.30052E+07-2.10891E+06-3.64218E+06
 -1       507-4.18281E+07 4.37285E+07-8.04198E+06 2.09114E+07-1.89400E+07 2.26526E+06
 -1       508-1.79352E+07 4.48098E+07-5.27563E+05-9.25579E+06-1.96237E+07-9.13854E+06
 -1       509-9.48482E+06 1.02728E+06 1.13740E+07 7.39935E+06 2.90068E+07 4.09154E+06
 -1       510 4.02935E+06 3.13397E+06 8.85456E+06-1.47830E+06 6.31514E+06 7.06670E+06
 -1       511 6.44051E+06 1.05643E+07-4.24630E+06-1.19971E+07 1.19252E+07 7.49856E+06
 -1       512-8.79120E+06-3.32829E+05-4.34384E+05-8.77893E+06 5.81285E+06 8.80744E+06
 -1       513-1.45277E+07-6.55262E+06 5.74558E+06-1.24020E+07 1.98474E+06 1.54128E+07
 -1       514-2.45917E+07-7.42516E+06-8.17212E+06-1.50990E+07 2.89863E+06 1.13449E+07
 -1       515-2.21269E+07-5.21565E+06-1.37535E+07-1.88944E+07 2.85792E+06 1.77415E+07
 -1       516 6.88393E+06-1.56641E+07 2.86411E+07-2.98990E+07-8.79014E+06 3.77598E+06
 -1       517-1.07065E+08-9.83756E+07 3.93401E+07-8.55871E+07-4.12475E+07-4.26889E+07
 -1       518-6.06111E+07-1.02372E+07-1.04686E+08 5.07681E+05 1.92836E+07 3.35385E+07
 -1       519 1.12549E+08 1.49447E+07-1.14088E+08 7.92149E+07-1.45716E+08 2.30285E+07
 -1       520 5.06294E+08-3.21033E+08-6.56084E+07-6.08855E+08 2.45596E+08-1.10737E+08
 -1       521 1.00169E+09-1.12803E+08 6.91465E+07-2.62422E+08 1.43148E+08 1.90623E+08
 -1       522 8.11400E+08-2.43369E+08-8.29564E+07-1.07160E+08 2.76550E+07 1.91319E+05
 -1       523 4.12698E+08-1.01335E+08 7.23099E+07 8.71031E+07-2.67547E+07-5.55625E+07
 -1       524-1.74055E+08-9.82217E+07 1.36024E+08 3.28721E+08 2.99834E+07 1.70906E+08
 -1       525-8.92511E+08-3.40543E+08-2.39125E+08 2.02662E+08 4.35278E+07-1.37499E+07
 -1       526-1.14673E+09-4.45950E+08-4.45950E+08 2.07215E+07-4.17958E+02 2.04117E+08
 -1       527 4.60253E+07 1.78987E+07 1.78987E+07 2.93557E+06-8.31785E+01 3.05944E+06
 -1       528-1.32082E+07 2.02306E+07-9.18347E+06 6.23328E+07 3.33039E+06 1.04954E+07
 -1       529-6.18163E+07 4.94650E+07 7.87554E+06 4.55533E+07-2.81403E+06 2.61302E+06
 -1       530-4.53928E+07 8.50408E+07 7.07419E+06-4.50988E+06 4.91885E+06-1.52543E+07
 -1       531 3.33127E+07 4.62276E+07-9.82948E+06-2.79328E+07 2.24495E+07-2.17634E+06
 -1       532-7.97274E+06 5.21111E+06 1.21839E+07-3.18150E+06-6.26935E+05 1.42718E+07
 -1       533-1.66782E+07-3.35102E+06-1.03680E+07-6.85717E+06 3.98603E+06 1.29433E+07
 -1       534-3.38898E+07-1.19287E+07 1.97776E+07-1.59295E+07-5.83899E+06 3.90571E+05
 -1       535 9.20936E+06-4.91360E+07-9.79958E+07-6.54826E+06 2.80802E+07 2.94311E+07
 -1       536-3.07785E+08-4.47337E+08 8.78684E+07-2.71649E+08-1.53864E+08-5.61608E+07
 -1       537 1.03749E+09-6.05744E+08-5.65884E+07-5.73468E+08 1.08155E+08-3.04636E+08
 -1       538 1.10401E+09-1.99241E+08-1.66275E+08 1.77317E+07 4.10300E+07 7.87836E+07
 -1       539-6.56253E+07-1.10258E+08 2.39181E+08 4.47908E+08-3.72270E+07 2.27148E+08
 -1       540-1.60869E+09-6.25603E+08-6.25603E+08 2.56763E+07 3.82387E+02 2.37616E+08
 -1       541 1.17559E+08 4.57172E+07 4.57173E+07 5.60287E+06 6.55185E+01 2.82860E+07
 -1       542 8.84851E+07 4.23306E+07 2.51872E+07 4.64059E+07-5.11527E+06-1.12037E+06
 -1       543-5.79969E+06 2.39640E+07-1.77964E+07 8.12862E+07 1.21605E+06 1.56979E+07
 -1       544-6.36019E+07 2.25352E+07-7.05807E+06 6.84294E+07 5.84577E+06 3.80193E+06
 -1       545-8.20583E+07 2.62189E+07 1.61285E+07 5.26813E+07 9.27805E+06 5.63524E+06
 -1       546-1.22598E+08 4.99511E+06-1.70482E+07 4.50218E+07 5.08010E+05-3.45096E+05
 -1       547-6.15876E+07 1.60986E+07-1.27391E+07 5.60366E+07 1.81572E+07-1.99418E+07
 -1       548 2.56131E+08 1.19400E+08 4.77428E+07-3.41890E+07 2.71507E+07-2.69472E+07
 -1       549 2.66852E+08 2.07144E+08 6.22895E+07-1.21403E+08 9.58450E+07-9.02479E+07
 -1       550 5.20748E+07 2.90716E+07-8.35863E+06-2.85178E+07 4.86023E+06-1.14649E+07
 -1       551-7.96460E+06-1.17068E+07 1.27470E+07 7.65209E+06-3.33760E+06-8.51562E+06
 -1       552-1.16829E+07-3.31746E+06-9.60476E+05 3.36992E+06-5.71630E+05-1.82546E+07
 -1       553-1.92060E+07 1.15882E+07-6.92002E+06-5.59793E+05-2.52711E+06-1.48579E+07
 -1       554-3.43357E+07-1.52025E+07 1.34053E+06-1.65552E+07-7.66695E+06-4.21537E+07
 -1       555-1.19863E+07-3.69652E+07 1.24127E+07-6.01888E+06-1.03611E+07-4.63122E+07
 -1       556 1.82158E+07 8.07386E+07 5.18227E+06 2.46942E+07-1.79412E+07-9.56459E+07
 -1       557 1.47303E+07 9.33661E+07-1.20972E+08 8.01637E+07 2.17760E+07-1.38229E+08
 -1       558-5.17574E+08-2.94319E+08 8.85790E+07-2.67985E+08-4.88661E+07-1.23315E+08
 -1       559-2.39976E+09-2.18149E+09-5.99325E+08-1.17233E+09-8.67968E+08-9.44702E+08
 -1       560-1.71499E+09-1.43685E+09-4.44472E+08-4.35961E+08-1.21078E+08-1.91980E+08
 -1       561 1.48769E+09-1.88235E+08 1.26375E+08 1.40344E+08-1.12363E+08-2.41050E+08
 -1       562 1.97708E+09 1.13531E+08 1.68025E+08-4.22745E+06 3.95970E+07 4.85782E+06
 -1       563 1.36277E+09-8.51681E+07-2.39486E+08 9.85743E+07-4.01512E+07 1.26677E+08
 -1       564 9.79531E+08-3.48510E+07 1.48200E+08 3.60824E+08-5.07604E+07-4.61194E+06
 -1       565-3.18392E+07-1.72790E+08 3.07299E+08 5.73296E+08-4.69807E+06 3.08127E+08
 -1       566-1.59753E+09-6.53566E+08-4.48011E+08 3.30582E+08 5.75764E+07-4.43370E+07
 -1       567-2.14111E+09-8.32653E+08-8.32654E+08 4.35488E+07-2.14560E+02 4.39152E+08
 -1       568 2.18870E+08 8.51161E+07 8.51162E+07 6.17970E+06-1.10543E+02 4.41941E+07
 -1       569 5.30739E+06 1.66301E+07-2.48740E+07 9.43905E+07-3.27042E+06 3.70076E+07
 -1       570-1.14510E+08 1.88824E+07 2.56261E+07 2.85224E+07-2.22506E+06 6.64652E+06
 -1       571-5.40296E+07-3.72585E+07-4.27712E+06 4.98162E+07 1.26932E+07-5.02182E+07
 -1       572 1.83125E+08 7.88804E+07 4.04001E+07-7.03984E+07 8.32261E+06-4.25958E+06
 -1       573-1.51061E+09-1.55442E+09-4.14060E+08-5.55800E+08-1.53942E+08-1.74309E+08
 -1       574 1.14019E+09 7.81961E+07 2.06732E+07 3.11517E+08-1.22476E+08-5.07127E+08
 -1       575 1.70882E+09-1.18972E+08-3.11297E+08-5.94970E+07 1.32059E+06 1.09037E+08
 -1       576-7.77322E+07-1.21020E+08 3.32026E+08 7.13495E+08 3.66275E+07 4.94583E+08
 -1       577-2.87351E+09-1.11748E+09-1.11748E+09 3.97946E+07 5.45125E+02 5.28900E+08
 -1       578 3.23795E+08 1.25920E+08 1.25920E+08 5.21258E+06 1.08039E+02 8.52212E+07
 -1       579 2.28936E+08 8.45206E+07 6.81926E+07 5.96074E+07 1.31498E+07 3.45093E+06
 -1       580 8.30276E+06 6.74576E+06-3.49369E+07 1.04818E+08 5.85814E+06 7.11138E+07
 -1       581-1.69603E+08-2.44845E+07-3.73999E+07 7.16822E+07-1.84375E+05 1.42481E+07
 -1       582-1.57725E+08-1.94264E+07 2.34374E+07-1.00873E+07 8.23317E+06 5.62580E+06
 -1       583-1.21481E+08-8.03909E+07 1.28034E+06-7.98763E+06 1.12888E+07-2.09647E+06
 -1       584-3.19360E+07-1.04527E+08 4.35963E+06 7.92377E+06 3.99146E+06 5.04520E+06
 -1       585 8.19451E+06-1.72126E+08-1.72836E+05 8.52160E+06 4.98288E+07-1.86233E+07
 -1       586 5.80895E+06-2.22873E+08-1.18914E+07-3.24965E+07 2.28979E+07-5.08537E+06
 -1       587 3.11363E+07-1.45831E+08 4.18216E+06-1.01257E+08 4.02252E+07 2.22373E+07
 -1       588 1.13556E+07-7.19864E+07 6.72983E+06-9.69328E+07 8.19171E+06 2.87029E+07
 -1       589-2.76429E+08 3.29479E+08-1.53663E+07-5.00451E+08-8.11351E+07 1.92018E+08
 -1       590-4.79010E+08 8.41002E+08-2.63873E+07-4.48166E+08-2.25002E+08 8.79224E+07
 -1       591-1.89294E+06 1.24632E+09 1.23169E+08 1.18038E+08-1.87703E+08-1.27626E+08
 -1       592 1.79231E+08 1.01928E+09 2.12103E+07 2.79570E+08-4.64326E+08-1.84056E+08
 -1       593 6.72839E+08 6.26768E+08-3.95878E+07 9.41221E+07-1.92855E+06 1.70576E+07
 -1       594 1.68155E+09 6.35537E+08-1.08011E+07-2.25852E+08-8.63965E+07-1.55178E+07
 -1       595 2.11003E+09 1.89409E+08-2.71851E+08-3.81909E+08-7.91767E+07 7.98695E+07
 -1       596 2.17380E+09 3.69819E+08 4.59744E+08 4.86080E+08 2.15718E+07 6.11528E+07
 -1       597-6.40073E+07-1.90192E+07 3.87510E+08 8.35964E+08-4.31705E+07 7.68719E+08
 -1       598-2.66344E+09-9.64282E+08-8.10384E+08 4.56230E+08-1.56042E+08-1.22417E+07
 -1       599-3.66190E+09-1.42407E+09-1.42407E+09 1.99037E+07-6.93242E+02 8.29385E+08
 -1       600-7.54285E+07-4.29794E+07 1.39851E+06-8.94098E+07 3.62063E+07 1.07327E+07
 -1       601-5.65465E+07-2.14161E+08 2.14479E+06-3.79074E+07 2.56118E+06-5.47576E+06
 -1       602-3.24408E+07-2.57463E+08-1.67379E+07-3.94900E+07 6.88175E+05 7.86867E+06
 -1       603-6.41996E+06-1.28104E+08-5.16748E+06-5.45607E+07-2.76623E+07 7.97158E+06
 -1       604-1.27659E+08 6.54777E+08 3.32315E+07-1.35629E+08 1.32460E+08 1.18346E+08
 -1       605 1.74824E+08 1.69168E+09 1.48178E+08 8.20784E+07 5.22120E+05 5.65669E+07
 -1       606 6.73786E+08 1.55357E+09-1.46740E+07-1.85480E+08-3.11912E+07-7.71950E+07
 -1       607 9.63735E+08 3.64799E+08-6.39533E+07-1.03946E+09-3.68589E+08 1.53067E+08
 -1       608-7.96211E+06-1.57890E+07-1.05844E+07-1.40374E+08 2.24282E+07-1.93739E+07
 -1       609-3.45082E+07-1.18064E+08 1.19711E+07-1.21995E+08-2.13689E+07-4.20849E+07
 -1       610-2.68783E+07-2.64958E+08 3.16025E+07-6.41016E+07-1.37578E+07-7.97513E+06
 -1       611 1.95867E+06-2.19858E+08 3.56387E+07-3.40155E+07-1.24131E+07-6.10689E+05
 -1       612-4.02097E+06-1.70484E+08 3.11225E+07-2.03558E+07-1.66244E+07-5.68821E+06
 -1       613 2.83791E+06-1.47187E+08 2.02201E+07-2.42975E+07-1.69158E+07 7.82940E+06
 -1       614 1.77986E+07-1.30607E+08 9.70546E+06-3.08463E+07-1.06507E+07-2.46767E+05
 -1       615-2.19162E+08 7.71835E+08-4.37546E+07 1.38268E+08-2.22995E+07 1.04007E+07
 -1       616-1.24096E+08 9.55210E+08-1.28349E+08 1.86807E+08 7.01668E+07 1.94736E+07
 -1       617-8.06373E+07 1.17343E+09-2.17638E+08 2.27513E+08 1.02459E+08-5.32715E+07
 -1       618-7.95678E+07 1.55067E+09-2.86494E+08 3.06606E+07 7.73926E+07 1.56003E+07
 -1       619 2.42888E+08 1.95425E+09-2.57991E+08-3.10260E+08 9.45859E+07-7.40871E+07
 -1       620 3.56690E+08 8.86540E+08-6.65859E+07-9.83533E+08 1.52777E+08-3.82439E+08
 -1       621 9.41954E+07 1.16311E+08 1.02748E+08-1.34809E+09-2.21783E+08-1.87623E+08
 -1       622-5.40053E+07-2.66536E+08-5.68183E+07 3.54259E+07 1.78246E+06 3.74202E+06
 -1       623-9.16271E+06-1.19018E+08-1.72767E+07 1.56449E+07-3.54340E+06-3.60570E+06
 -1       624 1.11220E+07-3.21086E+07-9.35840E+06-1.44569E+07 5.36892E+06-7.94810E+06
 -1       625-1.84589E+08 3.96068E+08 6.33141E+07 2.55015E+08-1.30797E+08-5.02039E+07
 -1       626-3.48406E+07 8.77959E+08 1.16530E+08 4.55470E+08 1.44411E+07-4.84209E+07
 -1       627 3.82777E+08 2.05024E+09 4.47579E+08 5.36344E+08 7.47377E+07 2.13758E+07
 -1       628-2.99912E+06 8.70143E+06-4.58538E+07 7.47047E+07-8.88587E+07-2.37985E+06
 -1       629 6.88712E+06 9.93796E+06-4.03922E+07 6.23019E+07-5.99816E+07 4.26429E+06
 -1       630 5.54983E+06 4.14707E+06-4.00409E+07 4.83097E+07-4.03630E+07-1.02264E+06
 -1       631-7.24852E+06 3.05154E+07-3.89913E+07 3.95847E+07-3.39038E+07-4.10084E+06
 -1       632 2.76677E+06 8.42751E+07-2.38844E+07 4.35190E+07-2.98854E+07-2.39911E+06
 -1       633 2.10838E+07 6.87226E+07-1.77249E+07 6.04809E+07-1.83468E+07-1.83706E+07
 -1       634-6.15273E+06 1.52430E+07-3.49400E+07 4.83660E+07-1.14677E+07-1.54251E+07
 -1       635-4.04074E+07-3.76796E+06 1.28670E+07 7.02050E+07 2.46091E+06-2.98405E+06
 -1       636-1.41837E+08-6.52377E+07 2.99766E+07 1.17310E+08-1.32371E+07-3.45415E+07
 -1       637-3.10061E+08-2.48612E+08-9.09863E+06 2.76696E+08 7.31756E+07-4.61023E+07
 -1       638-2.37970E+08-2.50080E+08 7.00490E+07 4.33362E+08 8.12819E+07 4.04553E+06
 -1       639-1.21917E+08-3.07700E+07 2.02865E+08 5.43915E+08 2.03366E+08-4.47221E+07
 -1       640-1.43482E+08 1.12398E+07 2.47504E+08 6.62666E+08 2.45946E+08-6.13826E+06
 -1       641-1.04042E+08-5.63333E+07 3.00290E+08 7.81392E+08 4.53469E+08 3.60805E+07
 -1       642-1.55177E+07-5.15410E+07 3.87081E+08 8.83858E+08 7.55470E+08-4.20624E+07
 -1       643 1.10214E+08 3.11064E+08 9.42327E+07 3.82567E+07 3.65120E+06-1.77792E+07
 -1       644 8.38838E+07 2.19341E+08 6.35251E+07 2.88635E+07 8.99357E+06 8.49542E+06
 -1       645 4.29691E+07 1.46741E+08 2.89909E+07 3.26621E+07 2.62723E+06 3.06011E+06
 -1       646 1.41999E+07 4.06373E+07-3.38828E+06 2.73510E+07 2.39792E+06 1.04086E+07
 -1       647-5.24797E+07-6.19015E+07 1.19519E+07 6.51845E+07-3.26824E+05 3.83343E+07
 -1       648-2.43726E+08-5.20397E+08-1.10603E+08 2.45513E+08 3.37581E+06 3.58330E+07
 -1       649-5.62923E+08-1.37459E+09-4.00238E+08 3.86148E+08-3.57641E+07 5.36711E+07
 -1       650-9.25689E+08-2.53842E+09-7.67022E+08 4.91982E+08-2.39021E+06-1.36487E+08
 -1       651 1.63724E+08 4.21004E+08 1.63724E+08-4.81225E+05-8.67573E+07-5.16239E+01
 -1       652 1.38821E+08 3.56969E+08 1.38821E+08 2.73644E+06-6.33000E+07 1.99709E+01
 -1       653 1.16052E+08 2.98420E+08 1.16052E+08 4.38954E+06-5.60791E+07 2.80815E+00
 -1       654 9.17490E+07 2.35926E+08 9.17490E+07 3.53360E+06-3.77886E+07 3.21301E+01
 -1       655 6.82474E+07 1.75493E+08 6.82474E+07 5.14840E+06-1.64942E+07 3.07330E-01
 -1       656 4.44090E+07 1.14194E+08 4.44090E+07 5.79314E+06-7.73896E+06 6.66459E+01
 -1       657 2.40979E+07 6.19659E+07 2.40978E+07 3.66811E+06-8.33095E+06 6.71062E+01
 -1       658-9.10917E+05-2.34262E+06-9.11038E+05 3.05909E+06 1.68488E+06-5.01887E+01
 -1       659-3.34041E+07-8.58971E+07-3.34045E+07 6.49153E+06 5.02571E+07 1.15568E+02
 -1       660-1.15478E+08-2.96944E+08-1.15478E+08 1.33103E+07-2.20657E+07 1.95103E+02
 -1       661-2.37431E+08-6.10539E+08-2.37432E+08 2.74773E+07 1.21880E+08-4.24520E+02
 -1       662-4.61875E+08-1.18768E+09-4.61875E+08 3.51283E+07 1.62415E+08 6.28280E+02
 -1       663-7.15218E+08-1.83913E+09-7.15219E+08 4.79601E+07 3.80245E+08-3.74768E+02
 -1       664-1.03644E+09-2.66514E+09-1.03644E+09 4.51315E+07 5.08324E+08 6.68119E+02
 -1       665-1.37351E+09-3.53187E+09-1.37351E+09 3.00220E+07 8.34990E+08-7.79233E+02
 -1       666-8.58307E-06-3.86238E-05 6.80983E-06 4.44800E-06 6.74176E+08-2.25265E+02
 -1       667 1.29640E-05 3.32333E-05 1.30176E-05-3.44962E-06 3.55614E+08 5.48241E+02
 -1       668 3.22098E-06 1.13733E-05 2.45403E-07-3.69363E-06 1.28957E+08 4.69879E+02
 -1       669-4.52157E-07-8.86153E-07-6.90983E-07-7.40681E-06 1.52795E+07 9.66436E+01
 -1       670-1.26468E-06-7.64243E-06 3.06703E-06-5.17536E-06 6.35297E+07 1.25374E+02
 -1       671 7.79683E-06 1.63536E-05 1.15146E-05-9.77889E-08-2.07873E+07 2.16148E+02
 -1       672 2.05152E-05 4.82611E-05 2.50682E-05 8.85222E-07-7.45926E+07 1.16084E+02
 -1       673 2.87015E-05 7.93859E-05 2.32793E-05-8.34465E-06-1.46787E+08-2.25324E+01
 -1       674-5.23776E-06-5.21317E-05-1.18055E-04 7.09924E-06 6.38112E+08 5.25392E+05
 -1       675 4.18634E-05 1.86685E-05 5.15911E-05-4.91942E-06 2.14555E+08-2.35013E+07
 -1       676-2.40901E-06 1.94059E-05-1.22411E-05-1.32321E-05 5.49932E+07 1.27955E+07
 -1       677 2.67825E-06 1.06186E-05-6.25891E-06-5.86105E-06 3.37596E+07-1.69295E+06
 -1       678-1.02930E-05-1.75415E-05-1.47282E-05-4.46535E-06 1.35547E+07-1.08151E+07
 -1       679 5.64643E-07 1.43284E-05-3.45516E-06-9.37434E-08-2.80711E+07 2.61735E+06
 -1       680 3.32133E-06 4.20231E-05 1.68364E-05-8.49459E-06-5.34740E+07 1.56206E+06
 -1       681-1.62269E-05 4.77992E-05-5.17620E-05-1.92435E-07-1.40135E+08-7.05165E+06
 -1       682 4.58062E-04 3.36364E-04 1.28983E-03-3.24510E-05-2.41401E+08-1.95886E+08
 -1       683 8.25251E-05-4.38889E-05-1.50426E-04 5.31296E-06 7.80277E+07-1.18653E+08
 -1       684-1.02748E-04-1.96086E-04-4.18400E-04 1.13454E-05 6.86361E+07-2.79738E+07
 -1       685-3.40225E-05-4.83803E-05-1.77096E-04-3.29490E-06 6.36134E+07 9.36512E+07
 -1       686-5.20214E-05-4.84288E-07-2.54009E-05-5.19771E-06 1.32823E+08 6.69435E+07
 -1       687 1.70134E-05 2.54065E-05 6.98238E-05-4.42914E-06-8.65059E+06 5.47031E+06
 -1       688-1.43951E-06 9.72922E-06-2.75341E-05 5.64562E-06 6.84182E+06-4.06557E+04
 -1       689-1.60856E-05 4.84362E-05 9.99104E-06-1.64990E-06-2.91425E+07-6.92430E+06
 -1       690 1.80487E-05 7.07315E-05 1.41841E-04-1.27554E-05-2.20251E+07-9.16914E+06
 -1       691-5.15208E-05-4.20362E-05-1.28468E-04 3.12179E-06 4.28937E+07-4.35638E+07
 -1       692 4.65512E-05 1.86861E-05 1.99825E-05 1.50502E-05-2.34425E+01 6.74256E+08
 -1       693-8.73320E-05-6.97915E-05-2.46099E-04-5.23496E-06-3.85441E+07 6.15718E+08
 -1       694-2.06431E-05-4.00320E-05 1.24875E-04 9.79410E-06-4.65725E+07 7.80007E+07
 -1       695-1.42533E-04-7.16597E-05-2.39585E-04 2.89595E-06 1.64990E+07 5.46700E+07
 -1       696-4.98146E-05-1.78605E-04-2.56732E-04-4.82053E-06-2.69731E+08-2.39757E+08
 -1       697 5.02076E-06-2.09212E-05 6.19327E-05-1.48946E-05 1.52928E+07 3.32115E+07
 -1       698 2.38478E-05 1.33400E-04-2.96177E-05 2.34948E-05 3.47782E+07-2.89045E+07
 -1       699 6.54708E-05 3.95871E-05 8.04676E-05-1.22904E-05-5.58246E+06 9.68345E+06
 -1       700-2.16924E-05-5.78643E-05-6.59098E-05-2.28795E-07 2.37401E+07 1.34399E+07
 -1       701 3.12021E-05-1.68330E-05-3.49144E-05 6.88829E-07 2.24431E+06 1.31988E+08
 -1       702 8.14237E-05 5.13904E-05 1.02874E-04-4.57279E-06 6.14522E+00 1.45889E+08
 -1       703 1.40257E-06-8.10623E-06-3.05949E-05 4.65661E-06 5.71172E+02 3.12445E+08
 -1       704-1.15223E-05-4.99664E-05-8.96819E-05 1.71377E-05-5.82352E+06 2.15102E+08
 -1       705 1.04226E-04 7.42720E-05 2.67691E-04 6.39935E-06-4.86986E+07 1.11552E+08
 -1       706 1.29218E-05 2.90213E-05-2.73034E-05-1.14789E-05-1.54709E+08-1.91525E+08
 -1       707-5.00651E-05-1.77494E-04-1.52557E-04-3.71572E-05-5.19513E+08-5.96541E+08
 -1       708 1.05994E-04 1.07722E-04 3.12963E-04-3.32482E-07 7.40601E+06-1.34516E+08
 -1       709 3.27775E-05 2.98955E-05 1.33132E-04-1.08103E-06 3.17659E+07 1.21878E+07
 -1       710-4.85481E-06 1.05529E-05 5.60260E-05-2.65283E-06-1.22514E+07 8.36071E+06
 -1       711-4.15582E-05-4.94928E-05-1.37594E-04 8.53324E-06 2.13972E+06-1.39190E+07
 -1       712-2.16662E-05 1.59166E-04-1.04052E-06-6.40301E-05 1.21807E+08-1.12124E+08
 -1       713 9.99868E-06 2.11357E-05 9.41976E-05 3.89158E-05 5.44821E+07-6.57916E+07
 -1       714-5.33798E-05-7.13867E-05-1.37785E-04-8.59238E-06-1.02128E+06 7.15920E+06
 -1       715 7.35687E-06-7.96386E-06-7.00704E-07 8.97911E-07 2.01610E+06 3.71460E+07
 -1       716 3.29046E-05 2.30379E-05 4.94705E-05 3.53949E-06-1.01969E+02 5.86151E+07
 -1       717 1.78367E-05 6.04987E-06 3.20323E-06 3.96278E-06 4.56494E+02 1.28668E+08
 -1       718 1.71871E-05-9.65782E-07 4.81846E-05 4.30807E-06 2.43164E+07 9.52258E+07
 -1       719-4.28377E-06-9.68886E-06-4.41815E-05-1.98272E-05 2.03117E+07-1.26365E+07
 -1       720-3.28273E-05-1.92225E-06-9.89307E-05-3.02494E-06 1.80019E+08-9.45623E+07
 -1       721-9.29116E-05-8.43003E-05-1.89165E-04 6.26565E-06-1.35200E+08 1.04538E+07
 -1       722-1.83986E-05-2.68823E-05-6.18633E-05-6.56287E-06-8.14545E+07-8.67214E+07
 -1       723-1.13577E-05 3.08354E-06-2.14429E-05-7.45631E-06 9.95281E+06 2.58900E+07
 -1       724 2.90187E-05 2.65666E-05 4.03376E-05-1.16708E-06 2.80798E+06 1.52216E+07
 -1       725-3.59345E-07 1.45282E-06 6.88982E-05-4.82152E-06 2.88271E+07-1.03189E+07
 -1       726 5.52161E-06 1.62074E-05-7.67337E-05-3.96266E-06 3.39984E+07 4.13101E+06
 -1       727 3.19118E-06 8.51369E-06 3.24189E-05 2.07406E-06-3.02815E+07 3.34071E+07
 -1       728-1.89223E-05-1.98831E-05-2.43406E-05-8.13568E-06-3.25282E+06-1.30165E+07
 -1       729-2.04518E-06 3.48222E-06 1.45752E-05 5.39620E-06 1.78291E+01 2.74548E+07
 -1       730-5.44300E-07-2.23424E-06-7.56321E-06 2.51667E-06 1.86265E+02 2.43833E+07
 -1       731 9.41132E-06 9.17477E-06 2.31812E-05-1.50704E-06-8.21047E+06-4.40393E+07
 -1       732 1.01291E-05 2.70084E-05 2.55983E-05 1.98931E-06 7.23677E+07 2.30564E+07
 -1       733 2.21917E-05 3.25806E-05 1.26214E-04-3.49242E-06 7.33013E+06 3.45509E+07
 -1       734-6.01285E-05-6.57095E-05-2.23857E-04-2.34910E-06 2.10471E+07 1.11027E+07
 -1       735-8.79419E-06-1.91315E-05 2.10607E-05-1.17641E-05 1.38681E+07 1.77243E+07
 -1       736-1.59911E-05-1.77650E-05-3.11710E-06-5.32318E-06 1.14251E+07 1.50964E+07
 -1       737-8.98468E-05-1.03789E-04-3.18624E-04-9.42705E-06 6.68602E+06 7.26670E+05
 -1       738-4.29238E-05-5.27618E-06-4.32282E-05 4.02972E-06-1.71619E+07-3.01700E+06
 -1       739-1.30292E-06-3.32487E-05-1.80756E-05-5.00085E-06-1.88305E+07-3.53848E+05
 -1       740-1.41319E-05 5.16605E-06 3.24398E-05 1.99033E-05 3.68902E+01 5.73443E+07
 -1       741-7.56205E-07-1.14855E-06-3.36126E-06 1.12550E-06 1.25998E+02 1.70780E+07
 -1       742 9.79662E-06 4.92049E-06 6.00641E-06 4.61719E-06-3.95721E+06-1.84215E+07
 -1       743 5.54370E-06 6.62822E-06 1.47290E-05 2.31992E-06-1.26894E+07-5.80562E+06
 -1       744 3.18152E-05 5.80775E-05 1.39442E-04-1.78107E-06 8.41503E+06-2.32626E+06
 -1       745-2.32538E-05-3.52158E-05-1.03091E-04-6.69387E-06 8.05119E+06 5.31107E+06
 -1       746 1.07422E-05 1.57496E-05 4.04588E-05-3.30401E-06 1.03378E+07 1.62878E+07
 -1       747-1.53346E-05-1.29857E-05-2.75903E-05-9.16113E-06 1.32019E+07 1.68889E+07
 -1       748 1.28141E-05 1.78022E-06-1.81550E-05-8.09034E-06 2.14277E+07 9.06776E+06
 -1       749 6.27106E-06 8.63709E-06 1.27059E-04 1.05617E-05-2.29765E+07 4.26318E+07
 -1       750 8.06972E-05 5.22910E-05 1.39944E-04-1.68383E-06 6.76946E+07 7.08891E+07
 -1       751-8.09704E-05-9.28755E-05-2.03227E-05 5.12366E-05-1.47911E+07-1.30578E+07
 -1       752-6.21378E-06 2.50451E-05 9.51514E-05 2.12435E-05 3.01076E+02 4.26787E+07
 -1       753-1.56781E-05-6.17863E-06-6.39487E-06-2.85450E-06-3.50193E+01 7.26599E+06
 -1       754-1.87885E-05-2.54554E-06-5.20407E-06-8.42614E-07-3.37233E+06 7.46215E+05
 -1       755-1.82058E-05-8.44803E-06-6.19223E-06-8.01217E-06-1.62403E+06-3.74510E+06
 -1       756 9.28156E-06-1.01198E-05-2.63890E-05 1.72027E-05-1.94883E+07-9.12129E+06
 -1       757 1.24848E-05 4.04975E-05-7.43719E-05-1.09547E-05 3.50569E+07 5.62390E+06
 -1       758-3.97261E-05-3.74680E-05-6.60990E-05 3.23523E-07 1.94484E+07 7.61756E+05
 -1       759-5.28746E-05-6.51227E-05-1.76560E-04 5.25052E-06-1.45064E+06 1.35930E+07
 -1       760-2.39955E-05-1.49325E-05 5.66291E-06-2.03098E-06 7.82562E+06 2.72305E+07
 -1       761 1.84970E-05 5.04603E-06 9.63015E-05-1.55946E-06-1.05873E+08-1.16788E+08
 -1       762-1.75382E-05-7.07265E-05-3.68841E-05-4.62355E-06-1.98805E+08 1.71273E+07
 -1       763 1.91271E-04 2.57710E-04 6.25830E-04 7.31740E-06 2.43578E+08-1.12838E+08
 -1       764 4.97301E-05 3.08156E-05 1.86157E-04 2.92125E-06 2.21370E+07 4.59508E+06
 -1       765-3.75099E-05-1.08683E-04-2.57989E-04 3.52666E-05 3.13695E+07 1.72948E+08
 -1       766 8.95411E-05 8.55140E-05 2.15478E-04 2.05701E-05 6.07722E+02 2.00546E+08
 -1       767-4.05400E-05-1.73021E-05-2.12040E-05 1.05985E-06-9.74246E+01 2.79014E+07
 -1       768-3.51018E-05 1.20821E-05 2.85673E-05 2.08931E-06 8.81403E+05 1.59662E+07
 -1       769-5.09457E-05 2.01777E-05 4.72915E-06-2.35136E-06 9.97002E+06 5.82811E+06
 -1       770-1.85849E-04-4.69519E-05-1.22892E-05-1.82005E-05 1.86814E+07-2.09440E+07
 -1       771-2.42074E-04 1.00037E-04 5.72914E-05 7.61723E-05 8.49302E+07-7.38129E+07
 -1       772 3.88781E-06 3.97258E-05 1.17544E-04 5.73208E-06 1.44555E+05-1.40220E+07
 -1       773 1.59007E-05 2.82736E-05 1.00452E-04 4.50971E-06-1.33980E+07-1.82379E+07
 -1       774-3.93018E-06-2.01211E-06 7.34348E-06 1.57030E-06 3.66805E+07-1.43299E+07
 -1       775 3.55151E-05 4.64860E-05 5.37261E-05 1.19739E-05 1.26674E+07-2.00136E+08
 -1       776 6.13797E-05-3.09682E-04-2.43932E-05-7.21589E-05-7.38603E+08-8.05086E+08
 -1       777 2.77006E-04 1.88487E-04 8.56829E-05-1.08595E-04-1.14907E+08-2.52685E+08
 -1       778-1.11658E-04-3.27411E-04-6.01306E-04 2.86875E-05-4.58261E+07 1.31751E+08
 -1       779-1.37299E-04-2.49743E-04-6.11812E-04 6.29104E-05-3.02639E+06 3.13167E+08
 -1       780 2.24650E-04 1.84193E-04 4.32745E-04 3.83947E-05 5.62203E+02 4.33022E+08
 -1       781-8.87625E-05-3.49730E-05-3.60785E-05 1.43889E-05-4.08452E+01 8.45630E+07
 -1       782-6.30589E-05 2.89164E-06-1.29418E-06-1.77138E-06 5.58415E+06 7.17302E+07
 -1       783 1.53510E-05 6.13125E-05 9.94143E-05 1.26379E-05 8.26482E+06 5.91372E+06
 -1       784-1.17877E-05-5.25611E-05-1.46650E-05 1.59548E-05 4.94674E+06 4.84111E+06
 -1       785 4.90828E-05 8.93145E-05 8.54445E-05-2.72794E-05 2.41672E+07-5.15637E+06
 -1       786 3.68296E-05 1.80583E-05 7.90456E-05-3.13669E-06 8.48826E+06 2.82791E+07
 -1       787-1.72422E-04-1.14098E-04-2.25099E-04-1.47577E-05-8.39730E+07 1.88735E+08
 -1       788-1.13609E-04-1.56261E-04-3.88684E-04-7.27177E-06-1.98580E+08-1.30730E+08
 -1       789-1.79597E-04-4.99608E-06-2.38257E-04-5.56372E-05-7.28981E+06 1.12348E+07
 -1       790-1.13628E-04-2.49592E-04 6.63451E-05 1.97440E-05-7.73682E+07 8.15677E+07
 -1       791-5.42402E-06-2.12453E-04-4.56236E-04-1.52718E-05-4.23937E+07 7.76446E+08
 -1       792 4.72784E-04 2.32995E-04 3.60906E-04 5.67622E-05-2.39007E+02 8.22482E+08
 -1       793 7.29281E-05 6.85453E-05 1.98091E-04 1.13407E-05 2.11318E+07-1.73990E+07
 -1       794-1.08224E-05-3.47688E-05-8.39373E-05-5.06469E-06-1.38663E+07-7.69132E+06
 -1       795-2.09513E-05-1.96242E-05-6.80076E-05 9.04413E-06-1.73968E+07-6.29488E+06
 -1       796-2.16300E-07 9.08249E-06-1.48944E-05 6.39108E-06-1.12572E+07-8.98383E+05
 -1       797 1.13653E-04 7.97883E-05 3.45372E-04 1.14292E-05-2.03031E+07 4.92493E+06
 -1       798 1.24667E-04 5.64829E-05 2.15715E-04-1.51433E-06 1.06756E+08-5.89551E+07
 -1       799 6.70621E-05 1.62697E-04-5.99727E-05-2.84364E-05 9.64949E+07-7.28665E+07
 -1       800-4.23491E-05-1.88023E-04-9.42396E-05-5.12004E-05-2.05623E+08-1.72179E+08
 -1       801 1.24341E-05-2.50507E-05 4.59161E-05-1.67423E-06-8.98148E+07-2.30087E+06
 -1       802-5.60773E-07-1.08661E-05-9.07457E-07 6.42540E-06-4.10381E+07-1.02945E+06
 -1       803 1.07757E-05 2.12059E-05-1.76155E-05 1.20750E-05-2.98471E+07-2.40037E+06
 -1       804 3.26324E-06-3.61307E-06-4.29258E-06-2.25322E-06-1.08364E+07-1.42778E+07
 -1       805 3.64415E-06 4.49363E-07-3.58408E-06-6.66711E-07-1.47185E+07-3.24845E+07
 -1       806 4.88100E-05-2.21531E-05 8.51241E-05-2.69587E-06 8.12393E+07 5.58684E+06
 -1       807 4.75179E-05 6.71707E-05 1.40980E-04-4.87114E-05 2.50366E+08-4.46090E+06
 -1       808-6.61612E-05 2.99513E-05-1.40220E-04-7.93394E-06 7.62839E+08-4.00193E+07
 -1       809-2.54754E-05-4.57093E-05-4.50313E-05 3.20585E-06-8.59599E+07-6.39890E+01
 -1       810 2.69711E-06 5.42775E-06 4.20306E-06-3.93175E-06-5.53602E+07 6.88849E+01
 -1       811 8.25129E-06 1.51722E-05 1.43409E-05 5.33764E-07-1.56819E+07 3.97595E+01
 -1       812 6.34103E-06 1.19405E-05 1.08174E-05 2.21154E-06-7.69963E+06 7.42456E+01
 -1       813 1.86078E-05 1.91536E-05 4.77252E-05-3.38373E-06 4.87757E+07 4.01446E+02
 -1       814 1.58735E-05 7.14511E-06 5.03734E-05-4.88665E-06 1.18401E+08 4.12500E+02
 -1       815 2.99588E-05 1.87755E-05 8.92803E-05-1.03610E-05 3.75463E+08 6.37459E+02
 -1       816-1.96338E-04-2.20418E-04-4.82261E-04-1.07363E-05 8.28168E+08 6.30428E+01
 -1       817-1.18404E+09-3.04469E+09-1.18404E+09 1.96592E+07 6.80048E+08-6.33660E+02
 -1       818-9.20104E+08-2.36598E+09-9.20105E+08 3.23394E+07 4.25321E+08 3.51042E+02
 -1       819-6.93670E+08-1.78372E+09-6.93671E+08 3.88145E+07 3.61649E+08-1.80773E+02
 -1       820-5.32705E+08-1.36981E+09-5.32705E+08 2.36285E+07 1.51591E+08 5.52106E+02
 -1       821-4.03664E+08-1.03799E+09-4.03665E+08 8.35341E+06 1.33075E+08-2.23383E+02
 -1       822-3.05394E+08-7.85298E+08-3.05394E+08 1.02140E+07 8.84858E+07 5.40541E+01
 -1       823-2.02800E+08-5.21487E+08-2.02801E+08 1.91480E+07 1.90291E+07-4.10539E+01
 -1       824-1.14765E+08-2.95110E+08-1.14765E+08 1.60960E+07-1.91436E+05 2.98864E+02
 -1       825-4.56548E+07-1.17398E+08-4.56550E+07 5.57895E+06 6.39843E+07 4.16522E+01
 -1       826 8.70989E+06 2.23965E+07 8.70980E+06 4.59735E+06 1.53253E+06 1.66924E+01
 -1       827 5.85927E+07 1.50667E+08 5.85927E+07 7.62046E+06-2.11856E+07-3.04808E+01
 -1       828 9.75916E+07 2.50950E+08 9.75917E+07 6.64878E+06-3.94855E+07 1.14964E+02
 -1       829 1.38854E+08 3.57053E+08 1.38854E+08 7.79240E+06-7.55617E+07-6.49902E+01
 -1       830 1.94558E+08 5.00291E+08 1.94558E+08 7.14715E+06-9.48031E+07 9.74279E+01
 -1       831 2.52468E+08 6.49203E+08 2.52468E+08 3.98825E+06-1.47960E+08-1.20364E+02
 -1       832-8.32818E+08-2.23043E+09-6.83032E+08 3.92244E+08-4.26374E+07-1.17984E+08
 -1       833-5.29165E+08-1.34790E+09-3.46192E+08 2.55888E+08-3.99497E+07 3.79216E+07
 -1       834-3.25767E+08-8.43093E+08-2.04965E+08 1.29757E+08-3.42503E+06 3.84033E+07
 -1       835-1.36914E+08-4.70810E+08-5.88287E+07 1.51045E+08 2.56539E+06 1.27400E+07
 -1       836-5.40636E+07-5.40231E+07-1.67603E+07 8.70517E+07-8.17975E+06 1.08457E+07
 -1       837 3.76858E+07 1.06479E+08 2.85288E+07 5.25415E+07 7.12572E+06 1.94997E+07
 -1       838 1.06479E+08 2.65884E+08 7.54378E+07 6.56799E+07 5.39121E+06 1.10693E+07
 -1       839 1.70335E+08 4.68943E+08 1.44103E+08 8.43684E+07 1.17998E+06-2.53131E+07
 -1       840-7.90252E+07-6.03783E+07 3.10322E+08 7.19152E+08 6.31837E+08 6.85223E+05
 -1       841-1.25994E+08-9.61823E+07 2.91856E+08 5.79967E+08 4.15180E+08 9.43579E+06
 -1       842-1.24867E+08-7.36484E+07 3.03190E+08 4.28165E+08 2.10266E+08-2.43833E+07
 -1       843-1.79284E+08-2.33059E+08 1.86247E+08 3.17668E+08 1.94057E+08 1.23105E+07
 -1       844-1.41619E+08-3.16071E+08 1.16478E+08 2.21958E+08 5.48871E+07 1.16485E+07
 -1       845-4.21703E+07-3.78535E+08 1.15852E+08 2.17238E+08 5.55111E+07-1.49714E+07
 -1       846-7.94677E+07-4.63255E+08 7.07060E+07 2.47676E+08 3.49979E+07-3.03838E+06
 -1       847-1.32995E+08-2.10500E+08 2.86597E+07 2.57470E+08 5.34900E+07-7.96518E+07
 -1       848-6.46594E+07 4.61967E+07 2.18385E+07 1.37502E+08 1.34702E+07-1.24830E+07
 -1       849-3.51671E+07 3.35677E+07 1.21880E+06 9.59482E+07 3.18510E+05 6.83394E+06
 -1       850-1.48889E+07 2.91158E+06-2.70285E+07 8.73066E+07-2.77385E+07 1.90417E+06
 -1       851 8.81278E+06 1.52556E+06-3.77668E+07 1.01097E+08-3.52984E+07-8.90252E+06
 -1       852 2.29744E+07 2.45362E+06-5.05284E+07 1.15430E+08-5.25763E+07 1.17364E+06
 -1       853 1.75076E+07 1.05110E+07-5.58735E+07 1.34958E+08-8.61699E+07 6.74847E+06
 -1       854-6.13981E+05 4.56548E+06-6.86826E+07 1.51544E+08-1.38755E+08-7.25605E+06
 -1       855 2.81956E+08 1.84194E+09 3.97560E+08 3.87557E+08 9.65238E+07-5.33368E+07
 -1       856-1.68219E+08 7.54224E+08 8.92961E+07 1.41614E+08 3.29471E+07-1.70358E+07
 -1       857-8.06461E+07-4.31939E+07 8.15201E+07 4.04322E+07 2.42370E+07 2.14053E+07
 -1       858-8.06576E+07-4.04168E+08-2.53427E+07 7.94151E+07-3.16490E+07-1.87367E+07
 -1       859 6.17656E+06 1.10890E+08 2.52656E+07 2.70601E+07-5.91622E+06-3.49542E+06
 -1       860-7.68644E+06-5.28049E+07-9.06833E+06 4.12485E+07 1.77340E+06-9.35399E+04
 -1       861-9.30654E+06-1.72741E+08-2.66109E+07 7.32557E+07 9.18630E+05-8.29068E+06
 -1       862-7.82997E+07-3.91914E+08-8.48042E+07 8.55631E+07-1.01442E+07 5.57809E+06
 -1       863 1.07361E+08 1.17858E+08 1.13620E+08-1.09724E+09-2.53749E+08-2.09262E+08
 -1       864 2.96729E+08 7.56431E+08-5.16421E+07-8.83041E+08 1.65704E+08-2.94696E+08
 -1       865 1.05895E+08 1.71154E+09-2.34732E+08-3.81354E+08 7.58002E+07-1.20468E+08
 -1       866-2.82650E+08 1.54130E+09-2.73559E+08-9.34489E+07 8.27576E+07 2.59058E+07
 -1       867-3.61100E+08 1.23380E+09-2.63988E+08-7.64845E+07 6.00799E+07-2.25450E+07
 -1       868-2.72857E+08 2.51323E+08-2.66323E+08-2.62764E+08-3.75073E+07 4.73279E+07
 -1       869-5.28726E+07-7.40278E+07-4.77731E+07-1.46456E+08 5.92837E+07 9.79168E+07
 -1       870 3.49012E+07-1.36232E+08-3.54188E+07-5.33309E+07 6.27086E+07-2.41448E+07
 -1       871 1.08158E+07-2.29365E+08-6.30453E+07 1.67317E+06 1.29038E+08 6.71185E+07
 -1       872 5.44792E+06 7.23612E+07-2.02472E+07-2.43912E+07-9.81327E+06 6.84232E+06
 -1       873-1.94939E+07-1.23885E+07-1.02373E+07-1.36198E+07-1.95801E+07 1.18631E+07
 -1       874 8.78814E+06-1.03096E+08 1.30072E+07-2.89985E+06 7.45812E+06 1.16855E+06
 -1       875 1.05807E+07-1.71554E+08 2.78208E+07 9.19859E+06-1.07901E+07 1.54101E+06
 -1       876-7.21463E+05-2.30279E+08 4.16934E+07 1.92082E+07-2.82129E+07-5.87903E+06
 -1       877 4.90616E+05-3.10434E+08 4.81529E+07-8.78086E+06-1.28735E+07 5.71126E+05
 -1       878-4.19333E+07-3.77701E+08 4.60025E+07-6.85369E+07-2.15747E+07-9.48802E+06
 -1       879-5.59904E+07-1.69868E+08 1.46969E+07-1.85319E+08-3.48239E+07-6.93607E+07
 -1       880-2.16555E+07-3.17788E+07-2.25869E+07-2.37489E+08 4.54833E+07-4.64459E+07
 -1       881 7.12117E+08 2.65753E+08-4.22044E+07-8.09058E+08-2.98368E+08 1.37984E+08
 -1       882 5.37204E+08 1.44572E+09-1.43031E+07-1.67342E+08-1.01558E+08-3.72872E+07
 -1       883 6.27818E+08 2.20230E+09 3.89560E+08 4.07176E+08-1.43153E+08 6.60869E+07
 -1       884 2.94597E+06-1.36752E+08-6.28320E+06-4.82559E+07-2.84076E+07 1.43700E+07
 -1       885-4.00969E+07-3.24978E+08-2.27071E+07-1.84798E+07 5.53042E+06 1.02201E+07
 -1       886-1.15466E+08-3.06251E+08 7.12921E+06-3.72873E+07 7.24602E+06-1.26531E+07
 -1       887-1.52826E+08-7.45887E+07 5.57783E+06-1.80434E+08 6.13949E+07 3.01875E+07
 -1       888-2.85649E+09-1.11086E+09-1.11086E+09 2.39936E+07-6.61488E+02 6.79589E+08
 -1       889-2.05633E+09-7.48105E+08-6.26577E+08 4.05539E+08-1.20088E+08 2.00644E+06
 -1       890-4.54255E+07-2.15244E+07 2.98582E+08 7.29102E+08-3.95595E+07 6.09958E+08
 -1       891 1.65061E+09 2.75991E+08 3.56823E+08 4.54366E+08 1.73687E+07 6.89742E+07
 -1       892 1.58853E+09 1.31245E+08-2.01039E+08-2.29418E+08-4.78078E+07 7.56090E+07
 -1       893 1.27218E+09 5.52294E+08-2.81500E+07-9.72092E+07-8.34182E+07-2.16494E+07
 -1       894 6.24815E+08 6.93337E+08-2.63482E+07 1.67671E+08 2.17345E+07 5.79194E+07
 -1       895 4.35838E+08 8.76786E+08 2.11178E+07 4.10880E+08-4.63578E+08-1.45471E+08
 -1       896 5.94510E+08 7.18481E+08 7.02349E+07 5.65373E+08-2.57015E+08-2.38097E+08
 -1       897 3.67872E+07-6.44855E+07 1.51962E+07-1.17081E+08 1.50150E+07 3.37115E+07
 -1       898 5.33993E+07-1.76359E+08 3.37465E+06-1.11196E+08 4.47715E+07 2.21678E+07
 -1       899 4.22930E+06-2.74981E+08-2.31559E+07-2.55498E+07 3.27310E+07-2.83519E+07
 -1       900-1.32924E+07-2.37388E+08-4.03163E+05 2.51766E+07 7.00514E+07-1.97672E+07
 -1       901-1.23360E+08-1.70924E+08 4.52045E+06 2.40283E+07-6.53767E+06 1.04721E+07
 -1       902-2.78787E+08-1.32267E+08 1.43137E+06-3.17038E+07 1.18952E+07-2.00935E+07
 -1       903-3.31458E+08-2.29020E+07 4.69129E+07-6.12159E+07 2.39722E+07 1.28766E+07
 -1       904-3.62966E+08-5.31112E+07-7.97346E+07 1.00784E+08 1.06417E+07 2.63486E+07
 -1       905 7.54558E+06 1.35623E+07-6.66893E+07 1.68141E+08 2.46494E+06 1.30755E+08
 -1       906 4.47743E+08 1.68972E+08 1.36381E+08 9.38088E+07 2.08614E+07-5.75049E+06
 -1       907 6.19027E+08 2.40733E+08 2.40733E+08 7.47263E+06 1.25507E+02 1.47110E+08
 -1       908-2.14812E+09-8.35381E+08-8.35382E+08 3.78478E+07 5.92335E+02 4.09148E+08
 -1       909-4.67495E+07-1.04775E+08 2.44746E+08 6.37947E+08 3.05731E+07 3.69711E+08
 -1       910 1.28977E+09-9.01152E+07-2.18495E+08 4.85251E+07 1.25320E+06 6.10218E+07
 -1       911 8.90332E+08 5.97901E+07 6.93882E+06 2.76913E+08-5.30571E+07-3.69465E+08
 -1       912-1.20288E+09-1.84166E+09-5.01075E+08-5.80939E+08-5.15622E+07-1.01680E+08
 -1       913 2.88958E+08 1.79036E+08 5.52353E+07-1.51504E+08-9.71867E+06 4.28004E+06
 -1       914-1.48267E+08-1.17743E+08-5.91485E+06 9.49932E+07 2.02082E+07-9.98235E+07
 -1       915-2.85712E+08 6.43608E+07 5.60705E+07 6.19086E+06-4.67120E+06 1.64111E+07
 -1       916 1.44353E+07 2.48037E+07-5.50576E+07 1.41066E+08-2.59332E+06 8.01283E+07
 -1       917 4.53490E+08 1.76357E+08 1.76357E+08 8.53245E+06-8.74020E+01 8.33333E+07
 -1       918-1.47743E+09-5.74554E+08-5.74555E+08 3.84592E+07-3.08573E+02 3.16766E+08
 -1       919-1.10307E+09-4.66369E+08-3.10936E+08 3.04958E+08 4.29345E+07-2.72138E+07
 -1       920 7.47618E+06-1.52695E+08 2.16355E+08 5.32173E+08-7.55781E+06 2.11505E+08
 -1       921 7.26899E+08-6.83000E+07 9.98047E+07 3.78427E+08-4.04674E+07 7.66098E+06
 -1       922 9.77262E+08-1.15725E+08-1.84992E+08 1.82322E+08-4.38568E+07 1.08351E+08
 -1       923 1.41625E+09 3.13403E+07 1.30834E+08 7.06115E+07 1.48748E+07-2.54877E+07
 -1       924 1.05181E+09-2.12333E+08 1.12294E+08 1.26362E+08-1.51335E+08-1.81804E+08
 -1       925-1.40865E+09-1.24976E+09-3.05635E+08-5.35520E+08 1.58226E+07-3.67255E+07
 -1       926-1.90989E+09-1.84234E+09-4.19235E+08-1.04325E+09-6.38356E+08-7.10331E+08
 -1       927-3.89058E+08-2.23610E+08 9.93453E+07-2.09575E+08-3.59823E+07-8.15560E+07
 -1       928 8.58014E+06 6.94973E+07-1.16266E+08 6.51213E+07 1.62386E+07-8.78868E+07
 -1       929 1.32407E+07 6.08873E+07-4.90842E+06 2.10454E+07-1.42297E+07-5.31366E+07
 -1       930-4.08005E+06-2.85608E+07 1.66856E+07-2.36010E+06-6.73895E+06-1.23512E+07
 -1       931-2.00666E+07-1.03951E+07 2.71955E+06-1.22738E+07-4.11241E+06-1.28677E+07
 -1       932-1.10843E+07 1.09203E+07-9.44600E+06 8.05852E+05 1.50289E+05 7.69952E+06
 -1       933-7.19280E+06-9.18295E+06-4.26652E+05 6.54224E+06 3.30818E+06-3.03444E+06
 -1       934-4.02106E+06-1.55741E+07 2.42769E+07 1.42536E+07-1.69966E+06-4.46596E+06
 -1       935 8.41710E+07 4.47860E+07-1.91280E+07-4.35512E+07 1.07263E+07-9.24189E+06
 -1       936 4.35083E+08 3.40639E+08 8.84976E+07-2.20280E+08 1.41724E+08-1.40407E+08
 -1       937 4.70286E+08 1.95887E+08 1.09506E+08-1.02848E+08 2.85784E+07-1.94116E+07
 -1       938-1.02688E+08-1.33883E+08-1.60237E+07 1.49014E+08 5.38622E+07-6.33113E+07
 -1       939-4.12324E+08-1.30689E+08-8.19536E+07 1.13771E+08-6.63491E+06-3.15009E+07
 -1       940-2.24655E+08 8.88553E+07 5.19401E+07 1.16250E+07-2.33721E+06 5.70350E+06
 -1       941-1.43479E+08 3.98229E+07-1.37864E+07 5.25527E+07 7.71235E+06 8.76955E+06
 -1       942 8.80669E+06 2.89346E+07-4.89218E+07 1.13264E+08 2.21621E+06 3.63868E+07
 -1       943 2.34878E+08 9.55366E+07 6.27715E+07 6.76063E+07-7.90196E+06-8.09571E+06
 -1       944 3.06238E+08 1.19093E+08 1.19093E+08 8.40970E+06 6.68419E+01 5.96156E+07
 -1       945-9.95058E+08-3.86967E+08-3.86967E+08 2.29242E+07 4.75167E+02 1.38571E+08
 -1       946 5.53433E+06-1.12986E+08 1.54126E+08 4.12641E+08-2.99968E+07 1.54577E+08
 -1       947 7.72070E+08-2.43327E+08-1.18962E+08 1.20474E+08 2.85162E+07 5.16169E+07
 -1       948 7.23341E+08-4.94505E+08-3.12938E+07-3.61176E+08 5.51744E+07-2.03560E+08
 -1       949-2.31985E+08-3.46440E+08 9.89991E+07-2.11754E+08-1.00698E+08-4.01726E+07
 -1       950 5.45201E+06-4.13534E+07-8.45557E+07 6.19600E+05 2.38116E+07 2.68126E+07
 -1       951-2.18532E+07-7.78732E+06 1.82679E+07-8.01421E+06-3.61049E+06 7.34420E+06
 -1       952-6.04998E+06-6.83274E+05-1.05729E+07-1.63367E+06 5.20636E+06 1.43655E+07
 -1       953-3.94383E+06 1.02055E+07 1.89301E+07 1.40418E+06-1.15287E+06 1.38498E+07
 -1       954 5.04357E+07 7.05840E+07-2.05149E+07-4.33611E+07 2.32935E+07-8.95398E+06
 -1       955-2.88730E+07 8.05775E+07 4.34539E+07-4.60315E+07 1.05430E+06-6.76782E+06
 -1       956 4.13595E+07 4.69312E+07-2.94426E+07 9.12759E+07 2.21254E+06 3.00667E+07
 -1       957 1.94924E+08 7.58038E+07 7.58040E+07 5.22313E+06-1.50279E+02 2.17828E+07
 -1       958-5.84593E+08-2.27342E+08-2.27342E+08 1.61831E+07-3.70636E+02 1.30541E+08
 -1       959-4.59769E+08-1.97040E+08-1.28202E+08 1.77060E+08 3.03981E+07-4.85997E+06
 -1       960-4.97838E+07-1.08431E+08 6.71094E+07 2.96930E+08 2.27697E+07 9.43154E+07
 -1       961 3.24720E+08-1.63471E+08 4.69555E+07 1.40200E+08-2.08172E+07-3.66245E+07
 -1       962 5.66872E+08-3.04401E+08-3.43060E+07 2.55926E+07 2.48236E+07-1.48752E+07
 -1       963 6.47234E+08-1.69650E+08 4.58376E+07-1.03043E+08 1.19560E+08 1.02787E+08
 -1       964 3.02976E+08-2.85742E+08-6.31490E+07-3.91131E+08 1.80940E+08-9.38884E+07
 -1       965 8.09562E+07 8.10308E+06-1.12038E+08 6.45409E+07-9.38233E+07 1.70811E+07
 -1       966-4.81483E+07-6.99460E+06-8.83788E+07 4.96804E+06 1.93570E+07 2.75192E+07
 -1       967-8.12636E+07-7.63438E+07 3.55293E+07-6.01526E+07-2.95922E+07-2.91972E+07
 -1       968 8.23328E+06-1.09660E+07 2.39863E+07-1.66965E+07-3.92087E+06 5.85925E+06
 -1       969-1.35173E+07-2.25243E+06-1.27214E+07-8.40439E+06 5.69091E+06 1.86414E+07
 -1       970-1.33160E+07-3.11803E+06-6.07585E+06-5.51089E+06 6.13322E+06 1.22687E+07
 -1       971-4.80958E+06-1.89131E+06 6.14082E+06-3.64204E+06 5.77539E+06 1.55832E+07
 -1       972-3.51758E+06 4.21558E+06-2.90854E+06-2.16408E+06 1.01905E+07 8.32685E+06
 -1       973 1.69373E+07 1.99811E+07-7.20359E+06-9.30678E+06 1.77035E+07 1.07615E+06
 -1       974 1.04169E+07 9.03264E+06 1.64335E+07 3.85734E+06 7.34406E+06 8.02206E+06
 -1       975-1.53171E+07 4.73021E+06 2.21430E+07 1.38385E+07 2.51096E+07 2.55063E+06
 -1       976 3.84133E+07 4.68212E+07-8.14510E+06-3.94290E+07-3.23361E+07 3.31231E+07
 -1       977 3.64894E+07 4.34860E+07-1.80317E+07 2.41323E+07-1.25000E+07 5.16590E+06
 -1       978 8.13588E+07 8.95244E+07-9.91409E+05 6.65860E+07-3.34218E+06-1.25630E+07
 -1       979 9.64512E+07 5.49493E+07 1.79729E+07 3.10539E+07 5.91615E+06 1.76692E+06
 -1       980 1.05829E+08 4.11555E+07 4.11558E+07 9.63588E+05 1.56459E+02 2.82771E+07
 -1       981-3.14479E+08-1.22297E+08-1.22298E+08 1.17400E+07 3.00360E+02 2.13744E+07
 -1       982-7.79591E+07-1.30265E+08 3.41185E+07 2.31239E+08 5.57539E+06 6.37826E+07
 -1       983 1.06171E+08-1.97108E+08-4.98638E+07-8.94802E+07-5.31122E+06 5.47678E+06
 -1       984 6.70366E+07 1.00295E+07-6.43417E+06 1.78960E+07-5.37568E+07-1.54880E+07
 -1       985-1.42684E+07 3.86674E+06 2.35757E+07-1.45665E+07 4.57282E+06-2.77946E+06
 -1       986-1.27400E+07-1.01155E+07-4.85529E+06-7.25472E+06 8.32066E+06 1.59726E+07
 -1       987 1.67133E+06 5.45828E+06 2.68193E+06-7.08990E+04 8.45624E+06 1.61428E+07
 -1       988 5.72072E+06 7.66649E+06-7.06089E+06 2.60910E+06 7.33752E+06 3.80582E+06
 -1       989-1.97903E+07 7.75998E+06 1.79029E+06 2.87406E+06 2.61423E+06-5.93168E+06
 -1       990 7.46964E+07 1.24456E+08-1.16947E+07-1.12773E+07 4.38785E+06 3.09689E+07
 -1       991 1.05800E+08 4.11442E+07 4.11445E+07-7.38731E+05-6.21593E+01-2.97187E+06
 -1       992-9.91822E+07-3.85706E+07-3.85709E+07 6.49746E+06-1.48066E+02 2.56199E+07
 -1       993-1.02764E+08-6.71665E+07-1.08639E+07 8.34279E+07 1.35054E+07 1.67295E+06
 -1       994-1.07701E+08-1.47397E+08 2.00648E+06 1.70627E+08-9.07148E+06-4.32962E+07
 -1       995-1.01839E+08-1.19760E+08 4.16667E+06 6.93440E+07 4.17067E+07 1.81765E+07
 -1       996-1.60426E+08-1.61540E+08-3.11553E+07-1.06406E+08 7.51769E+07 2.28125E+07
 -1       997-3.22967E+07-1.28240E+07 1.39362E+07 2.26138E+05-1.55155E+07-6.26632E+06
 -1       998-9.75956E+06-2.59641E+07 1.60474E+07-7.22318E+06 3.18543E+06-2.72979E+06
 -1       999-2.80852E+06-1.73729E+07-1.13245E+07-7.24167E+06 1.41179E+07 7.05954E+06
 -1      1000-1.03645E+07-1.44104E+07-4.32327E+06-6.48217E+06 1.12913E+07 1.12172E+07
 -1      1001-3.23460E+06-3.57945E+06 2.51784E+06-9.68004E+05 1.21142E+07 1.61979E+07
 -1      1002-5.39745E+05 9.55971E+05 1.17488E+06 5.37165E+05 1.23261E+07 1.39941E+07
 -1      1003 3.86954E+06 6.48653E+06-4.30859E+05 3.69803E+06 1.21339E+07 1.50147E+07
 -1      1004 4.92373E+06 1.21238E+07-1.04219E+06 4.93218E+06 1.34547E+07 1.05050E+07
 -1      1005 8.51403E+06 2.01611E+07-1.62642E+06 8.79004E+06 1.04536E+07 3.19768E+06
 -1      1006 6.82064E+06 2.55863E+07 4.90570E+06 3.58270E+06 1.16617E+07 2.77853E+06
 -1      1007-2.36558E+06 2.19655E+07 2.57159E+06 7.54897E+05-7.03935E+06-5.21487E+06
 -1      1008 8.46094E+07 1.36872E+08-2.40615E+07-9.79798E+07-2.01045E+07 1.09578E+06
 -1      1009 1.06906E+08 6.88211E+07 6.16559E+06-5.10066E+07 7.04564E+06-7.29130E+06
 -1      1010 1.51871E+08 5.90609E+07 5.90613E+07-3.20812E+06 2.58357E+01 5.87940E+07
 -1      1011-6.86406E+06-2.66911E+06-2.66935E+06 3.12060E+06 5.65639E+01-2.07170E+07
 -1      1012-3.89001E+07-1.11593E+08-7.36054E+06 8.59834E+07-1.56215E+07 1.08648E+07
 -1      1013-1.59398E+07-2.84011E+07 3.82692E+06-8.47404E+06-7.30114E+06-6.07033E+06
 -1      1014-4.04500E+06-1.90330E+07-8.07664E+06-3.39080E+06 8.96405E+06 7.81020E+06
 -1      1015-1.47635E+05-2.45424E+06 1.52056E+06 1.53513E+06 1.04161E+07 1.65085E+07
 -1      1016 8.30221E+06 1.05819E+07-1.50147E+06 7.54674E+06 1.03666E+07 1.51077E+07
 -1      1017 7.84991E+06 2.92739E+07 9.78274E+06 1.31892E+07 7.92665E+06 4.42424E+06
 -1      1018 2.15177E+07 4.14303E+07-2.69624E+06 1.27076E+07-3.71432E+07-9.65906E+06
 -1      1019 2.13737E+08 1.68360E+08-3.60952E+07-1.98864E+08-5.04039E+07 5.53838E+07
 -1      1020 2.87373E+08 1.11756E+08 1.11756E+08-1.05530E+07 1.94256E+02-4.07311E+06
 -1      1021 4.44104E+07 1.72709E+07 1.72707E+07 1.81429E+06 7.18577E+01 1.70128E+07
 -1      1022 3.80381E+07-6.27638E+06 6.95390E+06 8.14157E+06 1.00309E+07 9.28905E+04
 -1      1023 2.22906E+07-5.82077E+07-1.39355E+07 2.97757E+06-4.35431E+06-1.83659E+07
 -1      1024 1.94999E+07-2.97079E+07 2.07127E+06-1.21284E+07-1.29965E+07 2.22051E+05
 -1      1025-6.07561E+05-3.71839E+07 3.15605E+06 2.38336E+06-1.27674E+07-5.50867E+06
 -1      1026 1.98291E+06-1.39145E+07-5.06951E+06 1.36252E+06 1.55062E+07-2.53008E+06
 -1      1027-3.90003E+06-1.52465E+07-5.15461E+06 1.66577E+06 1.33645E+07 4.04211E+06
 -1      1028-3.56619E+06-1.07748E+07 2.11782E+06-8.93135E+04 1.06698E+07 7.24471E+06
 -1      1029 1.64055E+06-3.70250E+06 1.26616E+06 3.17330E+06 1.21927E+07 1.11888E+07
 -1      1030 4.54116E+06 1.56999E+06 4.13474E+05 5.19487E+06 1.09447E+07 1.63147E+07
 -1      1031 9.02518E+06 6.74894E+06-1.18623E+06 8.54818E+06 1.10665E+07 1.39152E+07
 -1      1032 1.13371E+07 1.12206E+07-2.57605E+06 1.01513E+07 1.09039E+07 1.48752E+07
 -1      1033 1.74961E+07 2.31314E+07 4.64166E+06 1.66509E+07 9.93569E+06 1.04328E+07
 -1      1034 5.39113E+06 2.57088E+07 1.22564E+07 1.81094E+07 1.29397E+07 3.99842E+06
 -1      1035 1.45683E+07 3.73193E+07-1.76367E+07 1.50709E+07-3.70059E+06-5.19958E+06
 -1      1036 4.42379E+07 2.27694E+07-9.11641E+06 1.54164E+06-5.09872E+07-9.22464E+06
 -1      1037 2.78950E+08 1.36264E+08 8.58042E+07 1.80903E+08 7.22842E+07 6.80295E+07
 -1      1038 2.45534E+08 9.05817E+07-2.11597E+07-6.93052E+07 2.45024E+07 2.28029E+07
 -1      1039 3.40850E+08 1.56659E+08-6.07859E+07-2.67927E+08-1.55684E+07-1.17650E+07
 -1      1040 4.33546E+08 1.64821E+08 6.74989E+07-1.46145E+08 1.22996E+07-2.68064E+06
 -1      1041 4.90521E+08 1.90758E+08 1.90758E+08-1.58525E+07-2.15513E+02 4.60477E+07
 -1      1042 3.74918E+07 1.45802E+07 1.45802E+07-3.74157E+05-4.86875E+01-6.77501E+06
 -1      1043 2.05818E+07-3.57309E+07-6.47256E+06-2.43950E+07 6.12450E+05 2.23254E+06
 -1      1044 1.23316E+07-6.15150E+07-2.35463E+06-6.33209E+06 8.57812E+06-6.23543E+06
 -1      1045 1.28766E+07-3.20916E+06-9.62686E+05-1.20727E+05 1.80949E+07-1.74599E+06
 -1      1046-3.09336E+05-2.03984E+06 4.86574E+06 4.26928E+06 7.10535E+06 8.58524E+06
 -1      1047 7.13156E+06 8.31294E+05-2.47415E+06 8.10529E+06 7.87392E+06 1.74770E+07
 -1      1048 2.18051E+07 1.67582E+07 5.15542E+06 1.74912E+07 7.56630E+06 1.46616E+07
 -1      1049 2.12672E+07-9.12338E+05-2.74977E+07 2.67799E+07 3.27600E+06-8.51448E+06
 -1      1050-9.00738E+07-1.45502E+07-2.83581E+06-1.98269E+07-9.63361E+07-1.99079E+07
 -1      1051-1.26129E+08 1.06212E+08 1.00198E+08 1.91318E+08 2.29049E+07 3.60612E+07
 -1      1052 2.51315E+08 1.14152E+08-1.03844E+08-2.88449E+08 5.35358E+06 1.15370E+08
 -1      1053 8.01250E+08 3.11597E+08 3.11598E+08-1.73523E+07 4.73360E+02 9.12700E+07
 -1      1054 1.34772E+07 5.24124E+06 5.24115E+06-1.17208E+06 6.72646E+01 7.25610E+06
 -1      1055 7.03747E+06-5.71695E+06 7.82839E+04-2.45807E+07-6.76359E+05 1.89259E+06
 -1      1056 1.20621E+07-2.50187E+07-4.21075E+06-4.36255E+07-3.14687E+06 8.22775E+05
 -1      1057 3.55391E+07-4.60022E+07 1.32678E+06-3.50212E+07 4.04834E+06-5.37650E+06
 -1      1058 4.62743E+07-7.21691E+07 1.84523E+06-3.30052E+07-2.10891E+06-3.64218E+06
 -1      1059 4.18281E+07-4.37285E+07 8.04198E+06-2.09114E+07-1.89400E+07 2.26526E+06
 -1      1060 1.79352E+07-4.48098E+07 5.27563E+05 9.25579E+06-1.96237E+07-9.13854E+06
 -1      1061 9.48482E+06-1.02728E+06-1.13740E+07-7.39935E+06 2.90068E+07 4.09154E+06
 -1      1062-4.02935E+06-3.13397E+06-8.85456E+06 1.47830E+06 6.31514E+06 7.06670E+06
 -1      1063-6.44051E+06-1.05643E+07 4.24630E+06 1.19971E+07 1.19252E+07 7.49856E+06
 -1      1064 8.79120E+06 3.32829E+05 4.34384E+05 8.77893E+06 5.81285E+06 8.80744E+06
 -1      1065 1.45277E+07 6.55262E+06-5.74558E+06 1.24020E+07 1.98474E+06 1.54128E+07
 -1      1066 2.45917E+07 7.42516E+06 8.17212E+06 1.50990E+07 2.89863E+06 1.13449E+07
 -1      1067 2.21269E+07 5.21565E+06 1.37535E+07 1.88944E+07 2.85792E+06 1.77415E+07
 -1      1068-6.88393E+06 1.56641E+07-2.86411E+07 2.98990E+07-8.79014E+06 3.77598E+06
 -1      1069 1.07065E+08 9.83756E+07-3.93401E+07 8.55871E+07-4.12475E+07-4.26889E+07
 -1      1070 6.06111E+07 1.02372E+07 1.04686E+08-5.07681E+05 1.92836E+07 3.35385E+07
 -1      1071-1.12549E+08-1.49447E+07 1.14088E+08-7.92149E+07-1.45716E+08 2.30285E+07
 -1      1072-5.06294E+08 3.21033E+08 6.56084E+07 6.08855E+08 2.45596E+08-1.10737E+08
 -1      1073-1.00169E+09 1.12803E+08-6.91465E+07 2.62422E+08 1.43148E+08 1.90623E+08
 -1      1074-8.11400E+08 2.43369E+08 8.29564E+07 1.07160E+08 2.76550E+07 1.91319E+05
 -1      1075-4.12698E+08 1.01335E+08-7.23099E+07-8.71031E+07-2.67547E+07-5.55625E+07
 -1      1076 1.74055E+08 9.82217E+07-1.36024E+08-3.28721E+08 2.99834E+07 1.70906E+08
 -1      1077 8.92511E+08 3.40543E+08 2.39125E+08-2.02662E+08 4.35278E+07-1.37499E+07
 -1      1078 1.14673E+09 4.45950E+08 4.45950E+08-2.07215E+07-4.17958E+02 2.04117E+08
 -1      1079-4.60253E+07-1.78987E+07-1.78987E+07-2.93557E+06-8.31785E+01 3.05944E+06
 -1      1080 1.32082E+07-2.02306E+07 9.18347E+06-6.23328E+07 3.33039E+06 1.04954E+07
 -1      1081 6.18163E+07-4.94650E+07-7.87554E+06-4.55533E+07-2.81403E+06 2.61302E+06
 -1      1082 4.53928E+07-8.50408E+07-7.07419E+06 4.50988E+06 4.91885E+06-1.52543E+07
 -1      1083-3.33127E+07-4.62276E+07 9.82948E+06 2.79328E+07 2.24495E+07-2.17634E+06
 -1      1084 7.97274E+06-5.21111E+06-1.21839E+07 3.18150E+06-6.26935E+05 1.42718E+07
 -1      1085 1.66782E+07 3.35102E+06 1.03680E+07 6.85717E+06 3.98603E+06 1.29433E+07
 -1      1086 3.38898E+07 1.19287E+07-1.97776E+07 1.59295E+07-5.83899E+06 3.90571E+05
 -1      1087-9.20936E+06 4.91360E+07 9.79958E+07 6.54826E+06 2.80802E+07 2.94311E+07
 -1      1088 3.07785E+08 4.47337E+08-8.78684E+07 2.71649E+08-1.53864E+08-5.61608E+07
 -1      1089-1.03749E+09 6.05744E+08 5.65884E+07 5.73468E+08 1.08155E+08-3.04636E+08
 -1      1090-1.10401E+09 1.99241E+08 1.66275E+08-1.77317E+07 4.10300E+07 7.87836E+07
 -1      1091 6.56253E+07 1.10258E+08-2.39181E+08-4.47908E+08-3.72270E+07 2.27148E+08
 -1      1092 1.60869E+09 6.25603E+08 6.25603E+08-2.56763E+07 3.82387E+02 2.37616E+08
 -1      1093-1.17559E+08-4.57172E+07-4.57173E+07-5.60287E+06 6.55185E+01 2.82860E+07
 -1      1094-8.84851E+07-4.23306E+07-2.51872E+07-4.64059E+07-5.11527E+06-1.12037E+06
 -1      1095 5.79969E+06-2.39640E+07 1.77964E+07-8.12862E+07 1.21605E+06 1.56979E+07
 -1      1096 6.36019E+07-2.25352E+07 7.05807E+06-6.84294E+07 5.84577E+06 3.80193E+06
 -1      1097 8.20583E+07-2.62189E+07-1.61285E+07-5.26813E+07 9.27805E+06 5.63524E+06
 -1      1098 1.22598E+08-4.99511E+06 1.70482E+07-4.50218E+07 5.08010E+05-3.45096E+05
 -1      1099 6.15876E+07-1.60986E+07 1.27391E+07-5.60366E+07 1.81572E+07-1.99418E+07
 -1      1100-2.56131E+08-1.19400E+08-4.77428E+07 3.41890E+07 2.71507E+07-2.69472E+07
 -1      1101-2.66852E+08-2.07144E+08-6.22895E+07 1.21403E+08 9.58450E+07-9.02479E+07
 -1      1102-5.20748E+07-2.90716E+07 8.35863E+06 2.85178E+07 4.86023E+06-1.14649E+07
 -1      1103 7.96460E+06 1.17068E+07-1.27470E+07-7.65209E+06-3.33760E+06-8.51562E+06
 -1      1104 1.16829E+07 3.31746E+06 9.60476E+05-3.36992E+06-5.71630E+05-1.82546E+07
 -1      1105 1.92060E+07-1.15882E+07 6.92002E+06 5.59793E+05-2.52711E+06-1.48579E+07
 -1      1106 3.43357E+07 1.52025E+07-1.34053E+06 1.65552E+07-7.66695E+06-4.21537E+07
 -1      1107 1.19863E+07 3.69652E+07-1.24127E+07 6.01888E+06-1.03611E+07-4.63122E+07
 -1      1108-1.82158E+07-8.07386E+07-5.18227E+06-2.46942E+07-1.79412E+07-9.56459E+07
 -1      1109-1.47303E+07-9.33661E+07 1.20972E+08-8.01637E+07 2.17760E+07-1.38229E+08
 -1      1110 5.17574E+08 2.94319E+08-8.85790E+07 2.67985E+08-4.88661E+07-1.23315E+08
 -1      1111 2.39976E+09 2.18149E+09 5.99325E+08 1.17233E+09-8.67968E+08-9.44702E+08
 -1      1112 1.71499E+09 1.43685E+09 4.44472E+08 4.35961E+08-1.21078E+08-1.91980E+08
 -1      1113-1.48769E+09 1.88235E+08-1.26375E+08-1.40344E+08-1.12363E+08-2.41050E+08
 -1      1114-1.97708E+09-1.13531E+08-1.68025E+08 4.22745E+06 3.95970E+07 4.85782E+06
 -1      1115-1.36277E+09 8.51681E+07 2.39486E+08-9.85743E+07-4.01512E+07 1.26677E+08
 -1      1116-9.79531E+08 3.48510E+07-1.48200E+08-3.60824E+08-5.07604E+07-4.61194E+06
 -1      1117 3.18392E+07 1.72790E+08-3.07299E+08-5.73296E+08-4.69807E+06 3.08127E+08
 -1      1118 1.59753E+09 6.53566E+08 4.48011E+08-3.30582E+08 5.75764E+07-4.43370E+07
 -1      1119 2.14111E+09 8.32653E+08 8.32654E+08-4.35488E+07-2.14560E+02 4.39152E+08
 -1      1120-2.18870E+08-8.51161E+07-8.51162E+07-6.17970E+06-1.10543E+02 4.41941E+07
 -1      1121-5.30739E+06-1.66301E+07 2.48740E+07-9.43905E+07-3.27042E+06 3.70076E+07
 -1      1122 1.14510E+08-1.88824E+07-2.56261E+07-2.85224E+07-2.22506E+06 6.64652E+06
 -1      1123 5.40296E+07 3.72585E+07 4.27712E+06-4.98162E+07 1.26932E+07-5.02182E+07
 -1      1124-1.83125E+08-7.88804E+07-4.04001E+07 7.03984E+07 8.32261E+06-4.25958E+06
 -1      1125 1.51061E+09 1.55442E+09 4.14060E+08 5.55800E+08-1.53942E+08-1.74309E+08
 -1      1126-1.14019E+09-7.81961E+07-2.06732E+07-3.11517E+08-1.22476E+08-5.07127E+08
 -1      1127-1.70882E+09 1.18972E+08 3.11297E+08 5.94970E+07 1.32059E+06 1.09037E+08
 -1      1128 7.77322E+07 1.21020E+08-3.32026E+08-7.13495E+08 3.66275E+07 4.94583E+08
 -1      1129 2.87351E+09 1.11748E+09 1.11748E+09-3.97946E+07 5.45125E+02 5.28900E+08
 -1      1130-3.23795E+08-1.25920E+08-1.25920E+08-5.21258E+06 1.08039E+02 8.52212E+07
 -1      1131-2.28936E+08-8.45206E+07-6.81926E+07-5.96074E+07 1.31498E+07 3.45093E+06
 -1      1132-8.30276E+06-6.74576E+06 3.49369E+07-1.04818E+08 5.85814E+06 7.11138E+07
 -1      1133 1.69603E+08 2.44845E+07 3.73999E+07-7.16822E+07-1.84375E+05 1.42481E+07
 -1      1134 1.57725E+08 1.94264E+07-2.34374E+07 1.00873E+07 8.23317E+06 5.62580E+06
 -1      1135 1.21481E+08 8.03909E+07-1.28034E+06 7.98763E+06 1.12888E+07-2.09647E+06
 -1      1136 3.19360E+07 1.04527E+08-4.35963E+06-7.92377E+06 3.99146E+06 5.04520E+06
 -1      1137-8.19451E+06 1.72126E+08 1.72836E+05-8.52160E+06 4.98288E+07-1.86233E+07
 -1      1138-5.80895E+06 2.22873E+08 1.18914E+07 3.24965E+07 2.28979E+07-5.08537E+06
 -1      1139-3.11363E+07 1.45831E+08-4.18216E+06 1.01257E+08 4.02252E+07 2.22373E+07
 -1      1140-1.13556E+07 7.19864E+07-6.72983E+06 9.69328E+07 8.19171E+06 2.87029E+07
 -1      1141 2.76429E+08-3.29479E+08 1.53663E+07 5.00451E+08-8.11351E+07 1.92018E+08
 -1      1142 4.79010E+08-8.41002E+08 2.63873E+07 4.48166E+08-2.25002E+08 8.79224E+07
 -1      1143 1.89294E+06-1.24632E+09-1.23169E+08-1.18038E+08-1.87703E+08-1.27626E+08
 -1      1144-1.79231E+08-1.01928E+09-2.12103E+07-2.79570E+08-4.64326E+08-1.84056E+08
 -1      1145-6.72839E+08-6.26768E+08 3.95878E+07-9.41221E+07-1.92855E+06 1.70576E+07
 -1      1146-1.68155E+09-6.35537E+08 1.08011E+07 2.25852E+08-8.63965E+07-1.55178E+07
 -1      1147-2.11003E+09-1.89409E+08 2.71851E+08 3.81909E+08-7.91767E+07 7.98695E+07
 -1      1148-2.17380E+09-3.69819E+08-4.59744E+08-4.86080E+08 2.15718E+07 6.11528E+07
 -1      1149 6.40073E+07 1.90192E+07-3.87510E+08-8.35964E+08-4.31705E+07 7.68719E+08
 -1      1150 2.66344E+09 9.64282E+08 8.10384E+08-4.56230E+08-1.56042E+08-1.22417E+07
 -1      1151 3.66190E+09 1.42407E+09 1.42407E+09-1.99037E+07-6.93242E+02 8.29385E+08
 -1      1152 7.54285E+07 4.29794E+07-1.39851E+06 8.94098E+07 3.62063E+07 1.07327E+07
 -1      1153 5.65465E+07 2.14161E+08-2.14479E+06 3.79074E+07 2.56118E+06-5.47576E+06
 -1      1154 3.24408E+07 2.57463E+08 1.67379E+07 3.94900E+07 6.88175E+05 7.86867E+06
 -1      1155 6.41996E+06 1.28104E+08 5.16748E+06 5.45607E+07-2.76623E+07 7.97158E+06
 -1      1156 1.27659E+08-6.54777E+08-3.32315E+07 1.35629E+08 1.32460E+08 1.18346E+08
 -1      1157-1.74824E+08-1.69168E+09-1.48178E+08-8.20784E+07 5.22120E+05 5.65669E+07
 -1      1158-6.73786E+08-1.55357E+09 1.46740E+07 1.85480E+08-3.11912E+07-7.71950E+07
 -1      1159-9.63735E+08-3.64799E+08 6.39533E+07 1.03946E+09-3.68589E+08 1.53067E+08
 -1      1160 7.96211E+06 1.57890E+07 1.05844E+07 1.40374E+08 2.24282E+07-1.93739E+07
 -1      1161 3.45082E+07 1.18064E+08-1.19711E+07 1.21995E+08-2.13689E+07-4.20849E+07
 -1      1162 2.68783E+07 2.64958E+08-3.16025E+07 6.41016E+07-1.37578E+07-7.97513E+06
 -1      1163-1.95867E+06 2.19858E+08-3.56387E+07 3.40155E+07-1.24131E+07-6.10689E+05
 -1      1164 4.02097E+06 1.70484E+08-3.11225E+07 2.03558E+07-1.66244E+07-5.68821E+06
 -1      1165-2.83791E+06 1.47187E+08-2.02201E+07 2.42975E+07-1.69158E+07 7.82940E+06
 -1      1166-1.77986E+07 1.30607E+08-9.70546E+06 3.08463E+07-1.06507E+07-2.46767E+05
 -1      1167 2.19162E+08-7.71835E+08 4.37546E+07-1.38268E+08-2.22995E+07 1.04007E+07
 -1      1168 1.24096E+08-9.55210E+08 1.28349E+08-1.86807E+08 7.01668E+07 1.94736E+07
 -1      1169 8.06373E+07-1.17343E+09 2.17638E+08-2.27513E+08 1.02459E+08-5.32715E+07
 -1      1170 7.95678E+07-1.55067E+09 2.86494E+08-3.06606E+07 7.73926E+07 1.56003E+07
 -1      1171-2.42888E+08-1.95425E+09 2.57991E+08 3.10260E+08 9.45859E+07-7.40871E+07
 -1      1172-3.56690E+08-8.86540E+08 6.65859E+07 9.83533E+08 1.52777E+08-3.82439E+08
 -1      1173-9.41954E+07-1.16311E+08-1.02748E+08 1.34809E+09-2.21783E+08-1.87623E+08
 -1      1174 5.40053E+07 2.66536E+08 5.68183E+07-3.54259E+07 1.78246E+06 3.74202E+06
 -1      1175 9.16271E+06 1.19018E+08 1.72767E+07-1.56449E+07-3.54340E+06-3.60570E+06
 -1      1176-1.11220E+07 3.21086E+07 9.35840E+06 1.44569E+07 5.36892E+06-7.94810E+06
 -1      1177 1.84589E+08-3.96068E+08-6.33141E+07-2.55015E+08-1.30797E+08-5.02039E+07
 -1      1178 3.48406E+07-8.77959E+08-1.16530E+08-4.55470E+08 1.44411E+07-4.84209E+07
 -1      1179-3.82777E+08-2.05024E+09-4.47579E+08-5.36344E+08 7.47377E+07 2.13758E+07
 -1      1180 2.99912E+06-8.70143E+06 4.58538E+07-7.47047E+07-8.88587E+07-2.37985E+06
 -1      1181-6.88712E+06-9.93796E+06 4.03922E+07-6.23019E+07-5.99816E+07 4.26429E+06
 -1      1182-5.54983E+06-4.14707E+06 4.00409E+07-4.83097E+07-4.03630E+07-1.02264E+06
 -1      1183 7.24852E+06-3.05154E+07 3.89913E+07-3.95847E+07-3.39038E+07-4.10084E+06
 -1      1184-2.76677E+06-8.42751E+07 2.38844E+07-4.35190E+07-2.98854E+07-2.39911E+06
 -1      1185-2.10838E+07-6.87226E+07 1.77249E+07-6.04809E+07-1.83468E+07-1.83706E+07
 -1      1186 6.15273E+06-1.52430E+07 3.49400E+07-4.83660E+07-1.14677E+07-1.54251E+07
 -1      1187 4.04074E+07 3.76796E+06-1.28670E+07-7.02050E+07 2.46091E+06-2.98405E+06
 -1      1188 1.41837E+08 6.52377E+07-2.99766E+07-1.17310E+08-1.32371E+07-3.45415E+07
 -1      1189 3.10061E+08 2.48612E+08 9.09863E+06-2.76696E+08 7.31756E+07-4.61023E+07
 -1      1190 2.37970E+08 2.50080E+08-7.00490E+07-4.33362E+08 8.12819E+07 4.04553E+06
 -1      1191 1.21917E+08 3.07700E+07-2.02865E+08-5.43915E+08 2.03366E+08-4.47221E+07
 -1      1192 1.43482E+08-1.12398E+07-2.47504E+08-6.62666E+08 2.45946E+08-6.13826E+06
 -1      1193 1.04042E+08 5.63333E+07-3.00290E+08-7.81392E+08 4.53469E+08 3.60805E+07
 -1      1194 1.55177E+07 5.15410E+07-3.87081E+08-8.83858E+08 7.55470E+08-4.20624E+07
 -1      1195-1.10214E+08-3.11064E+08-9.42327E+07-3.82567E+07 3.65120E+06-1.77792E+07
 -1      1196-8.38838E+07-2.19341E+08-6.35251E+07-2.88635E+07 8.99357E+06 8.49542E+06
 -1      1197-4.29691E+07-1.46741E+08-2.89909E+07-3.26621E+07 2.62723E+06 3.06011E+06
 -1      1198-1.41999E+07-4.06373E+07 3.38828E+06-2.73510E+07 2.39792E+06 1.04086E+07
 -1      1199 5.24797E+07 6.19015E+07-1.19519E+07-6.51845E+07-3.26824E+05 3.83343E+07
 -1      1200 2.43726E+08 5.20397E+08 1.10603E+08-2.45513E+08 3.37581E+06 3.58330E+07
 -1      1201 5.62923E+08 1.37459E+09 4.00238E+08-3.86148E+08-3.57641E+07 5.36711E+07
 -1      1202 9.25689E+08 2.53842E+09 7.67022E+08-4.91982E+08-2.39021E+06-1.36487E+08
 -1      1203-1.63724E+08-4.21004E+08-1.63724E+08 4.81225E+05-8.67573E+07-5.16239E+01
 -1      1204-1.38821E+08-3.56969E+08-1.38821E+08-2.73644E+06-6.33000E+07 1.99709E+01
 -1      1205-1.16052E+08-2.98420E+08-1.16052E+08-4.38954E+06-5.60791E+07 2.80814E+00
 -1      1206-9.17490E+07-2.35926E+08-9.17490E+07-3.53360E+06-3.77886E+07 3.21302E+01
 -1      1207-6.82474E+07-1.75493E+08-6.82474E+07-5.14840E+06-1.64942E+07 3.07330E-01
 -1      1208-4.44090E+07-1.14194E+08-4.44090E+07-5.79314E+06-7.73896E+06 6.66459E+01
 -1      1209-2.40979E+07-6.19659E+07-2.40978E+07-3.66811E+06-8.33095E+06 6.71062E+01
 -1      1210 9.10917E+05 2.34262E+06 9.11038E+05-3.05909E+06 1.68488E+06-5.01887E+01
 -1      1211 3.34041E+07 8.58971E+07 3.34045E+07-6.49153E+06 5.02571E+07 1.15568E+02
 -1      1212 1.15478E+08 2.96944E+08 1.15478E+08-1.33103E+07-2.20657E+07 1.95103E+02
 -1      1213 2.37431E+08 6.10539E+08 2.37432E+08-2.74773E+07 1.21880E+08-4.24520E+02
 -1      1214 4.61875E+08 1.18768E+09 4.61875E+08-3.51283E+07 1.62415E+08 6.28280E+02
 -1      1215 7.15218E+08 1.83913E+09 7.15219E+08-4.79601E+07 3.80245E+08-3.74768E+02
 -1      1216 1.03644E+09 2.66514E+09 1.03644E+09-4.51315E+07 5.08324E+08 6.68119E+02
 -1      1217 1.37351E+09 3.53187E+09 1.37351E+09-3.00220E+07 8.34990E+08-7.79233E+02
 -1      1218-8.47705E+08-7.94187E+08-6.75222E+08-3.81942E+08-7.54162E+08-8.08606E+08
 -1      1219-3.97746E+07 4.85686E+07-1.44098E+07 1.63792E+07-1.34798E+07-6.41023E+07
 -1      1220-5.44493E+07-3.75334E+07-5.00418E+07-3.87861E+06-3.07770E+07-3.25932E+07
 -1      1221-4.67823E+06 1.46719E+07 1.77347E+07-1.26683E+06 6.30350E+06 5.37034E+06
 -1      1222 2.76023E+06-1.25619E+07-3.55540E+05 4.71846E+06 3.41857E+06-1.01010E+06
 -1      1223 1.81193E+08 1.56652E+08 1.39713E+08-7.94192E+07 1.55625E+08-1.70901E+08
 -1      1224 5.79652E+07-3.50167E+07-5.74284E+06 1.68209E+07-7.21859E+07-1.52531E+07
 -1      1225-5.50947E+07-5.25231E+07 6.66614E+07-6.79500E+07 3.16630E+07 3.75806E+07
 -1      1226-2.86151E+07-1.20839E+07-1.05727E+07-1.86475E+07-1.97114E+06 7.32650E+06
 -1      1227-5.58893E+06 1.43183E+06 7.28861E+06-5.76096E+06 9.15693E+06 1.44062E+07
 -1      1228 1.15121E+07 1.93732E+07-1.36268E+07-8.03254E+06 2.75009E+06 1.31472E+07
 -1      1229-9.85175E+06 2.10406E+07 4.62757E+06 4.73992E+06 2.00628E+07-5.63593E+06
 -1      1230-3.67849E+07-6.18411E+07-4.48654E+07-1.92268E+06-3.33429E+07-3.39090E+07
 -1      1231-1.34397E+07-3.47986E+07-8.96384E+06-1.64520E+07 3.40724E+06-3.95002E+05
 -1      1232-1.10540E+07-1.18052E+07-1.78258E+06-3.82779E+06 9.25807E+06 1.28628E+07
 -1      1233 8.11236E+06 1.34797E+07 3.96264E+05 6.64790E+06 1.06581E+07 1.23737E+07
 -1      1234 1.24951E+07 3.48934E+07-4.67589E+06 1.40475E+07 1.39691E+07 5.31049E+06
 -1      1235-2.58892E+06 4.35491E+07-4.06271E+05 4.62050E+06 1.39260E+06-8.58459E+06
 -1      1236 2.78170E+06-2.53109E+07 1.13306E+06 1.97296E+05 1.90674E+07-4.25407E+06
 -1      1237-3.88349E+06-1.78754E+07 3.81361E+06 1.92705E+06 1.30322E+07 8.52144E+06
 -1      1238 8.13619E+06 2.05791E+06-8.59180E+04 1.01273E+07 9.37526E+06 1.37587E+07
 -1      1239 2.72728E+07 2.71696E+07 2.10917E+06 2.18851E+07 7.81512E+06 1.13782E+07
 -1      1240 2.18994E+07 5.23411E+07 1.15142E+07 3.78053E+07-2.22992E+05-4.75222E+06
 -1      1241 4.66422E+07 8.47030E+07 5.73820E+07 7.16634E+06-6.91743E+07-4.45206E+07
 -1      1242 4.26627E+06-1.16453E+07-4.44845E+06-2.15721E+05 2.42619E+07-1.50726E+06
 -1      1243 1.47655E+06-7.31698E+06 9.46090E+06 1.67771E+07 1.80948E+06 1.35886E+07
 -1      1244 2.32323E+07 6.71289E+06-8.31443E+06 2.17080E+07 6.12308E+06 1.57088E+07
 -1      1245 4.67471E+07 2.03302E+07 1.29546E+07 3.96730E+07-5.78379E+06 3.28215E+06
 -1      1246 7.18664E+07 6.64803E+07-8.76993E+07 1.03605E+08 3.55912E+07 4.37298E+07
 -1      1247-7.39480E+07 4.92590E+07 4.70201E+06-1.55379E+07-1.15438E+08-2.02960E+07
 -1      1248-1.18296E+08-1.03106E+08-9.38353E+07 5.02198E+07 1.00902E+08-1.06284E+08
 -1      1249 8.36400E+06 8.80806E+06 2.48756E+06-2.80276E+05-2.38324E+05-5.97827E+06
 -1      1250 2.36872E+07-1.44795E+07-1.67227E+07 5.70140E+06 2.41756E+06-1.13895E+07
 -1      1251 7.79164E+07 4.63189E+07 6.41786E+07 9.97684E+06-3.94553E+07-6.92542E+07
 -1      1252 5.94080E+07-5.78940E+07 1.98284E+07-1.47765E+07-1.74096E+07-1.04089E+08
 -1      1253 1.09990E+09 1.01258E+09 8.99414E+08 4.86643E+08-9.67435E+08-1.05734E+09
 -1      1254-2.75271E+08-2.46097E+08-3.31377E+08-1.41682E+08-4.35955E+08-4.69504E+08
 -1      1255-1.74474E+08-5.33630E+07-7.59725E+05-9.66500E+07-4.03594E+07-1.15064E+08
 -1      1256-1.31619E+08-3.90667E+06-5.31529E+06-3.34261E+07-2.10818E+07-5.93083E+07
 -1      1257-4.33302E+07 2.57223E+07 3.10968E+07-1.14491E+07 2.44224E+06-2.82036E+07
 -1      1258-6.93742E+07-1.44000E+07-2.98629E+07-5.52192E+06-1.28664E+07-1.69245E+07
 -1      1259-3.62371E+07-2.48642E+06-6.29548E+06-6.01350E+06-4.03026E+06-1.06039E+07
 -1      1260-1.26223E+07 5.75597E+06 1.13953E+07-3.46188E+06 6.70830E+05 4.88121E+06
 -1      1261-8.56032E+06-5.98700E+06-5.75636E+06-1.32671E+06 4.36057E+04-6.14611E+05
 -1      1262 2.05067E+07-1.58805E+06-1.08611E+06-5.00180E+06 5.40055E+06-1.61752E+06
 -1      1263 3.53260E+07 9.49149E+06-1.66535E+06-1.90558E+07 1.05475E+07-2.01663E+07
 -1      1264 6.05492E+07 4.42848E+07 6.82799E+07-2.95637E+07 9.01344E+07-9.97363E+07
 -1      1265-5.56723E+07-1.51950E+08-8.83726E+06-9.54358E+07-1.17303E+08-4.30334E+07
 -1      1266-1.05370E+08-4.54691E+07-4.31827E+07-6.14383E+07-2.30713E+07-2.58780E+07
 -1      1267-5.92084E+07-1.20994E+07 3.81015E+06-2.06681E+07 3.27933E+06 1.24217E+07
 -1      1268-1.70493E+07-4.03883E+05-3.70660E+06-6.98492E+06 5.77272E+05 1.04383E+07
 -1      1269 1.79497E+07 1.48311E+07 1.00222E+07-7.76033E+06 6.91353E+06-5.35328E+04
 -1      1270 1.28454E+07 3.69754E+07 3.59039E+06-1.89590E+07 2.44370E+07-9.69073E+06
 -1      1271 6.37772E+05-1.24304E+08 5.43055E+04-3.22429E+07-6.63293E+07-2.23053E+07
 -1      1272-4.54498E+07-1.08023E+08-4.14948E+07-5.99163E+07-2.57104E+07-2.65150E+07
 -1      1273-4.75185E+07-4.73025E+07 4.19177E+07-7.42867E+07 2.07755E+07 2.42155E+07
 -1      1274-4.98821E+07-3.58883E+07 6.47088E+06-4.75851E+07 3.06149E+06 1.31032E+07
 -1      1275-4.42435E+07-2.24930E+07-6.79468E+06-2.95282E+07-2.60017E+06 6.44438E+06
 -1      1276-2.70734E+07-1.01782E+07-2.84024E+06-1.76922E+07 1.81026E+06 5.59130E+06
 -1      1277-7.51568E+06 3.34166E+06 4.03929E+06-7.94395E+06 7.53646E+06 1.13795E+07
 -1      1278 1.68409E+06 1.25132E+07-9.81904E+05-6.14928E+06 6.79054E+06 7.84952E+06
 -1      1279 9.97853E+06 2.24006E+07-8.69215E+06-6.39411E+06 3.21355E+06 9.17088E+06
 -1      1280 9.75723E+06 4.04932E+07 7.61069E+06-5.80699E+06 1.31786E+07-4.05495E+06
 -1      1281 7.15108E+05 4.45736E+07 1.72193E+06-4.56818E+06 1.89702E+07-5.77410E+06
 -1      1282 2.46899E+07-5.19946E+07 2.94360E+07-1.20963E+07-3.05815E+07 4.04876E+06
 -1      1283-3.73578E+07-5.44783E+07 7.03557E+06-4.57977E+07 1.07584E+07 5.02877E+06
 -1      1284-2.85902E+07-2.04249E+07-2.36464E+05-1.69489E+07 5.23632E+06 1.14396E+07
 -1      1285 9.70567E+05 9.84656E+06 2.18099E+05-3.91930E+04 5.72374E+06 1.12817E+07
 -1      1286 1.47719E+07 3.86860E+07-2.24017E+06 6.67744E+06 3.64195E+06 5.00185E+06
 -1      1287-6.18002E+06 4.66949E+07-7.68069E+06 2.04456E+06-2.94768E+05-5.32238E+05
 -1      1288-1.28572E+07-7.95954E+07-2.60693E+07-4.09244E+06-1.75263E+07-1.55715E+07
 -1      1289-1.39689E+07-7.10109E+07 2.85245E+06-1.82054E+07 9.21208E+06 3.46637E+06
 -1      1290-2.49782E+07-5.29537E+07-5.91142E+06-2.63337E+07 3.16065E+06-1.18274E+06
 -1      1291-2.18005E+07-3.37142E+07-1.75239E+05-1.49637E+07 8.29254E+06 7.07887E+06
 -1      1292-1.72249E+07-1.83723E+07-1.96156E+06-6.53450E+06 8.01694E+06 1.08450E+07
 -1      1293-2.02152E+06 1.32145E+06-1.77028E+05 1.64925E+06 8.54012E+06 9.21859E+06
 -1      1294 1.21989E+07 2.02101E+07 5.99942E+05 9.63817E+06 8.24786E+06 9.99590E+06
 -1      1295 1.79053E+07 3.58261E+07 5.05477E+04 1.49911E+07 9.34072E+06 7.21722E+06
 -1      1296 1.87608E+07 5.16189E+07-2.16645E+06 1.91512E+07 1.10483E+07 3.90014E+06
 -1      1297 1.19046E+07 7.05976E+07 3.26900E+06 1.49664E+07 5.63079E+06 5.85426E+05
 -1      1298-1.79427E+06 6.70200E+07-1.43867E+06 8.83505E+06-2.36786E+06-6.80018E+06
 -1      1299-3.23632E+06-5.31233E+07-8.42446E+06-3.56839E+06-5.80976E+06-6.33291E+06
 -1      1300-1.59516E+07-4.10083E+07-4.01811E+06-1.03647E+07 4.33704E+06 1.67135E+06
 -1      1301-1.95516E+06-7.15217E+06-2.88251E+05 4.32234E+06 6.87101E+06 1.14918E+07
 -1      1302 2.51729E+07 2.98017E+07 5.73567E+05 2.13515E+07 6.75922E+06 1.05688E+07
 -1      1303 2.89494E+07 6.70338E+07 5.13842E+06 3.79139E+07 3.46417E+06-2.02001E+06
 -1      1304 3.20973E+06 7.98757E+07 1.04853E+07 1.23194E+07-2.66785E+07-9.48595E+06
 -1      1305 1.11851E+06-3.98152E+07 1.46306E+06-1.05200E+06 1.27159E+07-3.86861E+06
 -1      1306-5.14134E+06-4.11635E+07-2.38471E+06 1.35449E+06 7.40239E+06 1.39429E+06
 -1      1307-5.74183E+06-2.62291E+07 1.80063E+06 4.10684E+06 1.01391E+07 6.58196E+06
 -1      1308 1.05156E+06-1.22262E+07 8.99912E+04 8.11966E+06 8.39455E+06 7.50443E+06
 -1      1309 1.19351E+07 2.85334E+06-4.80524E+04 1.50435E+07 7.37824E+06 1.09534E+07
 -1      1310 2.57786E+07 2.07260E+07 4.45830E+05 2.40176E+07 7.66301E+06 9.10380E+06
 -1      1311 4.15177E+07 4.14187E+07 2.56607E+06 3.33896E+07 6.87956E+06 9.66330E+06
 -1      1312 4.07858E+07 5.71592E+07 2.35332E+05 4.27732E+07 7.52006E+06 6.46489E+06
 -1      1313 3.85490E+07 7.89217E+07 7.53407E+06 5.84409E+07 6.51469E+05-5.03159E+06
 -1      1314 2.04188E+07 1.00078E+08-4.10447E+06 4.06019E+07 6.34151E+06 3.06924E+06
 -1      1315 1.56580E+07 1.09814E+08 3.26117E+07 1.30284E+07-4.38200E+07-2.09312E+07
 -1      1316 2.74488E+06-2.59490E+07 4.70379E+06 3.36824E+06 1.10760E+07 1.06384E+06
 -1      1317-4.03499E+05-1.75475E+07 1.36750E+06 1.22087E+07 4.04424E+06 7.78880E+06
 -1      1318 2.36655E+07 8.26790E+06-9.93086E+04 2.30916E+07 5.46846E+06 1.23406E+07
 -1      1319 5.31990E+07 3.84255E+07 3.15091E+05 4.47105E+07 4.71005E+06 1.05959E+07
 -1      1320 5.25348E+07 7.61268E+07-9.80828E+06 8.22839E+07 1.15948E+07 3.14612E+06
 -1      1321-3.24864E+07 7.14183E+07-3.85899E+07 2.32537E+07-5.81693E+07 5.26203E+06
 -1      1322-2.63043E+06-2.49418E+07-2.37142E+06 7.19661E+06 2.13892E+07-1.94620E+06
 -1      1323-7.82715E+05-1.91842E+07-4.69857E+06 1.48499E+07 9.36974E+06-1.18505E+06
 -1      1324 6.24679E+06-6.95205E+06 5.85525E+06 2.14435E+07 1.90111E+06 1.03207E+07
 -1      1325 2.03387E+07 1.18673E+06 1.65766E+05 2.49286E+07 4.09014E+06 7.40207E+06
 -1      1326 3.38986E+07 9.09898E+06-4.46274E+06 3.10894E+07 5.02390E+06 1.24907E+07
 -1      1327 5.43539E+07 2.26765E+07 3.99513E+06 4.50323E+07-1.57361E+06 4.66724E+06
 -1      1328 7.13106E+07 3.54182E+07 8.37938E+06 6.13463E+07-6.10344E+06 3.75310E+06
 -1      1329 7.28979E+07 4.98287E+07-8.98759E+06 8.41250E+07 1.18503E+06 1.43060E+07
 -1      1330 6.39628E+07 6.19179E+07-5.55385E+07 1.19961E+08 2.31556E+07 2.75275E+07
 -1      1331 6.03400E+07 1.41463E+08 5.43890E+07 9.45474E+07-3.53643E+07-3.50731E+07
 -1      1332-1.42982E+06 1.62172E+08-1.64670E+06 5.01831E+07-1.03242E+08-2.85816E+07
 -1      1333-8.78065E+06-2.28986E+07-2.51177E+06 1.43890E+07 2.10305E+07-3.50915E+06
 -1      1334 3.82569E+06-6.18642E+06-6.90933E+06 1.65293E+07 4.78885E+06 4.33015E+06
 -1      1335 4.76706E+07 6.99330E+06 4.73454E+06 2.32377E+07-1.02365E+05 8.61719E+06
 -1      1336 9.00860E+07 1.83217E+07-4.95429E+06 4.27432E+07 2.94432E+06 9.97747E+06
 -1      1337 1.39662E+08 5.96577E+07 5.69512E+07 9.69439E+07-2.89753E+07-3.71447E+07
 -1      1338 7.09505E+07 1.94217E+08 1.24884E+07 1.28246E+08-1.67064E+08-5.68227E+07
 -1      1339-4.28052E+07-3.15559E+07-4.66354E+07 1.88370E+07 5.83343E+07-6.18483E+07
 -1      1340-1.67853E+07-5.72072E+06 1.39607E+06 1.42346E+07 4.95282E+06-1.69606E+07
 -1      1341 1.64043E+06 6.83172E+05 1.65155E+06 7.34749E+06 1.93396E+06-4.66544E+06
 -1      1342 2.98744E+07 2.36639E+06 2.32989E+06 6.86840E+06-1.87469E+06-1.21482E+07
 -1      1343 4.10928E+07-6.33306E+06-1.12334E+07 1.12120E+07-1.99784E+06-9.58060E+06
 -1      1344 6.45259E+07 2.63102E+06 8.75997E+06 1.47120E+07-6.80883E+06-3.13187E+07
 -1      1345 1.01711E+08 1.75394E+07 3.76183E+07 1.43062E+07-1.69871E+07-4.35723E+07
 -1      1346 6.31737E+07-3.41982E+07-4.15869E+07 2.19166E+07 2.55963E+06-5.43730E+07
 -1      1347 1.77343E+08 6.49038E+06 7.70893E+06 5.21874E+07-2.64660E+07-9.34616E+07
 -1      1348 2.32390E+08 6.74718E+07-5.08384E+05 1.30299E+08-5.21875E+07-1.63842E+08
 -1      1349 3.65635E+08 3.18331E+08 4.43542E+08 1.82874E+08-5.62936E+08-6.18322E+08
 -1      1350-1.58646E+08-1.33840E+08-1.06096E+08-1.35010E+08-1.57639E+08-1.70547E+08
 -1      1351-1.71240E+08-1.00963E+07 5.09024E+06-6.04847E+07-9.98182E+06-2.11192E+07
 -1      1352-7.34806E+07-1.29688E+06 2.25431E+06-1.31242E+07-2.59134E+06-4.79906E+04
 -1      1353-2.30544E+07 8.26981E+05 2.01387E+06-5.13091E+06-8.09474E+05 5.11590E+06
 -1      1354 2.81560E+07 7.28530E+05-8.14727E+05-9.67745E+06 2.74293E+06 2.64549E+06
 -1      1355 3.62592E+07 2.20960E+07 2.16098E+07-2.80548E+07 3.32574E+07-3.62701E+07
 -1      1356-7.15133E+06-1.64702E+08 7.24388E+06-5.92709E+07-2.67181E+07-1.07282E+07
 -1      1357-7.77049E+07-7.79551E+07 3.22368E+06-9.57409E+07-4.48044E+06-3.33319E+06
 -1      1358-5.82232E+07-2.89279E+07-2.93508E+06-3.84227E+07 2.98842E+05 4.27481E+06
 -1      1359-1.20821E+07 2.14525E+06 1.95278E+05-1.09198E+07 2.68963E+06 5.54691E+06
 -1      1360 1.63263E+07 3.27310E+07-8.10688E+05-8.13202E+06 5.76708E+06 2.19207E+06
 -1      1361 1.66780E+06 5.85237E+07-2.44273E+06-8.58471E+06 9.81866E+06-2.75882E+06
 -1      1362-1.30360E+06-8.91281E+07 2.92562E+06-1.14166E+07-1.37593E+06-3.55443E+06
 -1      1363-3.28729E+07-7.01583E+07-2.80678E+06-3.39919E+07 2.73688E+06 7.37989E+05
 -1      1364-2.08489E+07-2.23223E+07 5.23815E+05-8.81440E+06 4.35776E+06 6.05770E+06
 -1      1365 1.58971E+07 2.59853E+07 1.21196E+05 1.27082E+07 4.96169E+06 5.78137E+06
 -1      1366 2.72290E+07 7.08357E+07 1.02767E+06 2.58804E+07 4.60784E+06 7.00491E+05
 -1      1367-1.05529E+06 8.93567E+07-3.90234E+06 1.16196E+07-2.75840E+06-3.28861E+06
 -1      1368 3.68414E+05-5.32778E+07 2.68595E+06 2.99317E+05 6.44992E+06-1.82743E+06
 -1      1369-9.60347E+06-3.67394E+07-8.16015E+05 4.73826E+06 4.65237E+06 2.62229E+06
 -1      1370 1.56568E+07 4.15373E+06 2.19093E+05 1.99014E+07 4.32943E+06 6.47253E+06
 -1      1371 5.23869E+07 5.22308E+07-4.37855E+05 4.44078E+07 3.71540E+06 5.40418E+06
 -1      1372 5.05804E+07 1.04342E+08 3.51668E+06 7.58274E+07 1.19416E+06-1.14361E+06
 -1      1373 1.17591E+06 1.25113E+08-4.00794E+06 2.74525E+07-1.42455E+07-5.10661E+06
 -1      1374-2.48502E+06-3.10777E+07 1.15352E+06 1.22305E+07 1.16068E+07-7.45188E+05
 -1      1375 6.07444E+06-1.12617E+07 4.33561E+05 2.77342E+07 3.83279E+06 4.22780E+06
 -1      1376 4.75909E+07 1.47749E+07 7.25939E+04 4.13918E+07 8.84966E+05 5.57931E+06
 -1      1377 9.40690E+07 4.58255E+07 3.82866E+06 7.99093E+07-1.42774E+06 2.67268E+06
 -1      1378 1.04158E+08 1.02353E+08-5.09560E+06 1.54729E+08-7.77219E+06-6.74949E+06
 -1      1379 8.30921E+06 2.13928E+08-1.01040E+07 8.95269E+07-4.53152E+07-1.40650E+07
 -1      1380-2.62020E+07-1.62928E+07-1.52402E+07 1.85091E+07 2.15104E+07-2.21600E+07
 -1      1381 1.88208E+06-9.43264E+05-1.13782E+05 1.30254E+07 9.15345E+05 3.24630E+05
 -1      1382 6.04720E+07-1.58269E+06-3.44077E+06 1.70086E+07-2.18535E+06-3.90909E+06
 -1      1383 1.11462E+08 1.00694E+06-3.52731E+06 2.88281E+07-3.85827E+06-1.25434E+07
 -1      1384 2.28521E+08 1.33712E+07-6.64606E+06 9.15483E+07-1.27655E+07-3.73465E+07
 -1      1385 2.13587E+08 1.73398E+08 1.42740E+08 1.78782E+08-2.06799E+08-2.28186E+08
 -1      1386-1.37912E+08-1.16526E+08-7.36372E+07-1.43412E+08-7.04044E+07-7.90588E+07
 -1      1387-1.96430E+08-5.92727E+07 5.36957E+06-1.38917E+08 1.13274E+07-3.05170E+07
 -1      1388-2.26973E+08-2.48155E+07-5.98848E+06-9.13604E+07-2.56309E+07-1.69777E+07
 -1      1389-1.22423E+08 2.57715E+06-8.96917E+05-3.57737E+07-9.59735E+06-1.80356E+07
 -1      1390-8.99144E+07-6.33743E+05 5.74670E+06-2.11745E+07 3.15111E+06 6.57016E+06
 -1      1391-6.54844E+07-3.82982E+06-2.44150E+06-1.32538E+07-1.65492E+05-3.79993E+06
 -1      1392-3.09373E+07-1.07250E+06 1.65050E+06-7.10228E+06-2.52101E+06 3.79911E+06
 -1      1393-4.76297E+06-3.37798E+06-9.69907E+04-5.53046E+06 1.69945E+06-5.10270E+06
 -1      1394 3.85319E+07 3.57036E+06 2.04912E+06-1.49966E+07 6.00710E+06 1.81767E+05
 -1      1395 3.96898E+07 1.16268E+07-1.90548E+06-2.65027E+07-5.47683E+05-5.90449E+06
 -1      1396 3.25786E+07 1.97330E+07 1.51643E+07-2.96667E+07 1.47788E+07-1.70969E+07
 -1      1397-5.98640E+07-1.76016E+08 2.32000E+06-1.37982E+08-3.06528E+07 1.28256E+07
 -1      1398-1.65002E+08-6.03485E+07-1.34224E+07-1.15946E+08-9.98660E+06 3.48000E+06
 -1      1399-9.12915E+07-1.77382E+07 5.24296E+06-3.90452E+07 3.32156E+06 8.27909E+06
 -1      1400-2.79652E+07-2.12346E+06-1.24154E+06-1.29301E+07-9.03393E+05 4.75144E+06
 -1      1401 2.79919E+07 1.98242E+07 3.04009E+06-1.53001E+07 1.57739E+06 1.24197E+06
 -1      1402 1.46061E+07 4.79159E+07 2.23780E+05-2.62878E+07 5.09196E+06 2.95486E+06
 -1      1403-2.17132E+07-2.19309E+08-3.16699E+06-9.04695E+07-1.90851E+07-2.68397E+07
 -1      1404-5.99308E+07-1.66546E+08-1.30093E+07-1.15140E+08 4.10408E+06-1.12392E+07
 -1      1405-8.89976E+07-8.96590E+07 9.72905E+06-1.17883E+08-8.05067E+06-6.90174E+06
 -1      1406-8.59783E+07-6.03432E+07 5.14077E+06-7.41101E+07-3.90895E+06-1.06442E+06
 -1      1407-7.43570E+07-3.81590E+07-3.96628E+06-4.76822E+07-9.57106E+04-1.87165E+06
 -1      1408-4.32545E+07-1.65726E+07-1.92009E+05-2.96484E+07 2.00082E+05-1.39698E+06
 -1      1409-1.46289E+07 2.60131E+06 7.31967E+05-1.40890E+07-1.33308E+05 8.47771E+05
 -1      1410 5.06061E+06 2.03235E+07-6.98957E+05-9.46926E+06 1.83052E+06-4.56849E+05
 -1      1411 1.90668E+07 3.88228E+07-2.14403E+06-9.90533E+06 3.44133E+06-7.75521E+04
 -1      1412 1.42988E+07 6.44971E+07 2.44011E+06-1.26659E+07 1.69450E+06-1.90660E+06
 -1      1413 5.38668E+06 7.67060E+07-6.85818E+05-1.33708E+07 6.78963E+06-5.47668E+06
 -1      1414 9.89433E+05-1.34978E+08-1.18052E+06-3.56719E+07-1.65100E+07-9.86193E+06
 -1      1415-6.24676E+07-9.27496E+07 5.20177E+06-7.17129E+07-1.30425E+06-3.47290E+06
 -1      1416-4.97011E+07-3.73426E+07-2.36633E+06-2.78621E+07 8.98284E+05 7.58969E+05
 -1      1417 1.97262E+06 1.62396E+07 8.12716E+05 1.91780E+05-4.84364E+05 1.45043E+06
 -1      1418 2.51854E+07 6.33349E+07-1.64021E+06 1.17204E+07-1.54395E+06-7.87916E+05
 -1      1419 2.11461E+06 9.17215E+07 3.71735E+05 3.52180E+06-1.75703E+06-3.61823E+06
 -1      1420-1.31475E+06-1.10420E+08 6.49841E+06-1.90030E+07 5.32356E+06 2.26716E+06
 -1      1421-2.14536E+07-1.11158E+08 4.77794E+06-3.45528E+07 6.51817E+06 3.33000E+06
 -1      1422-4.33071E+07-8.90479E+07-3.75119E+06-4.19745E+07-1.94745E+06-5.13265E+05
 -1      1423-3.97960E+07-5.79966E+07-2.25355E+06-2.48029E+07 3.46862E+05 7.19717E+05
 -1      1424-2.55625E+07-2.73399E+07 1.44174E+06-1.09978E+07 6.60028E+05 1.17779E+06
 -1      1425-2.89578E+06 2.17792E+06 1.14685E+05 2.54088E+06 1.33033E+06-4.48731E+05
 -1      1426 1.99472E+07 3.19200E+07-7.12302E+04 1.57821E+07 1.49982E+06 9.48918E+05
 -1      1427 3.12010E+07 5.96677E+07 2.64078E+05 2.43980E+07 1.57354E+06 4.99546E+04
 -1      1428 3.47253E+07 8.84586E+07 7.19677E+05 3.28605E+07 7.44371E+05-1.58478E+06
 -1      1429 1.95747E+07 1.13093E+08-6.14095E+05 2.59649E+07 3.98441E+06 5.75366E+05
 -1      1430 1.42301E+06 1.14514E+08-4.63994E+06 1.51034E+07-2.04128E+06-2.67477E+06
 -1      1431-5.06219E+06-9.60488E+07-2.98388E+06-8.06922E+06-2.41781E+06-3.53153E+05
 -1      1432-2.61589E+07-6.58927E+07-3.19636E+05-1.74564E+07-8.03287E+05 5.28976E+04
 -1      1433-3.07614E+06-1.11649E+07 1.86056E+05 6.95768E+06-3.51916E+05 1.80955E+06
 -1      1434 4.09198E+07 4.86078E+07-2.44704E+05 3.53061E+07-1.01078E+05 1.35324E+06
 -1      1435 4.72598E+07 1.08543E+08 3.61541E+05 6.22709E+07-2.35222E+06-8.95469E+05
 -1      1436 5.58912E+06 1.43759E+08 3.66625E+06 2.82924E+07-7.35086E+06-1.02715E+06
 -1      1437-1.48023E+06-6.83556E+07 3.40886E+06 1.49525E+06 2.23780E+06-1.61988E+06
 -1      1438-9.27672E+06-6.57006E+07 5.02614E+05 2.63479E+06 2.11012E+06 2.33950E+05
 -1      1439-1.27063E+07-4.59051E+07-5.86428E+05 5.30321E+06 1.68361E+06-2.19100E+05
 -1      1440 4.93426E+05-2.05988E+07 1.52293E+04 1.36324E+07 1.38359E+06-1.27890E+05
 -1      1441 1.92090E+07 5.46972E+06 3.29129E+05 2.47230E+07 7.30150E+05 1.74531E+06
 -1      1442 4.22391E+07 3.38024E+07-1.51414E+05 3.97036E+07 8.53955E+05-1.94742E+05
 -1      1443 6.45903E+07 6.43552E+07-1.62063E+06 5.52493E+07 5.46688E+05 1.10591E+06
 -1      1444 7.18969E+07 9.70688E+07 2.95636E+06 7.06455E+07-5.33215E+05 1.51388E+06
 -1      1445 6.57653E+07 1.31923E+08 4.85066E+06 9.38004E+07-4.57294E+06-1.16363E+06
 -1      1446 3.11744E+07 1.57616E+08-6.31179E+06 7.48285E+07 9.23001E+06 4.62435E+06
 -1      1447 1.11477E+06 1.55263E+08-8.44118E+06 4.26891E+07 1.30530E+06 2.68156E+06
 -1      1448-2.51735E+06-5.05660E+07-4.29969E+05 8.36860E+06 1.30589E+06-1.69003E+06
 -1      1449-1.32301E+06-2.78308E+07 1.09636E+06 1.92675E+07 1.48715E+04 4.40322E+05
 -1      1450 3.88672E+07 1.40721E+07-5.14537E+05 3.77584E+07-3.36382E+05 1.71720E+06
 -1      1451 9.08235E+07 6.78522E+07 3.09895E+06 7.35431E+07 1.73427E+06-2.12382E+05
 -1      1452 8.76467E+07 1.29113E+08-6.94065E+06 1.30301E+08-2.97239E+06-5.50311E+06
 -1      1453-2.82206E+06 1.79662E+08 1.27528E+06 6.34422E+07-2.51371E+07-1.31887E+07
 -1      1454-4.59904E+06-3.98148E+07 2.21600E+05 1.80199E+07 6.69052E+06-2.90787E+06
 -1      1455-7.49606E+05-2.97870E+07-1.60497E+06 2.72241E+07-7.04165E+04-2.03036E+06
 -1      1456 8.16217E+06-1.26753E+07 1.27758E+06 3.42552E+07 2.69338E+06 6.04191E+05
 -1      1457 3.19623E+07 2.54560E+06 1.41414E+05 4.03794E+07 5.83091E+05-2.10600E+06
 -1      1458 5.89803E+07 1.85499E+07-5.28191E+05 5.20715E+07-1.43998E+06 3.22208E+04
 -1      1459 8.78402E+07 3.66863E+07 2.04983E+05 7.41474E+07-6.31558E+05-2.97413E+06
 -1      1460 1.19405E+08 5.95488E+07 5.22935E+06 9.90869E+07-5.87728E+05-4.67473E+06
 -1      1461 1.24864E+08 8.38091E+07-6.92676E+06 1.32411E+08-6.08055E+06-2.36698E+06
 -1      1462 1.19681E+08 1.18088E+08-1.32981E+07 1.90729E+08-1.25164E+07-1.09865E+07
 -1      1463 7.82672E+07 2.15622E+08 1.74758E+07 1.78211E+08 6.95528E+06-1.57619E+07
 -1      1464 2.64220E+07 2.83498E+08 4.15749E+06 1.34886E+08-2.94042E+07-3.58928E+07
 -1      1465-8.65405E+06-2.65541E+07-2.57169E+05 2.23565E+07 4.91270E+06 3.59337E+06
 -1      1466 7.99744E+06-6.65428E+06-2.17306E+06 2.97022E+07 1.90964E+06 3.25036E+06
 -1      1467 7.70135E+07 1.20010E+07 1.03984E+06 4.13717E+07-5.73789E+05 6.55285E+06
 -1      1468 1.40056E+08 2.67874E+07-7.03983E+06 7.88469E+07 4.56442E+06 1.12929E+07
 -1      1469 2.17330E+08 7.80961E+07 1.80909E+07 1.79378E+08-1.37077E+07 5.57217E+06
 -1      1470 7.68128E+07 2.27350E+08-3.14483E+06 1.92696E+08-4.36969E+07 1.78360E+07
 -1      1471-2.25590E+07-1.33567E+07-1.04678E+07 2.02541E+07 9.46752E+06-1.02175E+07
 -1      1472-1.39985E+07-5.64613E+06 1.39145E+06 2.23405E+07-1.37057E+06-5.75601E+06
 -1      1473 1.44945E+06-2.15382E+06-2.07010E+06 1.93962E+07 3.70836E+06 1.91791E+05
 -1      1474 4.73255E+07 2.85813E+06-1.43356E+04 1.74617E+07-1.87608E+05-8.10325E+06
 -1      1475 7.85960E+07 8.87646E+05-3.16615E+06 2.36182E+07-3.51652E+06-5.19157E+05
 -1      1476 1.15597E+08 4.57225E+06 3.50831E+06 3.32096E+07-7.93688E+05-8.65111E+06
 -1      1477 1.37028E+08 2.27315E+05-7.90562E+06 4.43889E+07 3.68892E+06 3.09633E+06
 -1      1478 1.69474E+08-4.90091E+06 8.50446E+05 6.29033E+07-1.28955E+07-2.70112E+07
 -1      1479 3.00858E+08 3.18169E+07 8.61346E+06 1.36347E+08-3.37771E+07-2.66614E+07
 -1      1480 2.62715E+08 7.61756E+07-8.02499E+06 1.94305E+08 1.55964E+07-4.33956E+07
 -1      1481 1.88051E+08 1.53475E+08 9.93520E+07 1.94767E+08-9.14888E+07-1.05798E+08
 -3
    1PSTEP                        23           1           1          
    1PGM                1.000000E+00                                  
    1PGK                1.575735E+12                                  
    1PHID                         -1                                  
    1PSUBC                         0                                  
    1PMODE                         6                                  
  100CL  106 199784.4837        1481                     2    6MODAL      1
 -4  TOSTRAIN    6    1
 -5  EXX         1    4    1    1
 -5  EYY         1    4    2    2
 -5  EZZ         1    4    3    3
 -5  EXY         1    4    1    2
 -5  EYZ         1    4    2    3
 -5  EZX         1    4    3    1
 -1         1 4.98038E+02 3.37011E+02 1.40864E+01 1.07981E+03-5.30104E+02-5.95267E+02
 -1         2 1.06669E+03 3.39760E+01-4.52742E+02 1.04597E+03 8.52885E+01-2.29775E+02
 -1         3 1.28440E+03-2.37727E+02-3.79484E+02 6.87890E+02-1.92985E+02-1.27832E+02
 -1         4 7.22905E+02-2.18276E+02-1.92118E+02 2.69355E+02-7.22624E+01-1.35797E+02
 -1         5 5.37330E+02-1.34901E+02-1.82942E+02 1.59432E+02 2.37260E+01 4.94694E+01
 -1         6 3.74873E+02-8.93496E+01-9.98029E+01 9.97935E+01-1.24606E+00-2.86112E+01
 -1         7 1.82936E+02-4.19283E+01-6.24309E+01 5.34760E+01-1.89817E+01 2.86050E+01
 -1         8 2.22940E+01 1.18658E+01-1.28381E+01 4.16411E+01 1.27958E+01-3.84204E+01
 -1         9-2.17403E+02 4.58373E+01 5.72913E+01 1.12915E+02 4.52299E+01 1.36860E+00
 -1        10-2.17458E+02-6.15959E+00 9.57301E+01 1.99549E+02-4.12373E+00-4.44573E+01
 -1        11-1.34161E+02-3.74411E+01-3.04162E+00 2.23372E+02 1.11276E+02-1.28730E+02
 -1        12 6.60526E+01 9.40613E+02-4.02156E+02 1.03893E+03-2.30797E+02 9.65694E+01
 -1        13 8.49094E+02 6.11157E+01-2.92210E+02 8.73008E+02-7.51932E+01 2.62023E+01
 -1        14 5.16429E+02-3.73844E+01-2.10419E+02 2.93987E+02 2.50094E+01 6.23366E+01
 -1        15 1.58959E+02-3.56144E+01-4.22547E+01 9.73561E+01-6.80202E+00 3.57756E+01
 -1        16-1.27000E+02-6.55014E+01 6.08731E+01 1.15200E+02 1.18768E+01 9.35130E+00
 -1        17-6.62931E+00-2.57433E+02 1.01661E+02 1.97931E+02 3.83395E+01 2.22484E+01
 -1        18-2.38707E+02 1.24907E+03-3.78349E+02 6.81182E+02-1.43699E+02-2.02087E+02
 -1        19 5.67958E+01 8.59547E+02-2.96496E+02 8.66937E+02 3.09013E+01-8.46247E+01
 -1        20 3.91866E+02 3.96846E+02-3.51488E+02 8.87587E+02-6.06168E+01-5.19660E+01
 -1        21 4.14833E+02 2.21816E+02-2.71240E+02 5.58006E+02-2.94321E+01-8.01445E+00
 -1        22 3.68012E+02 9.54615E+01-1.61989E+02 3.59019E+02-7.20644E-01-1.40924E+01
 -1        23 2.26826E+02 2.59269E+01-9.74092E+01 2.23235E+02 1.50650E+00-1.05184E+01
 -1        24 9.15426E+01-3.81909E+01-2.41159E+01 1.06082E+02-1.00373E+00 6.38322E+00
 -1        25 2.55442E+00-1.12366E+02 4.59206E+01 7.12980E+01 1.37827E+01-3.43980E+00
 -1        26-5.17453E+01-2.00497E+02 1.07959E+02 7.45813E+01 2.59112E+01-5.83922E-01
 -1        27 2.61389E+01-3.51825E+02 1.15428E+02 9.53667E+01 1.27586E+01-1.43556E+01
 -1        28 9.35233E+01-4.43469E+02 1.39246E+02 1.00674E+02 5.11219E+01-4.12362E+01
 -1        29-2.30080E+02 7.93671E+02-2.13742E+02 2.68588E+02-1.24311E+02-7.42546E+01
 -1        30 2.23260E+02 4.51266E+02-2.86251E+02 5.39956E+02-9.82020E+00-2.61489E+01
 -1        31 2.26956E+02 1.33904E+02-1.29446E+02 2.09785E+02 6.76355E+00 5.71459E+00
 -1        32 1.64825E+01-9.09393E+01 2.52159E+01-1.44399E+00-3.64697E+00 1.09209E+01
 -1        33-4.65347E+01-3.33778E+02 1.55447E+02-8.82478E+01-1.16250E+01-5.93254E+00
 -1        34 1.39244E+02-5.35443E+02 1.52367E+02-2.65171E+01-1.32294E+01-2.72431E+01
 -1        35-1.63431E+02 6.58067E+02-2.22260E+02 1.43081E+02 4.00833E+01 1.70704E+01
 -1        36-4.90171E+01 6.26406E+02-2.46525E+02 2.60162E+02 4.90780E+01 2.50729E+01
 -1        37 1.01902E+02 4.46303E+02-1.95931E+02 3.16043E+02-1.46632E+01-3.86458E+00
 -1        38 1.34859E+02 2.71899E+02-1.47814E+02 1.86752E+02 2.61167E+00 5.41904E+00
 -1        39 1.07712E+02 1.21095E+02-9.56142E+01 8.28068E+01 4.96962E+00 8.86803E+00
 -1        40 2.08101E+01-1.73919E+01-1.85699E+00-1.91313E+01 1.00166E+01-3.37868E+00
 -1        41-6.48800E+01-1.55028E+02 8.58473E+01-1.18830E+02 1.12928E+01 7.14480E+00
 -1        42-8.48241E+01-2.99162E+02 1.48113E+02-1.83703E+02 1.18478E+01 3.76129E-01
 -1        43-5.73843E+01-4.61965E+02 1.98658E+02-2.47420E+02 5.60468E+00-1.19324E+01
 -1        44 7.01132E+01-6.34021E+02 2.22123E+02-1.95500E+02 3.00002E+01 4.33217E+00
 -1        45 1.72598E+02-6.78908E+02 2.18248E+02-1.13720E+02-1.53696E+01-2.01395E+01
 -1        46-1.33335E+02 5.51740E+02-1.48983E+02 6.07565E+01-1.82047E+01-2.65903E+00
 -1        47 4.48205E+01 3.43992E+02-1.49734E+02 1.31436E+02-6.04828E+00 3.98288E-01
 -1        48 1.21792E-02 6.09156E+01-2.45502E+01-5.23872E+01-2.64972E+00 1.36248E+01
 -1        49-1.61048E+02-2.18934E+02 1.48897E+02-2.65834E+02-7.61055E-01 1.01891E+01
 -1        50-9.86272E+01-5.60052E+02 2.54489E+02-4.68864E+02-1.77108E+01-6.74235E+00
 -1        51 2.09941E+02-8.30398E+02 2.24419E+02-2.13025E+02-5.53476E+01-7.73384E+00
 -1        52-9.82639E+01 4.05268E+02-1.35076E+02-1.12584E+01 1.68493E+01-1.21968E+01
 -1        53-5.28160E+01 3.72023E+02-1.26449E+02-1.98385E+01 1.58880E+01 1.76150E+00
 -1        54-1.83152E+00 2.48136E+02-9.30869E+01-3.99300E+01 1.26766E+01-1.64969E+00
 -1        55-3.68048E+01 1.22007E+02-3.32043E+01-1.02644E+02 1.04176E+01-9.62936E-01
 -1        56-1.03443E+02 5.58122E-03 3.87112E+01-1.86150E+02 5.49760E+00 1.31411E+01
 -1        57-1.93040E+02-1.29517E+02 1.26135E+02-2.98945E+02 6.42978E+00-1.46630E+00
 -1        58-2.76616E+02-2.74845E+02 2.21914E+02-4.15995E+02 4.11624E+00 8.32687E+00
 -1        59-2.58175E+02-4.47705E+02 2.60906E+02-5.31919E+02-4.01479E+00 1.13986E+01
 -1        60-1.61581E+02-6.59708E+02 2.97071E+02-7.06262E+02-3.44315E+01-8.76146E+00
 -1        61 6.58292E+01-8.86206E+02 3.48078E+02-5.63414E+02 6.94966E+01 3.48186E+01
 -1        62 2.35268E+02-9.25382E+02 3.07218E+02-3.21424E+02 9.82810E+00 2.01906E+01
 -1        63-6.91854E+01 2.92593E+02-8.49021E+01-6.30106E+01 9.83262E+00-1.27249E+01
 -1        64-3.62508E+01 1.63337E+02-5.44672E+01-1.45073E+02 1.11973E-01 3.31537E+00
 -1        65-2.06300E+02-1.96078E+01 9.02207E+01-2.84298E+02-2.53276E+00 1.29295E+01
 -1        66-4.17395E+02-2.44435E+02 2.43119E+02-5.53737E+02 1.30580E+01-1.59911E+00
 -1        67-3.14344E+02-6.26560E+02 3.97843E+02-9.81091E+02-2.23803E+01-4.14352E+01
 -1        68 3.14614E+02-1.05938E+03 2.83764E+02-4.77682E+02-1.89267E+02-9.93028E+01
 -1        69-3.81591E+01 2.26995E+02-7.44557E+01-1.35679E+02 5.03757E+01-2.18946E+01
 -1        70-4.72950E+01 1.71339E+02-4.08546E+01-2.04981E+02-5.30194E-01-1.52874E+01
 -1        71-6.67854E+01 9.01082E+01-1.49485E+01-2.57921E+02 2.02795E+01 4.54920E+00
 -1        72-1.83588E+02 3.79026E+01 5.60047E+01-3.04033E+02 4.39034E+00-1.58569E+01
 -1        73-3.17260E+02-1.28431E+01 1.30804E+02-3.92068E+02-1.08422E+01 2.42604E-01
 -1        74-4.55945E+02-7.07860E+01 2.03897E+02-5.58286E+02-4.75526E+00-2.23934E+01
 -1        75-5.95692E+02-1.45006E+02 2.63987E+02-7.46066E+02-4.42525E+00-3.51980E+01
 -1        76-6.07866E+02-2.98745E+02 3.84443E+02-9.96976E+02-4.57830E+01-1.78220E+01
 -1        77-5.31410E+02-5.19416E+02 4.69843E+02-1.43608E+03-9.42411E+01-8.27217E+01
 -1        78-7.64705E+01-1.11067E+03 3.81253E+02-1.34183E+03 5.23692E+01-1.18678E+02
 -1        79 3.18362E+02-1.61727E+03 4.86001E+02-1.01561E+03-2.21397E+02-2.70252E+02
 -1        80 6.74642E+00 1.41523E+02-5.64772E+01-1.68332E+02 3.69898E+01 2.70560E+01
 -1        81-6.15829E+01 4.87359E+01 1.49950E+01-2.23640E+02 1.43785E+01 2.44733E+01
 -1        82-4.31542E+02 5.79641E+01 1.40496E+02-3.11504E+02-4.32030E+00 4.93391E+01
 -1        83-7.91336E+02 6.15130E+01 3.16212E+02-5.93671E+02 3.43674E+01 8.50285E+01
 -1        84-1.11998E+03-7.16376E+01 3.80167E+02-1.35061E+03-1.03211E+02 4.19552E+01
 -1        85-8.25609E+01-1.21602E+03 5.19473E+02-1.45089E+03-3.29012E+02 1.34295E+02
 -1        86 9.34597E+01 2.41717E+01 2.41993E+00-1.52501E+02 7.12849E+01-7.69319E+01
 -1        87 7.53365E+01 1.24479E+01-4.05409E+01-1.68211E+02-1.03196E+01-4.33394E+01
 -1        88-1.54832E+01 1.16473E+01 1.10169E+01-1.46042E+02 2.79218E+01 1.44408E+00
 -1        89-2.73701E+02 6.11118E+01 8.27397E+01-1.31477E+02-1.41258E+00-6.10127E+01
 -1        90-4.66082E+02 1.19016E+02 1.49539E+02-1.77831E+02-2.64773E+01-3.90895E+00
 -1        91-6.66674E+02 1.69278E+02 1.77289E+02-2.50049E+02-5.97601E+00-6.51378E+01
 -1        92-8.18696E+02 2.11336E+02 2.72572E+02-3.34222E+02 2.77754E+01 2.33136E+01
 -1        93-1.00358E+03 3.09363E+02 2.66058E+02-4.73625E+02-9.70958E+01-2.03378E+02
 -1        94-1.70316E+03 3.22559E+02 4.97267E+02-1.02661E+03-2.54322E+02-2.00745E+02
 -1        95-1.43313E+03-2.86032E+01 6.05378E+02-1.46300E+03 1.17432E+02-3.26743E+02
 -1        96-6.89762E+02-4.29426E+02-2.19097E+01-1.46648E+03-6.88857E+02-7.96597E+02
 -1        97 5.38022E+02 3.51249E+02 1.42355E+02 1.01654E+03-1.18693E+03-1.28412E+03
 -1        98 9.99052E+02-2.14269E+02-3.28615E+02 4.55414E+02-7.51572E+01-1.59015E+02
 -1        99 4.33816E+02-1.09685E+02-1.36424E+02 9.88176E+01-1.95113E+01-3.61341E-01
 -1       100 1.40293E+02-3.95195E+01-4.84561E+01 3.86328E+01-6.09486E+00 3.85197E+01
 -1       101-1.65765E+02 4.07472E+01 5.23670E+01 7.28655E+01 2.06527E+01 1.99190E+01
 -1       102-1.41303E+02-3.46625E+01-3.10022E+01 2.11236E+02 2.50408E+02-2.73093E+02
 -1       103-2.17276E+02 9.68986E+02-3.25663E+02 4.46275E+02-2.01171E+02-8.07770E+01
 -1       104 3.34001E+02 3.35885E+02-2.75344E+02 7.20873E+02-3.37351E+01-2.50970E+01
 -1       105 2.90009E+02 6.94331E+01-1.26278E+02 2.89300E+02 2.25010E+00 3.21868E+01
 -1       106 7.49263E+01-3.21974E+01-1.75153E+01 8.22194E+01 2.02514E+01 4.17649E+01
 -1       107-4.34628E+01-1.66980E+02 8.55690E+01 6.12293E+01 4.34227E+01 1.65050E+01
 -1       108 8.25581E+01-3.45534E+02 1.13508E+02 6.46378E+01 7.39287E+01-2.07723E+01
 -1       109-1.34312E+02 5.26955E+02-1.66156E+02 8.59600E+01-1.03600E+01-2.67628E+01
 -1       110 7.31922E+01 3.53929E+02-1.53188E+02 2.55939E+02 2.06071E+01 5.55662E+00
 -1       111 8.67373E+01 9.78312E+01-7.41868E+01 6.63672E+01 3.28113E+01 4.56109E+01
 -1       112-5.05134E+01-1.26472E+02 6.82699E+01-9.56850E+01 3.73586E+01 4.35303E+01
 -1       113-4.18074E+01-3.70140E+02 1.55473E+02-1.94864E+02 3.46943E+01 5.27429E+00
 -1       114 1.46956E+02-5.33793E+02 1.68393E+02-8.74884E+01-2.07691E+01-2.47613E+01
 -1       115-8.54950E+01 3.18430E+02-1.02945E+02-2.25368E+00 4.85641E+01-1.37595E+01
 -1       116-5.36490E+00 1.98952E+02-7.15293E+01-3.56763E+01 3.50296E+01 1.97443E+01
 -1       117-8.48963E+01 1.71475E+00 3.13402E+01-1.49846E+02 3.25980E+01 4.87343E+01
 -1       118-2.22852E+02-2.21677E+02 1.74887E+02-3.34365E+02 2.79748E+01 4.06903E+01
 -1       119-1.19882E+02-5.24678E+02 2.34481E+02-5.70936E+02 8.99131E+00-8.61070E+00
 -1       120 1.92551E+02-7.40626E+02 2.31582E+02-2.06701E+02-1.07260E+02-3.84498E+01
 -1       121-3.46692E+01 1.80617E+02-6.20653E+01-9.20884E+01 8.73923E+01-5.61083E+00
 -1       122-5.35665E+01 7.69641E+01-1.10940E+01-2.08822E+02 2.88586E+01 3.18329E+01
 -1       123-2.55492E+02-8.40667E+00 1.02293E+02-3.11656E+02 6.66327E+00 4.20089E+01
 -1       124-4.71564E+02-1.08319E+02 2.07893E+02-6.01670E+02-1.07500E+01 2.01237E+01
 -1       125-4.52504E+02-4.38918E+02 3.70110E+02-1.16502E+03-5.85200E+01-5.08197E+01
 -1       126 2.86833E+02-1.26136E+03 4.25473E+02-6.74085E+02-3.41197E+02-1.05901E+02
 -1       127 1.02193E+02 2.75820E+01 1.96571E+01-1.39362E+02 1.61961E+02-1.66852E+02
 -1       128-1.28121E+01 8.46110E+00 2.21559E+00-9.80740E+01 6.89201E+00 2.44428E+00
 -1       129-3.63991E+02 1.03244E+02 1.17234E+02-1.28065E+02-1.64544E+01-2.94331E+01
 -1       130-6.59810E+02 1.71852E+02 2.05992E+02-2.17058E+02-2.90505E+01-9.44447E+01
 -1       131-1.33316E+03 2.86787E+02 4.37505E+02-6.89305E+02-9.61167E+01-2.81197E+02
 -1       132-7.35693E+02-4.33101E+02-2.02259E+02-1.34612E+03-1.55707E+03-1.71811E+03
 -1       133 6.68107E+02 4.48444E+02 1.09055E+03 1.06678E+03-3.28249E+03-3.53509E+03
 -1       134 9.37173E+02 2.52802E+01-3.70792E+02 7.27717E+02-3.03882E+02-8.66362E+02
 -1       135 7.59042E+02-2.02559E+02-1.91953E+02 2.51679E+02-1.58733E+02-4.46557E+02
 -1       136 3.48468E+02-1.71456E+02-2.11924E+02 8.62053E+01 1.83887E+01-2.12356E+02
 -1       137 3.35180E+02-7.87436E+01 3.76830E+01 4.15768E+01-9.68762E+01-1.27431E+02
 -1       138 1.98695E+02-5.54276E+01-2.67476E+01 4.52781E+01-3.03455E+01-7.98414E+01
 -1       139 1.02498E+02-3.58796E+01-7.83405E+01 2.60659E+01 5.05096E+00 3.67526E+01
 -1       140 3.10128E+01 1.16372E+01 9.90062E+00 9.98935E+00 3.28325E-01-4.62766E+00
 -1       141-1.25032E+02 4.13283E+01 3.75490E+01 3.76606E+01 4.06630E+01-1.21790E+01
 -1       142-1.94910E+02-3.91274E-01 8.36132E+01 1.43479E+02 7.94162E+01-1.51841E+02
 -1       143-1.70771E+02-4.83098E+01-2.28979E+02 2.22597E+02 6.78659E+02-7.50955E+02
 -1       144 6.26585E+01 7.87570E+02-2.89981E+02 7.18575E+02-8.83223E+02-3.24016E+02
 -1       145 4.73810E+02 2.27899E+01 5.57454E+00 4.62594E+02-1.73714E+02-1.94846E+02
 -1       146 3.34632E+02-2.00711E+01-1.39861E+02 1.55619E+02 2.46914E+01 9.35282E+01
 -1       147 9.35196E+01-3.18103E+01-6.94283E+00 5.25923E+01 4.34652E+00 7.85939E+01
 -1       148-6.46516E+01-4.11705E+01-4.96207E+00 5.84307E+01 5.20548E+01-4.03070E-01
 -1       149-8.74680E+00-1.90432E+02 6.09378E+01 1.42750E+02 1.83996E+02-7.29655E+01
 -1       150-2.08398E+02 7.32338E+02-2.04004E+02 2.42770E+02-4.99421E+02-1.67946E+02
 -1       151 2.10870E+01 4.92227E+02-8.69185E+00 4.51135E+02-1.93585E+02-1.99642E+02
 -1       152 2.70651E+02 2.69025E+02-4.02751E+02 5.59335E+02 1.56427E+02 1.82329E+02
 -1       153 2.44972E+02 1.39607E+02-1.79333E+02 3.58288E+02 2.30512E+01 9.86597E+01
 -1       154 2.12017E+02 4.82489E+01-6.99502E+01 2.22330E+02-1.95778E+01 4.85224E+01
 -1       155 1.37813E+02 1.06025E+01-4.46483E+01 1.33212E+02 1.36302E+01 4.20992E+01
 -1       156 5.63667E+01-2.53826E+01-3.06354E+01 5.98133E+01 5.67451E+01 8.56810E+01
 -1       157 9.08632E+00-7.24506E+01 2.91597E+01 4.63004E+01 5.11287E+01 5.91023E+01
 -1       158-3.61186E+01-1.29650E+02 1.04461E+02 4.81439E+01 2.41961E+01 6.90513E+01
 -1       159 2.18344E+01-2.09589E+02 3.79966E+01 4.37232E+01 9.92268E+01-3.05314E+01
 -1       160 7.20450E+01-2.58184E+02 6.44642E+01 3.43957E+01 1.42835E+02-4.34756E+01
 -1       161-1.82390E+02 3.95000E+02-2.18126E+02 9.10782E+01-2.30260E+02 3.04848E+01
 -1       162 1.41611E+02 2.70518E+02-1.92645E+02 3.44830E+02 8.10046E+01 3.78637E+01
 -1       163 1.34147E+02 7.26672E+01-7.93397E+01 1.27615E+02 3.94264E+01 8.61335E+01
 -1       164 1.08679E+01-5.59631E+01 1.65335E+01 2.95100E-01 4.30964E+01 8.49446E+01
 -1       165-2.68650E+01-2.06924E+02 1.01226E+02-5.02772E+01 2.74217E+01 3.76610E+01
 -1       166 1.00612E+02-2.97505E+02 1.11911E+02-1.53943E+01-2.21943E+00-4.00744E+00
 -1       167-9.84055E+01 4.04094E+02 1.07417E+00 3.08137E+01-1.31963E+02-1.17244E+02
 -1       168-3.00912E+01 3.99402E+02-1.56746E+02 1.37076E+02 6.93615E+01 2.60997E+01
 -1       169 4.99763E+01 2.60615E+02-9.35853E+01 1.98277E+02 2.37978E+01-8.90533E+00
 -1       170 7.24203E+01 1.62123E+02-9.04051E+01 1.12668E+02 6.24380E+01 5.32997E+01
 -1       171 6.78316E+01 7.64712E+01-4.70920E+01 4.92009E+01 6.03629E+01 8.16568E+01
 -1       172 1.37762E+01-1.13944E+01-1.11710E-01-1.24179E+01 6.43021E+01 6.94106E+01
 -1       173-3.74828E+01-9.78027E+01 4.98505E+01-7.25698E+01 6.21016E+01 7.52632E+01
 -1       174-4.62343E+01-1.81168E+02 8.82015E+01-1.12874E+02 7.03301E+01 5.43414E+01
 -1       175-2.89067E+01-2.76309E+02 1.28663E+02-1.44197E+02 8.31869E+01 2.93658E+01
 -1       176 5.16354E+01-3.90288E+02 1.16657E+02-1.12688E+02 4.23965E+01 4.40792E+00
 -1       177 1.18571E+02-3.99560E+02 1.15893E+02-6.65227E+01-1.78286E+01-5.12014E+01
 -1       178-8.23356E+01 2.93284E+02-4.32719E+01 2.68679E+01-4.37441E+01-4.76831E+01
 -1       179 1.96718E+01 2.08334E+02-7.01803E+01 7.80397E+01 3.26554E+01 1.25843E+01
 -1       180-7.53853E-01 3.83765E+01-1.33047E+01-3.25447E+01 5.17347E+01 8.65268E+01
 -1       181-9.80457E+01-1.32898E+02 8.71724E+01-1.60764E+02 5.08929E+01 7.95772E+01
 -1       182-5.14189E+01-3.38172E+02 1.27864E+02-2.85470E+02 2.60831E+01-1.52095E+01
 -1       183 1.29949E+02-4.47301E+02 7.51686E+01-9.27580E+01-2.00874E+02-7.14236E+01
 -1       184-6.97476E+01 2.38459E+02-7.23419E+01 7.92097E+00 9.57436E+01-2.91283E+01
 -1       185-4.14833E+01 2.29742E+02-6.22390E+01-1.01985E+01 5.57357E+01 1.04982E+01
 -1       186-6.45970E+00 1.47798E+02-6.32500E+01-3.09221E+01 7.63413E+01 4.95583E+01
 -1       187-2.61747E+01 7.37991E+01-1.89347E+01-6.11363E+01 6.32060E+01 5.65039E+01
 -1       188-6.55862E+01 2.79435E+00 2.46402E+01-1.13269E+02 5.55538E+01 8.24729E+01
 -1       189-1.16767E+02-7.87245E+01 7.39733E+01-1.80838E+02 5.76979E+01 6.85463E+01
 -1       190-1.71776E+02-1.71031E+02 1.21507E+02-2.51404E+02 5.17991E+01 7.27590E+01
 -1       191-1.45385E+02-2.68666E+02 1.59937E+02-3.22057E+02 5.66216E+01 4.86768E+01
 -1       192-8.43614E+01-3.88344E+02 1.49163E+02-4.40026E+02 4.90518E+00-3.78849E+01
 -1       193 3.79630E+01-5.61822E+02 2.22609E+02-3.05708E+02 4.77478E+01 2.31096E+01
 -1       194 1.42478E+02-5.66462E+02 1.48261E+01-9.80964E+01-3.29939E+02-1.57600E+02
 -1       195-5.11386E+01 1.64910E+02-6.58880E+01-2.53609E+01 8.33956E+01 8.01011E+00
 -1       196-2.42759E+01 1.04808E+02-3.76105E+01-9.19242E+01 3.04508E+01 5.86450E+01
 -1       197-1.25755E+02-9.81979E+00 5.31804E+01-1.73866E+02 4.11743E+01 9.29176E+01
 -1       198-2.49127E+02-1.37892E+02 1.49058E+02-3.36644E+02 3.54639E+01 7.97808E+01
 -1       199-1.99798E+02-3.77431E+02 2.69609E+02-6.19550E+02 8.73021E+01 2.36884E+01
 -1       200 2.45167E+02-5.37174E+02 2.91123E+02-1.75087E+02-4.37981E+02 3.96200E+01
 -1       201-2.95134E+01 1.38478E+02-3.14636E+01-5.41863E+01 1.61048E+02-1.46537E+01
 -1       202-3.47321E+01 1.03820E+02-5.24803E+00-1.11811E+02 7.05487E+01-8.92276E+00
 -1       203-3.85523E+01 6.08272E+01-3.56042E+01-1.61457E+02 1.43143E+01 7.77091E+01
 -1       204-1.17412E+02 2.67913E+01 3.44785E+01-1.87698E+02 3.07963E+01 5.57333E+01
 -1       205-1.91767E+02-5.04085E+00 9.70710E+01-2.34085E+02 3.78270E+01 9.40475E+01
 -1       206-2.75799E+02-3.72867E+01 1.03373E+02-3.39067E+02-1.18483E+01 3.51416E+01
 -1       207-3.47337E+02-7.70885E+01 1.26498E+02-4.61901E+02-4.59553E+01 2.82587E+01
 -1       208-3.61544E+02-1.87846E+02 2.55006E+02-6.33412E+02 8.92256E+00 1.07716E+02
 -1       209-3.65744E+02-3.50347E+02 5.34030E+02-9.03238E+02 1.74348E+02 2.07266E+02
 -1       210-3.23620E+01-6.43169E+02 1.24460E+01-7.11886E+02-2.66273E+02-2.64080E+02
 -1       211 2.72806E+02-9.59022E+02 2.74439E+02-3.77849E+02-7.77351E+02-2.15203E+02
 -1       212 9.79845E+00 1.16099E+02-3.74025E+01-1.08341E+02 1.58347E+02-2.64219E+01
 -1       213-4.40735E+01 3.13118E+01 3.67548E+01-1.24456E+02 3.60572E+01 3.26035E+01
 -1       214-2.61099E+02 4.51773E+01 6.21845E+01-1.74966E+02-7.70749E-01 6.48824E+01
 -1       215-5.07901E+02 3.24424E+01 2.07697E+02-3.21831E+02 2.21690E+01 7.51245E+01
 -1       216-6.29481E+02-2.70936E+01-6.71563E+00-7.29931E+02-2.18167E+02-2.79678E+02
 -1       217-7.68994E+01-1.00503E+03 3.63286E+02-9.65617E+02-1.25790E+03-4.27841E+02
 -1       218 1.23010E+02 3.83089E+01 1.51849E+02-1.41832E+02 4.39223E+02-4.65681E+02
 -1       219 9.16139E+01 8.30440E+00-4.52809E+01-1.07179E+02 3.72918E+01-1.27703E+02
 -1       220-5.80420E+00 1.40343E+00-5.88786E+00-5.53223E+01 1.45615E+01-3.51280E+01
 -1       221-1.67997E+02 3.91225E+01 3.93973E+01-5.17150E+01-1.41153E+01-9.14688E+01
 -1       222-2.70656E+02 8.64335E+01 1.23330E+02-8.44197E+01-1.50425E+01-7.21363E+01
 -1       223-3.60802E+02 1.05230E+02 5.90821E+01-1.10773E+02-5.12665E+01-2.35811E+02
 -1       224-5.07451E+02 1.26311E+02-2.48719E+01-1.07717E+02-1.27903E+02-3.28074E+02
 -1       225-4.96432E+02 2.36721E+02 2.92353E+02-1.65019E+02 1.92725E+01-4.09397E+02
 -1       226-1.01980E+03 2.66612E+02 2.57437E+02-3.92940E+02-1.99273E+02-7.03711E+02
 -1       227-1.25671E+03-1.49709E+01 4.96880E+02-9.81078E+02-3.92941E+02-1.23363E+03
 -1       228-8.95942E+02-5.39772E+02-1.48254E+03-1.37693E+03-4.23857E+03-4.65560E+03
 -1       229 2.56630E+03 2.16334E+03 1.26760E+03 2.87579E+03-5.67839E+03-6.08833E+03
 -1       230 2.90230E+02-3.74942E+02 9.92475E+01-1.23326E+02-1.01495E+02-4.82653E+02
 -1       231 1.76048E+02 4.86814E+01 1.42863E+02 2.92037E+01-2.31733E+02-2.45408E+02
 -1       232 8.08947E+01-6.48006E+01-8.78618E+01 9.53848E+00 4.74616E+01 4.04355E+01
 -1       233-3.75124E+01 7.78541E+01-1.40525E+01-3.55272E+01 2.57398E+01-7.60545E+00
 -1       234-5.77712E+02-3.92932E+02-2.65387E+02 5.97980E+02 1.17177E+03-1.28679E+03
 -1       235-4.08105E+02 2.91994E+02 7.15788E+01-1.26651E+02-5.43517E+02-1.14847E+02
 -1       236 3.47373E+02 3.28011E+02-5.69379E+02 5.11623E+02 2.38404E+02 2.82960E+02
 -1       237 1.31007E+02 6.53732E+00-4.84151E+00 1.40404E+02-1.48415E+01 5.51643E+01
 -1       238 4.72391E+01-5.62306E+00-4.97211E+01 4.33766E+01 6.89463E+01 1.08470E+02
 -1       239-5.82538E+01-1.17443E+02 1.31028E+02 6.04803E+01 2.07065E+01 9.89910E+01
 -1       240 1.00229E+02-1.32373E+02-8.79222E+00-3.56888E+01 1.51061E+02-4.24352E+01
 -1       241 4.06300E+01 2.29288E+02 1.01471E+02 1.44767E+01-2.51052E+02-2.55315E+02
 -1       242 6.97782E+00 1.67798E+02-2.67229E+01 1.23874E+02 2.56546E+01-2.97413E+00
 -1       243 4.26436E+01 4.82998E+01-2.71647E+01 2.88210E+01 6.97078E+01 9.68491E+01
 -1       244-2.48652E+01-6.52782E+01 3.32324E+01-5.00548E+01 8.02492E+01 9.31665E+01
 -1       245-2.37306E+01-1.92376E+02 1.05557E+02-1.05769E+02 1.05179E+02 3.99849E+01
 -1       246 8.62876E+01-2.61104E+02 6.98536E+01-3.47897E+01 1.04855E+01-6.46369E+01
 -1       247-5.61852E+01 1.55335E+02-4.37719E+01-1.48552E+00 1.43566E+02-3.20306E+01
 -1       248-3.16529E-01 1.05034E+02-5.82711E+01-1.45095E+01 9.81250E+01 6.41614E+01
 -1       249-4.46120E+01 1.15392E+00 1.72957E+01-7.62526E+01 7.05902E+01 1.03595E+02
 -1       250-1.12204E+02-1.11427E+02 7.72629E+01-1.64782E+02 5.88432E+01 8.56709E+01
 -1       251-2.36466E+01-2.52855E+02 5.45480E+01-2.84651E+02-1.67900E+00-3.57815E+01
 -1       252-4.03437E+01-3.26919E+02-1.21208E+02-5.39583E+01-5.20842E+02-3.35214E+02
 -1       253-5.16031E+01 6.82017E+01 1.40136E+01 1.62426E+00 1.82678E+02-1.13488E+01
 -1       254-5.15441E+00 6.10557E+01-6.52719E+01-1.26321E+02 1.36243E+01 1.02314E+02
 -1       255-1.39299E+02-1.49169E+01 9.82300E+01-1.63449E+02 4.61032E+01 1.18278E+02
 -1       256-2.20161E+02-2.12569E+01 3.42764E+01-2.98714E+02-4.35486E+01 2.47126E+01
 -1       257-4.57692E+02-4.17138E+02 7.43744E+02-7.80084E+02 2.67981E+02 3.29259E+02
 -1       258 5.23865E+02-4.03811E+02-6.83231E+01 1.16991E+02-8.69177E+02-1.52817E+02
 -1       259 3.71485E+02 2.57115E+02 1.87310E+02-3.78125E+02 7.59736E+02-8.00257E+02
 -1       260-3.05954E+01-3.39390E+01 1.36507E+01 2.11032E+00-1.79444E+00-4.50129E+01
 -1       261-1.90728E+02 9.66442E+01 1.13535E+02-4.29282E+01 1.82028E+01-8.57563E+01
 -1       262-2.76336E+02-3.84253E+01-1.72898E+02-7.51197E+01-2.97075E+02-5.21443E+02
 -1       263-4.12155E+02 4.71060E+02-1.14144E+02 1.11258E+02-1.31084E+02-7.83731E+02
 -1       264-3.32081E+03-2.66336E+03-1.81130E+03-3.66414E+03-7.28422E+03-7.96118E+03
 -1       265-3.64980E-03 1.40095E+04 3.94722E-03-1.48022E+02 5.12036E+03-4.77109E-03
 -1       266-3.01450E-03 1.08866E+04 3.85304E-03-2.43496E+02 3.20242E+03 2.64314E-03
 -1       267-2.29925E-03 8.20746E+03 2.95046E-03-2.92251E+02 2.72300E+03-1.36111E-03
 -1       268-2.21024E-03 6.30293E+03 3.28322E-03-1.77908E+02 1.14139E+03 4.15703E-03
 -1       269-5.59218E-04 4.77613E+03 3.37373E-03-6.28963E+01 1.00197E+03-1.68194E-03
 -1       270 3.58577E-04 3.61339E+03 2.54265E-03-7.69054E+01 6.66246E+02 4.06995E-04
 -1       271-1.11939E-03 2.39952E+03 1.08231E-03-1.44173E+02 1.43278E+02-3.09112E-04
 -1       272-1.10893E-03 1.35789E+03 1.35853E-03-1.21193E+02-1.44140E+00 2.25027E-03
 -1       273-3.25889E-04 5.40184E+02 1.41305E-03-4.20062E+01 4.81764E+02 3.13617E-04
 -1       274-7.17124E-04-1.03053E+02 1.81367E-05-3.46153E+01 1.15391E+01 1.25684E-04
 -1       275-3.09926E-04-6.93264E+02-1.28650E-04-5.73776E+01-1.59515E+02-2.29502E-04
 -1       276 2.90719E-04-1.15470E+03-4.42491E-04-5.00614E+01-2.97303E+02 8.65608E-04
 -1       277 1.63788E-04-1.64291E+03-4.58812E-04-5.86722E+01-5.68935E+02-4.89338E-04
 -1       278 5.10766E-04-2.30199E+03-6.93406E-04-5.38138E+01-7.13811E+02 7.33575E-04
 -1       279 7.68111E-04-2.98718E+03-5.72027E-04-3.00292E+01-1.11405E+03-9.06271E-04
 -1       280 1.00292E+02 1.06235E+04-1.02751E+03-2.95337E+03-3.21034E+02-8.88351E+02
 -1       281 3.22456E+02 6.48709E+03-1.05522E+03-1.92668E+03-3.00798E+02 2.85528E+02
 -1       282 1.90061E+02 4.08522E+03-7.19501E+02-9.76991E+02-2.57884E+01 2.89154E+02
 -1       283-6.69685E+01 2.44707E+03-6.54907E+02-1.13728E+03 1.93159E+01 9.59248E+01
 -1       284 2.01437E+02 2.01132E+02-7.94349E+01-6.55448E+02-6.15887E+01 8.16615E+01
 -1       285 6.84922E-01-5.17289E+02 6.96317E+01-3.95607E+02 5.36524E+01 1.46821E+02
 -1       286-6.41716E+01-1.26440E+03 1.69553E+02-4.94531E+02 4.05926E+01 8.33450E+01
 -1       287 7.75047E+00-2.24059E+03 2.05261E+02-6.35244E+02 8.88454E+00-1.90593E+02
 -1       288 8.76526E+02 7.36125E+02-2.05503E+03-5.41479E+03 4.75736E+03 5.15933E+00
 -1       289 1.06343E+03 8.38963E+02-2.08273E+03-4.36681E+03 3.12606E+03 7.10459E+01
 -1       290 1.11258E+03 7.26934E+02-2.11044E+03-3.22383E+03 1.58318E+03-1.83592E+02
 -1       291 9.77508E+02 1.38240E+03-1.77472E+03-2.39185E+03 1.46113E+03 9.26906E+01
 -1       292 5.04309E+02 1.81783E+03-1.43901E+03-1.67121E+03 4.13268E+02 8.77064E+01
 -1       293-1.84594E+02 2.34804E+03-1.37441E+03-1.63567E+03 4.17966E+02-1.12726E+02
 -1       294-1.79095E+02 2.71060E+03-1.30981E+03-1.86486E+03 2.63513E+02-2.28772E+01
 -1       295 4.82821E+02 1.06639E+03-7.34343E+02-1.93860E+03 4.02749E+02-5.99731E+02
 -1       296 4.92407E+02-3.42274E+02-1.58871E+02-1.03531E+03 1.01423E+02-9.39898E+01
 -1       297 2.64160E+02-2.53372E+02-9.80362E+00-7.22433E+02 2.39819E+00 5.14556E+01
 -1       298 4.78596E+01-8.61673E+01 1.39264E+02-6.57368E+02-2.08855E+02 1.43373E+01
 -1       299-1.11531E+02-5.66629E+01 2.39186E+02-7.61203E+02-2.65776E+02-6.70308E+01
 -1       300-2.14325E+02-5.98162E+01 3.39107E+02-8.69116E+02-3.95869E+02 8.83679E+00
 -1       301-1.77701E+02-1.25020E+02 3.74816E+02-1.01615E+03-6.48809E+02 5.08120E+01
 -1       302-1.01993E+02-1.40991E+02 4.10524E+02-1.14104E+03-1.04474E+03-5.46338E+01
 -1       303 2.03002E+03-9.71573E+03 1.15959E+03-2.91808E+03 7.26768E+02-4.01595E+02
 -1       304 2.37885E+03-4.56660E+03 4.39914E+02-1.06627E+03 2.48072E+02-1.28270E+02
 -1       305 5.37514E+02 2.55521E+02-6.83502E+02-3.04431E+02 1.82491E+02 1.61170E+02
 -1       306-2.32973E+02 2.20287E+03-6.49462E+02-5.97949E+02-2.38299E+02-1.41077E+02
 -1       307 1.87923E+02-6.00505E+02 4.41937E+01-2.03747E+02-4.45457E+01-2.63185E+01
 -1       308-5.66946E+01 2.83021E+02-4.62897E+01-3.10577E+02 1.33526E+01-7.04301E-01
 -1       309-2.73601E+02 9.56968E+02-1.43309E+02-5.51572E+02 6.91675E+00-6.24239E+01
 -1       310-3.24596E+02 2.03673E+03-2.75622E+02-6.44240E+02-7.63797E+01 4.19998E+01
 -1       311-2.50279E+02-3.29311E+02-2.97406E+02 8.26161E+03-1.91058E+03-1.57562E+03
 -1       312-5.84634E+02-4.04592E+03 2.03839E+03 6.64878E+03 1.24765E+03-2.21889E+03
 -1       313 1.80948E+03-1.02801E+04 4.37420E+03 2.87137E+03 5.70731E+02-9.07055E+02
 -1       314 3.75068E+03-9.98255E+03 3.68224E+03 7.03615E+02 6.23116E+02 1.95055E+02
 -1       315 3.72146E+03-8.28722E+03 2.99027E+03 5.75883E+02 4.52367E+02-1.69751E+02
 -1       316 1.58033E+03-2.36643E+03 1.53114E+03 1.97846E+03-2.82408E+02 3.56352E+02
 -1       317 1.10402E+02 2.69688E+02 7.20059E+01 1.10273E+03 4.46372E+02 7.37256E+02
 -1       318-4.88021E+02 8.00515E+02 4.14473E+01 4.01550E+02 4.72159E+02-1.81796E+02
 -1       319-5.45240E+02 1.26318E+03 1.08910E+01-1.25980E+01 9.71583E+02 5.05363E+02
 -1       320 5.37882E+01-4.50029E+02 2.47257E+02 1.83651E+02-7.38881E+01 5.15186E+01
 -1       321 7.74040E+01 2.39044E+01 7.70745E+00 1.02549E+02-1.47427E+02 8.93224E+01
 -1       322-2.00076E+02 6.42344E+02-2.31843E+02 2.18342E+01 5.61552E+01 8.79852E+00
 -1       323-2.98976E+02 1.07239E+03-4.28785E+02-6.92600E+01-8.12429E+01 1.16029E+01
 -1       324-3.06367E+02 1.42206E+03-6.25726E+02-1.44627E+02-2.12426E+02-4.42657E+01
 -1       325-4.34878E+02 1.90620E+03-7.93747E+02 6.61147E+01-9.69300E+01 4.30024E+00
 -1       326-2.99661E+02 2.22848E+03-9.61766E+02 5.16043E+02-1.62445E+02-7.14392E+01
 -1       327 7.37790E+01 9.31212E+02-4.58455E+02 1.39534E+03-2.62204E+02-5.22245E+02
 -1       328 3.78419E+01 1.14064E+02 4.48547E+01 1.78815E+03 3.42462E+02-3.49710E+02
 -1       329-3.82073E+03-4.59867E+02 1.85887E+03 6.09173E+03-2.24653E+03 1.03894E+03
 -1       330-8.02396E+02-7.64299E+03 3.35013E+03 1.25999E+03-7.64671E+02-2.80751E+02
 -1       331 5.75902E+02-1.12790E+04 2.36984E+03-3.06579E+03-1.07786E+03 4.97595E+02
 -1       332-2.52917E+02 7.98927E+02-1.83426E+02 3.63339E+02-2.13892E+02 1.08198E+02
 -1       333-3.36795E+02 1.80820E+03-4.67729E+02 1.39142E+02 4.16408E+01 7.69514E+01
 -1       334 1.86538E+02 1.62304E+03-7.36529E+02 2.80752E+02 5.45583E+01-9.52703E+01
 -1       335 7.85313E+02 1.96230E+02-4.07376E+02 1.35856E+03 4.62267E+02 2.27294E+02
 -1       336 1.31436E+04-3.99803E-03 2.52213E-03-1.80657E+02-4.98061E-03 5.11690E+03
 -1       337 9.83185E+03-1.82803E+01-9.33315E+02-3.05347E+03-9.04194E+02 1.51073E+01
 -1       338 7.23539E+02 5.43577E+02-1.86663E+03-5.48971E+03-2.97860E+02 4.59263E+03
 -1       339-8.66717E+03 1.68288E+03 1.07426E+03-3.42111E+03 1.30776E+02 5.19335E+02
 -1       340-9.45926E+03 1.51326E+03 4.01515E+03 1.72739E+03-3.59964E+02 5.69292E+02
 -1       341-6.62012E+03-1.19980E+03 3.17061E+03 7.31928E+02-6.28090E+02-1.63008E+02
 -1       342-2.57681E+03-3.09274E+03 2.32606E+03-1.26246E+03 1.63648E+02 4.36099E+02
 -1       343-1.08485E+03-4.40494E+03 2.03775E+03-3.09368E+03-3.49047E+03-1.09531E+03
 -1       344-2.19806E+03-3.13148E+03 1.74943E+03-4.25692E+03-1.93517E+03-1.79273E+03
 -1       345-2.97578E+02 4.64946E+02-1.35010E+02 8.81548E+02 1.13054E+02 2.53828E+02
 -1       346-5.99028E+02 1.13091E+03-2.22372E+02 8.37242E+02 3.37103E+02 1.66911E+02
 -1       347-5.15928E+02 1.58636E+03-3.09733E+02 1.92375E+02 2.46445E+02-2.13473E+02
 -1       348-3.13465E+02 1.37384E+03-4.10514E+02-1.89565E+02 5.27446E+02-1.48836E+02
 -1       349 4.51569E+02 8.09702E+02-5.11294E+02-1.80919E+02-4.92248E+01 7.88488E+01
 -1       350 1.42443E+03 3.21220E+02-6.85451E+02 2.38711E+02 8.95635E+01-1.51293E+02
 -1       351 1.98930E+03-3.33944E+02-8.59609E+02 4.60920E+02 1.80497E+02 9.69535E+01
 -1       352 1.91629E+03-4.16736E+02-2.16277E+02-7.58845E+02 8.01254E+01 1.98389E+02
 -1       353-1.31889E+02-1.77191E+02 4.27056E+02-1.26600E+03 1.85596E+01 9.84506E+02
 -1       354-2.13085E+03-3.18648E+01 2.13527E+02-7.06325E+02 1.57074E+02-4.32978E+01
 -1       355-2.84833E+03 6.90554E-04-5.87647E-04-5.62645E+01 9.44995E-04 1.10765E+03
 -1       356 9.88418E+03-2.64224E-03 3.12509E-03-2.84972E+02 4.45994E-03 3.08064E+03
 -1       357 5.05537E+02 9.42435E+02-1.68925E+03-4.80336E+03 2.30197E+02 2.78371E+03
 -1       358-8.09521E+03 2.29455E+03 3.26117E+03-3.65366E+02 9.43589E+00 4.59458E+02
 -1       359-5.12734E+03 1.12615E+03 1.52409E+03-2.08499E+03-3.99489E+02-2.78185E+03
 -1       360 3.21714E+03 8.02680E+03-2.06704E+03 4.37413E+03-3.88233E+02-7.65587E+02
 -1       361-1.31389E+03-4.86247E+02 4.45900E+02 1.14074E+03-7.31759E+01 3.22262E+01
 -1       362 6.68487E+02 4.38662E+02-4.03342E+02-7.15243E+02 1.52156E+02-7.51612E+02
 -1       363 1.87902E+03-7.56826E+02-6.94405E+02-4.66135E+01-3.51714E+01 1.23566E+02
 -1       364-1.34744E+02-2.12811E+02 3.88497E+02-1.06215E+03-1.95262E+01 6.03319E+02
 -1       365-2.08665E+03 5.69475E-04-7.18716E-04-6.42443E+01-6.58086E-04 6.27451E+02
 -1       366 6.79809E+03-1.28044E-03 2.13850E-03-2.89575E+02-2.32337E-03 2.38506E+03
 -1       367 5.20841E+03 4.14385E+02-7.55929E+02-2.29616E+03 3.23271E+02-2.04904E+02
 -1       368 6.08737E+01 1.26687E+03-1.51186E+03-4.00695E+03-5.69059E+01 1.59250E+03
 -1       369-4.22398E+03 1.76339E+03 4.97664E+02-2.84933E+03-3.04695E+02 5.76827E+01
 -1       370-6.24390E+03 1.98565E+03 2.50719E+03-1.37278E+03-3.30216E+02 8.15820E+02
 -1       371-8.06376E+03 2.36378E+03 1.61465E+03-5.31663E+02 1.11998E+02-1.91907E+02
 -1       372-6.35190E+03 3.16637E+03 7.22119E+02-9.51432E+02-1.13946E+03-1.36888E+03
 -1       373 5.72432E+03 4.52802E+03-2.58070E+03 4.03215E+03 1.19135E+02-2.76521E+02
 -1       374 7.50972E+03 7.00110E+03-3.71407E+03 7.85504E+03-4.80644E+03-5.34837E+03
 -1       375 2.08390E+03 8.38182E+02-1.59349E+03 1.57798E+03-2.70925E+02-6.14069E+02
 -1       376-1.27502E+02-5.86172E+02 8.12515E+02-4.90325E+02 1.22267E+02-6.61736E+02
 -1       377 1.43139E+01-3.44437E+02 1.50966E+02-1.58459E+02-1.07141E+02-4.00087E+02
 -1       378 4.44113E+00 1.88767E+02-1.51912E+02 1.77702E+01-5.07403E+01-9.29973E+01
 -1       379 1.05397E+02 3.25759E+01-6.61696E+01 9.24141E+01-3.09641E+01-9.68861E+01
 -1       380 6.76299E+01-9.80515E+01 5.52945E+01-6.06759E+00 1.13159E+00 5.79729E+01
 -1       381 2.64830E+01 4.14677E+01-2.44621E+01-4.92592E+01 2.49086E+01-2.28475E+01
 -1       382 3.79873E+01 1.24975E+02-1.75079E+02-1.07322E+02-1.27975E+01-3.36260E+01
 -1       383-4.52863E+02-1.56318E+02 3.24918E+02 3.27915E+02 8.07629E+01-6.95860E+01
 -1       384-1.85250E+03-1.14139E+03 7.57087E+02 1.65858E+03 1.06710E+03-1.05718E+03
 -1       385-2.26339E+03-1.97324E+02 4.53072E+02 7.74386E+02 2.15179E+02-1.46158E+02
 -1       386 3.57144E+02 5.92020E+02-2.95389E+02-1.12199E+03 4.05551E+02-4.76697E+02
 -1       387 2.07520E+03-4.53458E+01-4.12294E+02-8.56631E+02-4.99570E+01-2.37184E+02
 -1       388 1.55340E+03-8.07150E+02-5.29200E+02-8.75291E+01-1.75978E+01 4.29440E+01
 -1       389 8.86878E+02-4.93277E+02-8.96315E+01-3.95691E+02 5.80695E+01 6.60296E+01
 -1       390-8.47242E+01-2.36276E+02 3.49938E+02-8.52811E+02 1.66867E+01 2.73971E+02
 -1       391-1.12089E+03-7.17341E+01 1.74968E+02-5.09036E+02-5.94971E+01-6.09560E+01
 -1       392-1.40910E+03 5.72220E-04-6.66366E-04-6.33201E+01 5.03280E-04 4.48870E+02
 -1       393 4.57857E+03-2.17472E-03 2.00466E-03-1.72606E+02 3.57773E-03 1.04336E+03
 -1       394 3.52051E+01 9.27596E+02-1.08361E+03-3.10694E+03-2.25858E+02 1.16387E+03
 -1       395-5.13830E+03 2.50704E+03 1.57065E+03-9.07101E+02 2.14710E+02 3.88645E+02
 -1       396-5.12097E+03 4.04870E+03 5.60987E+02 2.71944E+03 4.15431E+02-1.53269E+03
 -1       397 9.57066E+02 1.81885E+03-1.53505E+03 1.59439E+03-7.58200E+02-3.02476E+02
 -1       398-2.39450E+02 1.12967E+02 4.38255E+02-4.66522E+00 1.79287E+02 2.01883E+02
 -1       399 1.45810E+02 3.99026E+01-1.56278E+02 6.03423E+01-2.71849E+01 5.52975E+01
 -1       400 1.70485E+01-2.33596E+01 5.11036E+01 1.23006E+01 3.92008E+01 1.08164E+02
 -1       401 7.11872E+01-3.53492E+01-1.01040E+02-1.05726E+01-8.68044E+00 1.04281E+02
 -1       402-2.14214E+02-3.65918E+02 3.20002E+02 3.26484E+02 1.75387E+02-6.74182E+01
 -1       403 3.74128E+02-4.49970E+02-1.70451E+02 3.46590E+02 7.93827E+00-5.09577E+01
 -1       404-2.14487E+02-2.56438E+02 3.18612E+02-6.87254E+02 1.66592E+01 2.26384E+02
 -1       405-8.96907E+02 5.86187E-04-5.89429E-04-3.93271E+01-1.13151E-03 1.64012E+02
 -1       406 2.68989E+03-2.43274E-03 2.04324E-03-1.21849E+02-2.79067E-03 9.82901E+02
 -1       407 2.16883E+03 1.90638E+02-3.27673E+02-1.33316E+03 2.28880E+02-3.65927E+01
 -1       408 2.24788E+02 6.66363E+02-6.55349E+02-2.23571E+03 1.71442E+02 7.10139E+02
 -1       409-2.10202E+03 1.57376E+03-1.06222E+01-1.05562E+03-1.56741E+02-2.75761E+02
 -1       410-3.89241E+03 2.66776E+03 6.34105E+02-1.92697E+02 1.86907E+02-1.12001E+02
 -1       411-4.01119E+03 2.13947E+03 5.16977E+02 7.75857E+02 9.00220E+02 7.73925E+02
 -1       412-2.35685E+03 2.07584E+03 3.99850E+02 2.94499E+03 1.36237E+03-7.06925E+02
 -1       413-6.47401E+02-9.88594E+01 8.05735E+02-4.85955E+02-7.06434E+02 1.28611E+02
 -1       414 1.26140E+02-1.83723E+02 4.29051E+02-3.74064E+01 1.45747E+02 2.07203E+02
 -1       415 4.10797E+02 3.73754E+02-4.68584E+02 4.52914E+02-2.22812E+02-2.19838E+02
 -1       416-2.69860E+01 1.17574E+02-1.45597E+02 1.25715E+02-2.95218E+01 4.41167E+01
 -1       417 5.48509E+01-2.99671E+01 4.88579E+01 6.32801E+01 4.28492E+01 1.40359E+02
 -1       418 6.31868E+01-1.35982E+01 8.67240E+00 4.14938E+01 4.61796E+01 9.23761E+01
 -1       419 3.52909E+01 1.33180E+01-4.71592E+01 2.74224E+01 4.34853E+01 1.17333E+02
 -1       420 2.28445E+01-3.53817E+01 1.82587E+01 1.62943E+01 7.67285E+01 6.26963E+01
 -1       421-7.85857E+01-1.01504E+02 1.03181E+02 7.00746E+01 1.33297E+02 8.10279E+00
 -1       422-1.93314E+01-8.90901E+00-6.46334E+01-2.90435E+01 5.52965E+01 6.04014E+01
 -1       423 1.34362E+02-1.65822E+01-1.47690E+02-1.04196E+02 1.89061E+02 1.92047E+01
 -1       424-1.62259E+02-2.25565E+02 1.88299E+02 2.96877E+02-2.43472E+02 2.49397E+02
 -1       425-1.72719E+02-2.25399E+02 2.37793E+02-1.81702E+02-9.41179E+01 3.88962E+01
 -1       426-3.32762E+02-3.94244E+02 2.87286E+02-5.01354E+02-2.51646E+01-9.45918E+01
 -1       427-4.47253E+02-1.34768E+02 1.43643E+02-2.33818E+02 4.45451E+01 1.33039E+01
 -1       428-4.86951E+02 1.07766E-03-9.01145E-04-7.25525E+00 1.17805E-03 2.12910E+02
 -1       429 1.44702E+03-1.70864E-03 1.00576E-03-8.83954E+01 2.26154E-03 1.60937E+02
 -1       430 3.00223E+02 6.94059E+02-5.43655E+02-1.74110E+03 4.19794E+01 4.80246E+02
 -1       431-1.03131E+03 1.25220E+03 1.43537E+02 6.73733E+02-3.99904E+01 4.12370E+01
 -1       432-3.88411E+02 4.08185E+01 1.64781E+02-1.34746E+02-4.04757E+02-1.16616E+02
 -1       433 1.29131E+02-7.41584E+00-1.55813E+02 1.09677E+02 3.44306E+01-2.09277E+01
 -1       434 5.02837E+01 3.05222E+01-9.08382E+00 5.46238E+01 6.26497E+01 1.20265E+02
 -1       435 3.57607E+00-2.49375E+01-4.03319E+00 5.33827E-01 6.36705E+01 1.21546E+02
 -1       436-3.26538E+01-4.73044E+01 6.35842E+01-1.96450E+01 5.52472E+01 2.86556E+01
 -1       437 1.32143E+02-7.52940E+01-3.03457E+01-2.16400E+01 1.96836E+01-4.46621E+01
 -1       438-2.53666E+02-6.28328E+02 3.96808E+02 8.49114E+01 3.30379E+01 2.33178E+02
 -1       439-4.86819E+02 1.60044E-03-7.34093E-04 5.56221E+00-4.68023E-04-2.23764E+01
 -1       440 4.56368E+02-1.44153E-03 4.95473E-04-4.89220E+01-1.11485E-03 1.92903E+02
 -1       441 4.75976E+02 2.07944E+02-2.15981E+02-6.28163E+02 1.01688E+02 1.25963E+01
 -1       442 3.94066E+02 6.92955E+02-4.31963E+02-1.28472E+03-6.83029E+01-3.25995E+02
 -1       443 4.08666E+02 5.43600E+02-3.89498E+02-5.22120E+02 3.14027E+02 1.36858E+02
 -1       444 6.26300E+02 6.34691E+02-3.47031E+02 8.01178E+02 5.66038E+02 1.71764E+02
 -1       445 1.91812E+02 4.51946E+01-1.56294E+02-1.70269E+00-1.16823E+02-4.71817E+01
 -1       446 4.10757E+01 1.63086E+02-1.53235E+02 5.43863E+01 2.39844E+01-2.05537E+01
 -1       447-3.07457E+01 7.89155E+01 3.33750E+01 5.45255E+01 1.06300E+02 5.31541E+01
 -1       448 3.01124E+01 6.05753E+01-1.53748E+01 4.88069E+01 8.50170E+01 8.44586E+01
 -1       449 1.72785E+01 1.98750E+01-2.60340E+01 7.28850E+00 9.12127E+01 1.21961E+02
 -1       450 6.68461E+00-4.57726E+00-6.22550E+00-4.04454E+00 9.28084E+01 1.05367E+02
 -1       451-1.27880E+01-3.24924E+01 1.95915E+01-2.78440E+01 9.13608E+01 1.13052E+02
 -1       452-1.07111E+01-6.49231E+01 3.42088E+01-3.71364E+01 1.01306E+02 7.90962E+01
 -1       453-1.95548E+01-1.07251E+02 5.67968E+01-6.61838E+01 7.87097E+01 2.40767E+01
 -1       454 1.01008E+01-1.31194E+02 2.45191E+01-2.69756E+01 8.78057E+01 2.09207E+01
 -1       455 5.43291E+01-1.28869E+02 1.71552E+01-5.68393E+00-5.30021E+01-3.92649E+01
 -1       456-3.11897E+02-7.05404E+02 5.06331E+02 7.37731E+02-1.51375E+02 8.25061E+00
 -1       457-5.05352E+02-2.18594E+02 2.53165E+02 3.84050E+02 5.30495E+01-5.48992E+01
 -1       458-6.98807E+02 1.49817E-03-1.52936E-03 2.41553E+01 1.94528E-04 4.42684E+02
 -1       459 3.15841E+01-1.46825E-03 3.78459E-04-2.34963E+01 4.25893E-04-1.55987E+02
 -1       460 3.29012E+01 5.80234E+02-2.04573E+02-6.47405E+02-1.17621E+02 8.18058E+01
 -1       461 5.32883E+01 1.47115E+02-9.55434E+01 6.38045E+01-5.49733E+01-4.57060E+01
 -1       462-2.08570E+01 9.19935E+01 9.49888E+00 2.55307E+01 6.74940E+01 5.88062E+01
 -1       463-6.69371E-01 1.66980E+01-1.32299E+01-1.15586E+01 7.84269E+01 1.24299E+02
 -1       464-3.38805E+01-5.10454E+01 3.99354E+01-5.68225E+01 7.80547E+01 1.13752E+02
 -1       465 1.81526E+01-1.43157E+02 3.59953E+00-9.93067E+01 5.96830E+01 3.33119E+01
 -1       466-6.27775E+01-2.12708E+02 1.19539E+02-9.56804E+01-2.79666E+02-7.27271E+01
 -1       467-1.03943E+03-6.97768E+02 8.41660E+02 1.49733E+03-3.79512E+02 4.17007E+02
 -1       468-1.32229E+03 1.68386E-03-1.55707E-03 7.94575E+01 1.46264E-03-3.06681E+01
 -1       469-2.04346E+02-1.05783E-03 5.80034E-04-1.36605E+01 5.41046E-04 1.28096E+02
 -1       470-2.22638E+02 1.11024E+02 1.14081E+01-6.13012E+01 7.55267E+01 6.99411E-01
 -1       471-2.49945E+02 3.56160E+02 2.28156E+01-2.24194E+01-3.27854E+01-1.38285E+02
 -1       472-1.60225E+02 2.10281E+02-2.89970E+01 9.13194E+01-9.78563E+01 1.67191E+00
 -1       473-5.24720E+01 2.22926E+02-8.08098E+01-1.79453E+01-9.61313E+01-4.14771E+01
 -1       474-4.29319E+01 7.67660E+01 1.01687E+01-1.02590E+01 1.16753E+02-1.90501E+01
 -1       475-1.06605E+01 7.47717E+01-1.21419E+00-1.25423E+01 1.00627E+02 3.04347E+01
 -1       476 6.71899E+00 6.09958E+01-3.60783E+01 6.72478E-01 8.03371E+01 5.45484E+01
 -1       477-1.36631E+01 2.65669E+01-1.08441E+01-2.38931E+01 9.18040E+01 8.42453E+01
 -1       478-2.34458E+01-1.07470E+00 7.63322E+00-3.91143E+01 8.24070E+01 1.22840E+02
 -1       479-4.39272E+01-2.67885E+01 3.29588E+01-6.43627E+01 8.33242E+01 1.04774E+02
 -1       480-5.24509E+01-5.15736E+01 5.23072E+01-7.64334E+01 8.21002E+01 1.12002E+02
 -1       481-5.71742E+01-9.96049E+01 3.96119E+01-1.25372E+02 7.48099E+01 7.85529E+01
 -1       482 3.08183E+01-1.22162E+02-2.08729E+01-1.36353E+02 9.74284E+01 3.01058E+01
 -1       483-5.32777E+01-2.24579E+02 1.89207E+02-1.13475E+02-2.78632E+01-3.91498E+01
 -1       484-2.37736E+02-7.60903E+01 1.63991E+02-1.16077E+01-3.83904E+02-6.94561E+01
 -1       485-1.27512E+03-2.00779E+02 1.79150E+02-1.36209E+03 5.44258E+02 5.12222E+02
 -1       486-1.32998E+03-1.63276E+02 6.78072E+02 5.21827E+02 1.84489E+02 1.71692E+02
 -1       487-1.84709E+03-4.60244E+02 1.17699E+03 2.01733E+03-1.17221E+02-8.85836E+01
 -1       488-2.16763E+03-1.44284E+02 5.88494E+02 1.10038E+03 9.26087E+01-2.01837E+01
 -1       489-2.25704E+03 1.57637E-03-1.39129E-03 1.19360E+02-1.62269E-03 3.46712E+02
 -1       490-1.72511E+02-5.77798E-04-2.42762E-05 2.81718E+00-3.66588E-04-5.10118E+01
 -1       491-1.90581E+02 2.33421E+02 1.31224E+01 1.83680E+02 4.61139E+00 1.68097E+01
 -1       492-1.77736E+02 3.78286E+02-6.71573E+01 4.76769E+01 6.45882E+01-4.69491E+01
 -1       493-8.26158E+01 3.85003E+01 2.15857E+01 9.09005E-01 1.36244E+02-1.31462E+01
 -1       494 6.47405E+00 1.95037E+01-3.24912E+01-3.21452E+01 5.34991E+01 6.46418E+01
 -1       495-4.46562E+01 2.78107E+00 2.76691E+01-6.10280E+01 5.92860E+01 1.31591E+02
 -1       496-9.21724E+01-5.41721E+01 3.31901E+01-1.31698E+02 5.69698E+01 1.10394E+02
 -1       497-1.71894E+02-4.89532E+00 1.95277E+02-2.01637E+02 2.46664E+01-6.41090E+01
 -1       498 5.01210E+02-6.74383E+01-1.55640E+02 1.49285E+02-7.25354E+02-1.49895E+02
 -1       499 1.08190E+03-6.67485E+02-6.22204E+02-1.44051E+03 1.72460E+02 2.71520E+02
 -1       500-1.46134E+03-4.28592E+02 1.21279E+03 2.17185E+03 4.03093E+01 8.68672E+02
 -1       501-3.68680E+03 1.06808E-03-2.24366E-03 1.30652E+02 3.56412E-03 6.87210E+02
 -1       502-6.20127E+01-5.85071E-04 1.49352E-04 8.82508E+00 5.06463E-04 5.46342E+01
 -1       503-5.06841E+01 4.53492E+01 1.71448E+00 1.85078E+02-5.09258E+00 1.42501E+01
 -1       504-1.19096E+02 1.60100E+02 3.42871E+00 3.28474E+02-2.36941E+01 6.19501E+00
 -1       505-2.82637E+02 3.31322E+02-2.50379E+01 2.63689E+02 3.04816E+01-4.04819E+01
 -1       506-3.88029E+02 5.03780E+02-5.35044E+01 2.48510E+02-1.58788E+01-2.74235E+01
 -1       507-3.04825E+02 3.39365E+02-5.04359E+01 1.57451E+02-1.42607E+02 1.70561E+01
 -1       508-1.78437E+02 2.93996E+02-4.73674E+01-6.96907E+01-1.47755E+02-6.88078E+01
 -1       509-7.62188E+01 2.93115E+00 8.08362E+01 5.57127E+01 2.18404E+02 3.08069E+01
 -1       510 3.95622E+00-2.78542E+00 4.02872E+01-1.11307E+01 4.75493E+01 5.32081E+01
 -1       511 2.74792E+01 5.85290E+01-5.29862E+01-9.03310E+01 8.97896E+01 5.64598E+01
 -1       512-5.04493E+01 1.32373E+01 1.24726E+01-6.61002E+01 4.37674E+01 6.63149E+01
 -1       513-8.41277E+01-2.40802E+01 6.85181E+01-9.33794E+01 1.49439E+01 1.16050E+02
 -1       514-1.18967E+02 1.02865E+01 4.66233E+00-1.13686E+02 2.18250E+01 8.54207E+01
 -1       515-9.89150E+01 2.84168E+01-3.58680E+01-1.42264E+02 2.15184E+01 1.33583E+02
 -1       516 1.91198E+01-1.50653E+02 1.82938E+02-2.25122E+02-6.61846E+01 2.84309E+01
 -1       517-5.32557E+02-4.67134E+02 5.69784E+02-6.44421E+02-3.10569E+02-3.21422E+02
 -1       518-1.67250E+02 2.12036E+02-4.99111E+02 3.82254E+00 1.45194E+02 2.52525E+02
 -1       519 8.25348E+02 9.04445E+01-8.81095E+02 5.96442E+02-1.09716E+03 1.73391E+02
 -1       520 3.61502E+03-2.61427E+03-6.91067E+02-4.58432E+03 1.84919E+03-8.33785E+02
 -1       521 5.96422E+03-2.42728E+03-1.05731E+03-1.97588E+03 1.07782E+03 1.43528E+03
 -1       522 5.31042E+03-2.63137E+03-1.42356E+03-8.06848E+02 2.08226E+02 1.44052E+00
 -1       523 2.47544E+03-1.39492E+03-8.74807E+01 6.55835E+02-2.01447E+02-4.18353E+02
 -1       524-1.08611E+03-5.15136E+02 1.24860E+03 2.47507E+03 2.25758E+02 1.28682E+03
 -1       525-4.29532E+03-1.39325E+02 6.24296E+02 1.52593E+03 3.27739E+02-1.03529E+02
 -1       526-5.27645E+03 2.19270E-03-3.39185E-03 1.56021E+02-3.14698E-03 1.53688E+03
 -1       527 2.11776E+02-3.57447E-04 1.21335E-04 2.21031E+01-6.26285E-04 2.30358E+01
 -1       528-9.58904E+01 1.55884E+02-6.55867E+01 4.69329E+02 2.50759E+01 7.90241E+01
 -1       529-4.58069E+02 3.79814E+02 6.66701E+01 3.42989E+02-2.11880E+01 1.96745E+01
 -1       530-4.18735E+02 5.63353E+02-2.36898E+01-3.39568E+01 3.70360E+01-1.14856E+02
 -1       531 1.36007E+02 2.33249E+02-1.88828E+02-2.10318E+02 1.69031E+02-1.63866E+01
 -1       532-7.55491E+01 2.37176E+01 7.62187E+01-2.39548E+01-4.72045E+00 1.07458E+02
 -1       533-7.55109E+01 2.48348E+01-2.79990E+01-5.16304E+01 3.00124E+01 9.74555E+01
 -1       534-2.12279E+02-4.69252E+01 1.91805E+02-1.19939E+02-4.39642E+01 2.94077E+00
 -1       535 2.96507E+02-1.42799E+02-5.10684E+02-4.93045E+01 2.11427E+02 2.21599E+02
 -1       536-1.21843E+03-2.26918E+03 1.76060E+03-2.04536E+03-1.15850E+03-4.22858E+02
 -1       537 7.19380E+03-5.17881E+03-1.04399E+03-4.31788E+03 8.14344E+02-2.29373E+03
 -1       538 7.09620E+03-2.71651E+03-2.46830E+03 1.33510E+02 3.08931E+02 5.93194E+02
 -1       539-5.98376E+02-9.34431E+02 1.69664E+03 3.37249E+03-2.80297E+02 1.71029E+03
 -1       540-7.40209E+03 2.18623E-03-3.13876E-03 1.93327E+02 2.87915E-03 1.78911E+03
 -1       541 5.40924E+02-2.26367E-04 1.93456E-04 4.21863E+01 4.93316E-04 2.12977E+02
 -1       542 4.09295E+02 6.17784E+01-6.73009E+01 3.49409E+02-3.85150E+01-8.43570E+00
 -1       543-4.42743E+01 1.79829E+02-1.34602E+02 6.12037E+02 9.15615E+00 1.18196E+02
 -1       544-3.99620E+02 2.48941E+02 2.61212E+01 5.15233E+02 4.40152E+01 2.86263E+01
 -1       545-5.52445E+02 2.62819E+02 1.86845E+02 3.96659E+02 6.98583E+01 4.24300E+01
 -1       546-7.01314E+02 2.59389E+02 9.34158E+01 3.38988E+02 3.82502E+00-2.59837E+00
 -1       547-3.67813E+02 2.17118E+02-1.29141E-02 4.21922E+02 1.36713E+02-1.50150E+02
 -1       548 1.23136E+03 2.01856E+02-3.37681E+02-2.57423E+02 2.04429E+02-2.02897E+02
 -1       549 1.12594E+03 6.76380E+02-4.14290E+02-9.14089E+02 7.21657E+02-6.79513E+02
 -1       550 2.72207E+02 9.90064E+01-1.82821E+02-2.14723E+02 3.65947E+01-8.63242E+01
 -1       551-4.85638E+01-7.67403E+01 1.07382E+02 5.76158E+01-2.51302E+01-6.41176E+01
 -1       552-6.16768E+01 1.30986E+00 1.90566E+01 2.53735E+01-4.30404E+00-1.37446E+02
 -1       553-1.20666E+02 1.11197E+02-2.81590E+01-4.21492E+00-1.90277E+01-1.11871E+02
 -1       554-1.79143E+02-3.50815E+01 8.94779E+01-1.24651E+02-5.77276E+01-3.17392E+02
 -1       555-3.00684E+01-2.18145E+02 1.53642E+02-4.53186E+01-7.80128E+01-3.48704E+02
 -1       556-3.43647E+01 4.36395E+02-1.32500E+02 1.85933E+02-1.35086E+02-7.20157E+02
 -1       557 1.32117E+02 7.24199E+02-8.89640E+02 6.03586E+02 1.63960E+02-1.04079E+03
 -1       558-2.70569E+03-1.02471E+03 1.85829E+03-2.01777E+03-3.67933E+02-9.28489E+02
 -1       559-9.53609E+03-7.89264E+03 4.02016E+03-8.82693E+03-6.53529E+03-7.11305E+03
 -1       560-6.98954E+03-4.89530E+03 2.57673E+03-3.28253E+03-9.11645E+02-1.44549E+03
 -1       561 8.85303E+03-3.76573E+03-1.39691E+03 1.05671E+03-8.46030E+02-1.81496E+03
 -1       562 1.11661E+04-2.86528E+03-2.45497E+03-3.18302E+01 2.98142E+02 3.65765E+01
 -1       563 8.55104E+03-2.35111E+03-3.51303E+03 7.42207E+02-3.02315E+02 9.53800E+02
 -1       564 5.57525E+03-2.06245E+03-6.84177E+02 2.71679E+03-3.82196E+02-3.47252E+01
 -1       565-4.08834E+02-1.47011E+03 2.14468E+03 4.31658E+03-3.53737E+01 2.32001E+03
 -1       566-7.58290E+03-4.75374E+02 1.07234E+03 2.48909E+03 4.33516E+02-3.33831E+02
 -1       567-9.85189E+03 1.22759E-03-3.14806E-03 3.27897E+02-1.61551E-03 3.30656E+03
 -1       568 1.00709E+03-3.45885E-04 3.37531E-04 4.65295E+01-8.32327E-04 3.32756E+02
 -1       569 4.47981E+01 1.30052E+02-1.82450E+02 7.10705E+02-2.46243E+01 2.78645E+02
 -1       570-7.46895E+02 2.57470E+02 3.08245E+02 2.14757E+02-1.67534E+01 5.00444E+01
 -1       571-2.49410E+02-1.23133E+02 1.25197E+02 3.75086E+02 9.55723E+01-3.78113E+02
 -1       572 8.80741E+02 9.58440E+01-1.93890E+02-5.30059E+02 6.26644E+01-3.20721E+01
 -1       573-5.64375E+03-5.97358E+03 2.61263E+03-4.18485E+03-1.15909E+03-1.31244E+03
 -1       574 6.54418E+03-1.45204E+03-1.88515E+03 2.34554E+03-9.22175E+02-3.81837E+03
 -1       575 1.07606E+04-3.00164E+03-4.44974E+03-4.47977E+02 9.94329E+00 8.20982E+02
 -1       576-8.04787E+02-1.13072E+03 2.28045E+03 5.37219E+03 2.75784E+02 3.72392E+03
 -1       577-1.32219E+04 3.24349E-03-4.21881E-03 2.99630E+02 4.10447E-03 3.98231E+03
 -1       578 1.48988E+03-5.03955E-04 1.74888E-04 3.92476E+01 8.13470E-04 6.41665E+02
 -1       579 1.09515E+03 7.79214E+00-1.15148E+02 4.48809E+02 9.90103E+01 2.59835E+01
 -1       580 9.52723E+01 8.35490E+01-2.30297E+02 7.89222E+02 4.41084E+01 5.35445E+02
 -1       581-8.95739E+02 1.96920E+02 9.96744E+01 5.39725E+02-1.38824E+00 1.07280E+02
 -1       582-9.34399E+02 1.06906E+02 4.29645E+02-7.59518E+01 6.19910E+01 4.23589E+01
 -1       583-5.84295E+02-2.74910E+02 3.40026E+02-6.01422E+01 8.49978E+01-1.57852E+01
 -1       584-2.28771E+01-5.69446E+02 2.50408E+02 5.96613E+01 3.00533E+01 3.79874E+01
 -1       585 3.31989E+02-1.02572E+03 2.68988E+02 6.41626E+01 3.75182E+02-1.40222E+02
 -1       586 4.20842E+02-1.30100E+03 2.87568E+02-2.44680E+02 1.72407E+02-3.82898E+01
 -1       587 4.16458E+02-9.15998E+02 2.13509E+02-7.62403E+02 3.02872E+02 1.67434E+02
 -1       588 1.74279E+02-4.53237E+02 1.39450E+02-7.29847E+02 6.16788E+01 2.16116E+02
 -1       589-2.14342E+03 2.41872E+03-1.77766E+02-3.76810E+03-6.10900E+02 1.44579E+03
 -1       590-4.15942E+03 5.77949E+03-7.51442E+02-3.37442E+03-1.69413E+03 6.62004E+02
 -1       591-2.26676E+03 7.13152E+03-1.32511E+03 8.88753E+02-1.41330E+03-9.60947E+02
 -1       592-6.59451E+02 5.66564E+03-1.84926E+03 2.10500E+03-3.49610E+03-1.38583E+03
 -1       593 2.99076E+03 2.64387E+03-2.37340E+03 7.08684E+02-1.45208E+01 1.28434E+02
 -1       594 8.86249E+03 9.86635E+02-3.87991E+03-1.70053E+03-6.50515E+02-1.16840E+02
 -1       595 1.25477E+04-1.91342E+03-5.38644E+03-2.87555E+03-5.96154E+02 6.01370E+02
 -1       596 1.14207E+04-2.16220E+03-1.48511E+03 3.65989E+03 1.62423E+02 4.60445E+02
 -1       597-9.83439E+02-6.44705E+02 2.41622E+03 6.29431E+03-3.25049E+02 5.78800E+03
 -1       598-1.27443E+04 4.93460E+01 1.20811E+03 3.43514E+03-1.17490E+03-9.21729E+01
 -1       599-1.68495E+04 4.89554E-03-3.75730E-03 1.49863E+02-5.21971E-03 6.24478E+03
 -1       600-3.75211E+02-1.30888E+02 2.03251E+02-6.73204E+02 2.72612E+02 8.08108E+01
 -1       601 1.65768E+01-1.17017E+03 4.58488E+02-2.85420E+02 1.92842E+01-4.12293E+01
 -1       602 2.60797E+02-1.43349E+03 3.79031E+02-2.97337E+02 5.18156E+00 5.92465E+01
 -1       603 1.81741E+02-7.34465E+02 1.91171E+02-4.10810E+02-2.08281E+02 6.00213E+01
 -1       604-1.88412E+03 4.00715E+03-6.72714E+02-1.02121E+03 9.97344E+02 8.91077E+02
 -1       605-2.00198E+03 9.41907E+03-2.20261E+03 6.18002E+02 3.93126E+00 4.25916E+02
 -1       606 1.42880E+03 8.05304E+03-3.75490E+03-1.39656E+03-2.34851E+02-5.81233E+02
 -1       607 5.17352E+03 6.63882E+02-2.56437E+03-7.82654E+03-2.77526E+03 1.15251E+03
 -1       608-3.39738E+00-6.23294E+01-2.31416E+01-1.05694E+03 1.68871E+02-1.45874E+02
 -1       609-2.82488E+01-6.57373E+02 3.21713E+02-9.18551E+02-1.60895E+02-3.16875E+02
 -1       610 2.26243E+02-1.56636E+03 6.66569E+02-4.82648E+02-1.03588E+02-6.00480E+01
 -1       611 3.14941E+02-1.35520E+03 5.68532E+02-2.56117E+02-9.34637E+01-4.59813E+00
 -1       612 2.05884E+02-1.04749E+03 4.70494E+02-1.53268E+02-1.25172E+02-4.28289E+01
 -1       613 2.25816E+02-9.03785E+02 3.56693E+02-1.82946E+02-1.27366E+02 5.89508E+01
 -1       614 3.03830E+02-8.13578E+02 2.42893E+02-2.32255E+02-8.01932E+01-1.85801E+00
 -1       615-2.48838E+03 4.97325E+03-1.16767E+03 1.04107E+03-1.67902E+02 7.83114E+01
 -1       616-2.09186E+03 6.03467E+03-2.12389E+03 1.40655E+03 5.28315E+02 1.46625E+02
 -1       617-2.04858E+03 7.39378E+03-3.08011E+03 1.71304E+03 7.71459E+02-4.01103E+02
 -1       618-2.55022E+03 9.72454E+03-4.10826E+03 2.30856E+02 5.82721E+02 1.17461E+02
 -1       619-1.36508E+03 1.15205E+04-5.13641E+03-2.33607E+03 7.12176E+02-5.57832E+02
 -1       620 7.47662E+02 4.73712E+03-2.43935E+03-7.40543E+03 1.15032E+03-2.87954E+03
 -1       621 1.93287E+02 3.59802E+02 2.57686E+02-1.01503E+04-1.66990E+03-1.41269E+03
 -1       622 2.14905E+02-1.38532E+03 1.93724E+02 2.66736E+02 1.34209E+01 2.81752E+01
 -1       623 1.70587E+02-6.56560E+02 1.09494E+02 1.17797E+02-2.66797E+01-2.71488E+01
 -1       624 1.33722E+02-1.91779E+02-2.04831E+01-1.08852E+02 4.04248E+01-5.98445E+01
 -1       625-1.84245E+03 2.52956E+03 2.41179E+01 1.92011E+03-9.84825E+02-3.78006E+02
 -1       626-1.84293E+03 5.02992E+03-7.03196E+02 3.42942E+03 1.08733E+02-3.64581E+02
 -1       627-1.86242E+03 1.06926E+04-1.37451E+03 4.03836E+03 5.62731E+02 1.60947E+02
 -1       628 4.35503E+01 1.31649E+02-2.79120E+02 5.62483E+02-6.69054E+02-1.79188E+01
 -1       629 9.06725E+01 1.13643E+02-2.65313E+02 4.69097E+02-4.51626E+02 3.21076E+01
 -1       630 9.17653E+01 8.12033E+01-2.51506E+02 3.63744E+02-3.03910E+02-7.69990E+00
 -1       631-2.86781E+01 2.55662E+02-2.67683E+02 2.98049E+02-2.55276E+02-3.08769E+01
 -1       632-8.31919E+01 5.30518E+02-2.83859E+02 3.27673E+02-2.25019E+02-1.80639E+01
 -1       633 4.00261E+01 3.98718E+02-2.52180E+02 4.55386E+02-1.38140E+02-1.38320E+02
 -1       634-3.75039E+00 1.57347E+02-2.20502E+02 3.64168E+02-8.63452E+01-1.16142E+02
 -1       635-2.52677E+02 2.31962E+01 1.48448E+02 5.28603E+02 1.85292E+01-2.24681E+01
 -1       636-7.76259E+02-1.99510E+02 5.17397E+02 8.83274E+02-9.96679E+01-2.60077E+02
 -1       637-1.39943E+03-9.36751E+02 8.66648E+02 2.08336E+03 5.50969E+02-3.47123E+02
 -1       638-1.10330E+03-1.19448E+03 1.21590E+03 3.26296E+03 6.12005E+02 3.04604E+01
 -1       639-1.00061E+03-3.14325E+02 1.44481E+03 4.09536E+03 1.53123E+03-3.36731E+02
 -1       640-1.27018E+03-1.05213E+02 1.67371E+03 4.98949E+03 1.85183E+03-4.62174E+01
 -1       641-1.01382E+03-6.54603E+02 2.03056E+03 5.88342E+03 3.41435E+03 2.71665E+02
 -1       642-6.43935E+02-9.15170E+02 2.38740E+03 6.65493E+03 5.68825E+03-3.16706E+02
 -1       643-1.92302E+01 1.49305E+03-1.39560E+02 2.88051E+02 2.74914E+01-1.33867E+02
 -1       644 2.75366E+01 1.04745E+03-1.25752E+02 2.17325E+02 6.77163E+01 6.39655E+01
 -1       645-3.66817E+01 7.44661E+02-1.41929E+02 2.45926E+02 1.97815E+01 2.30408E+01
 -1       646 2.21773E+01 2.21235E+02-1.10251E+02 2.05937E+02 1.80549E+01 7.83709E+01
 -1       647-2.26434E+02-2.97375E+02 2.58698E+02 4.90801E+02-2.46079E+00 2.88635E+02
 -1       648-3.94386E+02-2.47756E+03 6.07948E+02 1.84857E+03 2.54178E+01 2.69802E+02
 -1       649-3.88075E+02-6.49942E+03 8.36854E+02 2.90747E+03-2.69282E+02 4.04112E+02
 -1       650-9.78506E-01-1.21439E+04 1.19370E+03 3.70434E+03-1.79969E+01-1.02767E+03
 -1       651-4.54971E-04 1.93717E+03 4.43893E-04-3.62334E+00-6.53232E+02-3.88697E-04
 -1       652-2.94794E-04 1.64252E+03 4.90827E-04 2.06038E+01-4.76612E+02 1.50369E-04
 -1       653 9.23736E-05 1.37312E+03 5.43979E-04 3.30506E+01-4.22242E+02 2.11437E-05
 -1       654 6.64164E-05 1.08557E+03 4.95211E-04 2.66059E+01-2.84526E+02 2.41921E-04
 -1       655-2.78935E-04 8.07498E+02 3.99537E-04 3.87644E+01-1.24192E+02 2.31401E-06
 -1       656-8.77865E-05 5.25444E+02 4.66532E-04 4.36189E+01-5.82698E+01 5.01804E-04
 -1       657 6.19897E-04 2.85124E+02-4.77270E-04 2.76187E+01-6.27271E+01 5.05270E-04
 -1       658 6.30236E-04-1.07793E+01-2.74627E-04 2.30331E+01 1.26861E+01-3.77891E-04
 -1       659 2.19843E-03-3.95239E+02-9.05479E-04 4.88774E+01 3.78407E+02 8.70157E-04
 -1       660 3.42812E-03-1.36633E+03-1.60329E-03 1.00219E+02-1.66142E+02 1.46901E-03
 -1       661 2.79673E-03-2.80928E+03-1.93355E-03 2.06888E+02 9.17688E+02-3.19638E-03
 -1       662 2.38727E-03-5.46487E+03-2.67288E-03 2.64496E+02 1.22289E+03 4.73058E-03
 -1       663 1.73484E-03-8.46241E+03-3.43213E-03 3.61111E+02 2.86302E+03-2.82178E-03
 -1       664 2.87012E-03-1.22631E+04-3.75651E-03 3.39813E+02 3.82738E+03 5.03055E-03
 -1       665 4.12744E-03-1.62512E+04-2.54354E-03 2.26048E+02 6.28698E+03-5.86717E-03
 -1       666 1.87583E-12-2.24873E-10 1.18234E-10 3.35945E-11 5.07615E+03-1.69611E-03
 -1       667-2.77112E-13 1.52539E-10 5.61329E-13-2.60769E-11 2.67756E+03 4.12793E-03
 -1       668-1.98952E-13 6.11635E-11-2.26024E-11-2.78106E-11 9.70971E+02 3.53791E-03
 -1       669-1.06581E-13-3.11484E-12-1.95932E-12-5.58273E-11 1.15045E+02 7.27669E-04
 -1       670 7.28306E-14-4.78382E-11 3.26845E-11-3.89448E-11 4.78341E+02 9.43995E-04
 -1       671-2.93099E-14 6.43681E-11 2.79359E-11-7.35412E-13-1.56516E+02 1.62747E-03
 -1       672-1.25233E-13 2.08907E-10 3.41593E-11 6.70397E-12-5.61638E+02 8.74047E-04
 -1       673-3.70370E-13 3.81419E-10-4.10232E-11-6.28120E-11-1.10522E+03-1.69656E-04
 -1       674 2.49678E-10-1.03967E-10-5.99670E-10 5.37188E-11 4.80461E+03 3.95589E+00
 -1       675 1.30587E-10-4.44675E-11 2.03846E-10-3.69793E-11 1.61548E+03-1.76951E+02
 -1       676-2.59197E-11 1.38325E-10-1.00015E-10-9.96394E-11 4.14067E+02 9.63424E+01
 -1       677 8.57151E-12 6.83299E-11-5.86701E-11-4.40838E-11 2.54190E+02-1.27470E+01
 -1       678-7.39971E-12-6.19937E-11-4.07721E-11-3.35646E-11 1.02059E+02-8.14313E+01
 -1       679-1.45934E-11 8.90177E-11-4.48446E-11-6.86673E-13-2.11359E+02 1.97071E+01
 -1       680-7.74059E-11 2.14072E-10 2.43210E-11-6.39551E-11-4.02628E+02 1.17614E+01
 -1       681-8.89475E-11 3.93115E-10-3.56472E-10-1.39178E-12-1.05513E+03-5.30948E+01
 -1       682 1.62572E-11-9.00513E-10 6.27870E-09-2.43844E-10-1.81761E+03-1.47491E+03
 -1       683 8.05149E-10-1.46050E-10-9.48594E-10 3.99491E-11 5.87503E+02-8.93387E+02
 -1       684 4.07534E-10-2.95501E-10-1.96888E-09 8.55730E-11 5.16789E+02-2.10626E+02
 -1       685 1.71248E-10 6.31140E-11-9.05946E-10-2.48095E-11 4.78972E+02 7.05138E+02
 -1       686-2.63398E-10 1.24771E-10-6.29115E-11-3.91616E-11 1.00008E+03 5.04045E+02
 -1       687-5.67910E-11 6.44462E-12 3.40863E-10-3.33484E-11-6.51339E+01 4.11883E+01
 -1       688 2.08509E-11 1.04923E-10-1.75596E-10 4.25112E-11 5.15148E+01-3.06113E-01
 -1       689-1.90892E-10 2.94953E-10 5.50848E-12-1.24030E-11-2.19426E+02-5.21359E+01
 -1       690-2.43958E-10 1.52673E-10 6.88165E-10-9.60435E-11-1.65836E+02-6.90382E+01
 -1       691-2.23679E-11 4.92442E-11-6.01538E-10 2.36469E-11 3.22964E+02-3.28010E+02
 -1       692 2.08274E-10 1.10845E-12 1.08287E-11 1.13346E-10-1.76508E-04 5.07675E+03
 -1       693 6.96332E-12 1.38719E-10-1.18907E-09-3.93285E-11-2.90215E+02 4.63600E+03
 -1       694-2.61120E-10-4.07510E-10 8.34670E-10 7.39213E-11-3.50663E+02 5.87299E+02
 -1       695-3.25763E-10 2.07930E-10-1.05667E-09 2.16964E-11 1.24227E+02 4.11633E+02
 -1       696 4.23881E-10-5.46095E-10-1.13369E-09-3.62093E-11-2.03092E+03-1.80523E+03
 -1       697-3.80425E-11-2.33342E-10 3.90457E-10-1.12131E-10 1.15146E+02 2.50063E+02
 -1       698-3.07014E-11 7.94150E-10-4.33175E-10 1.76928E-10 2.61860E+02-2.17634E+02
 -1       699 1.87413E-10-7.49711E-12 3.00295E-10-9.25180E-11-4.20326E+01 7.29107E+01
 -1       700 7.63810E-11-1.96118E-10-2.56688E-10-1.69109E-12 1.78749E+02 1.01195E+02
 -1       701 2.68841E-10-9.29033E-11-2.29135E-10 5.22427E-12 1.68983E+01 9.93792E+02
 -1       702 2.24716E-10-1.26904E-12 3.86482E-10-3.44524E-11 4.62699E-05 1.09846E+03
 -1       703 7.15374E-11 7.10543E-13-1.68782E-10 3.49019E-11 4.30059E-03 2.35253E+03
 -1       704 1.62359E-10-1.27192E-10-4.26347E-10 1.29209E-10-4.38477E+01 1.61959E+03
 -1       705 5.00364E-11-1.75856E-10 1.28058E-09 4.81268E-11-3.66672E+02 8.39921E+02
 -1       706 7.34417E-11 1.94187E-10-2.29567E-10-8.64304E-11-1.16487E+03-1.44207E+03
 -1       707 2.48999E-10-7.10218E-10-5.22252E-10-2.79723E-10-3.91163E+03-4.49160E+03
 -1       708-6.94147E-11-5.63665E-11 1.48892E-09-2.48646E-12 5.57629E+01-1.01283E+03
 -1       709-7.57079E-11-9.74235E-11 6.79905E-10-8.13527E-12 2.39179E+02 9.17667E+01
 -1       710-1.38217E-10-2.22070E-11 3.20181E-10-1.99772E-11-9.22461E+01 6.29512E+01
 -1       711 6.36829E-11 3.93867E-12-6.59406E-10 6.42579E-11 1.61108E+01-1.04802E+02
 -1       712-3.87852E-10 9.73589E-10-2.32509E-10-4.82054E-10 9.17137E+02-8.44224E+02
 -1       713-1.31109E-10-4.73221E-11 5.02823E-10 2.92978E-10 4.10219E+02-4.95372E+02
 -1       714 3.05166E-11-1.05115E-10-6.05020E-10-6.47068E-11-7.68961E+00 5.39045E+01
 -1       715 5.74882E-11-5.78085E-11-3.11695E-12 6.77347E-12 1.51801E+01 2.79688E+02
 -1       716 7.40528E-11-1.71307E-13 1.98893E-10 2.66529E-11-7.67770E-04 4.41337E+02
 -1       717 8.99902E-11 8.38440E-13-2.04636E-11 2.98783E-11 3.43713E-03 9.68791E+02
 -1       718 2.33422E-11-1.13342E-10 2.56748E-10 3.24754E-11 1.83088E+02 7.16994E+02
 -1       719 6.36883E-11 2.26379E-11-2.36838E-10-1.49271E-10 1.52935E+02-9.51457E+01
 -1       720-2.68301E-11 2.05432E-10-5.24622E-10-2.27374E-11 1.35544E+03-7.11998E+02
 -1       721-9.59948E-11-3.13030E-11-8.21030E-10 4.71867E-11-1.01798E+03 7.87111E+01
 -1       722 3.79287E-11-2.59178E-11-2.89329E-10-4.93927E-11-6.13304E+02-6.52961E+02
 -1       723-3.65656E-11 7.21732E-11-1.12509E-10-5.61475E-11 7.49388E+01 1.94937E+02
 -1       724 6.05034E-11 4.20389E-11 1.45728E-10-8.78941E-12 2.11424E+01 1.14610E+02
 -1       725-1.17976E-10-1.04335E-10 4.03474E-10-3.63032E-11 2.17051E+02-7.76951E+01
 -1       726 1.32184E-10 2.12627E-10-4.87165E-10-2.98235E-11 2.55988E+02 3.11041E+01
 -1       727-4.86580E-11-8.55849E-12 1.71422E-10 1.56035E-11-2.28002E+02 2.51536E+02
 -1       728-3.84877E-11-4.57185E-11-7.92394E-11-6.12606E-11-2.44918E+01-9.80066E+01
 -1       729-4.17337E-11-1.80966E-13 8.33587E-11 4.06200E-11 1.34242E-04 2.06719E+02
 -1       730 1.29079E-11 1.91847E-13-3.98821E-11 1.89377E-11 1.40246E-03 1.83592E+02
 -1       731 2.08071E-12 2.55795E-13 1.05734E-10-1.13403E-11-6.18200E+01-3.31590E+02
 -1       732-2.70859E-11 9.99876E-11 8.94289E-11 1.49925E-11 5.44886E+02 1.73601E+02
 -1       733-1.31003E-10-5.27849E-11 6.52203E-10-2.62965E-11 5.51916E+01 2.60148E+02
 -1       734 1.23236E-10 8.12221E-11-1.10955E-09-1.76855E-11 1.58472E+02 8.35967E+01
 -1       735-5.49057E-11-1.32744E-10 1.69883E-10-8.85777E-11 1.04419E+02 1.33454E+02
 -1       736-5.96717E-11-7.30271E-11 3.72621E-11-4.00805E-11 8.60241E+01 1.13667E+02
 -1       737 1.67226E-10 6.22578E-11-1.55532E-09-7.09818E-11 5.03418E+01 5.47140E+00
 -1       738-1.72605E-10 1.10861E-10-1.74892E-10 3.03366E-11-1.29219E+02-2.27162E+01
 -1       739 7.69020E-11-1.63682E-10-4.93920E-11-3.76534E-11-1.41783E+02-2.66426E+00
 -1       740-1.45050E-10 2.26708E-13 2.05613E-10 1.49880E-10 2.77762E-04 4.31769E+02
 -1       741 2.99316E-12 1.86517E-14-1.66386E-11 8.47677E-12 9.48687E-04 1.28587E+02
 -1       742 3.96326E-11 2.91855E-12 1.10897E-11 3.47840E-11-2.97954E+01-1.38703E+02
 -1       743-2.57216E-12 5.62039E-12 6.65823E-11 1.74687E-11-9.55437E+01-4.37129E+01
 -1       744-1.38177E-10 5.95578E-11 6.72187E-10-1.34130E-11 6.33602E+01-1.75154E+01
 -1       745 9.10145E-11 9.45105E-13-5.10121E-10-5.04012E-11 6.06207E+01 3.99892E+01
 -1       746-2.93899E-11 8.31357E-12 1.94360E-10-2.48757E-11 7.78375E+01 1.22637E+02
 -1       747-2.33696E-11-5.68712E-12-1.15651E-10-6.89759E-11 9.94029E+01 1.27163E+02
 -1       748 1.02338E-10 1.92623E-11-1.30833E-10-6.09103E-11 1.61338E+02 6.82749E+01
 -1       749-1.86624E-10-1.68832E-10 7.22885E-10 7.95128E-11-1.72999E+02 3.20992E+02
 -1       750 1.58039E-10-5.58131E-11 6.04146E-10-1.25908E-11 5.09700E+02 5.33753E+02
 -1       751-2.90025E-10-3.79435E-10 1.66828E-10 3.85837E-10-1.11368E+02-9.83178E+01
 -1       752-2.34508E-10 8.12794E-13 5.28684E-10 1.60032E-10 2.26693E-03 3.21346E+02
 -1       753-7.15068E-11 0.00000E+00-1.61343E-12-2.14868E-11-2.63674E-04 5.47086E+01
 -1       754-9.77485E-11 2.45191E-11 4.53193E-12-6.35669E-12-2.53916E+01 5.61856E+00
 -1       755-8.29701E-11-9.50351E-12 7.46891E-12-6.03203E-11-1.22280E+01-2.81984E+01
 -1       756 1.14696E-10-3.13278E-11-1.53846E-10 1.29525E-10-1.46735E+02-6.86780E+01
 -1       757 1.29228E-10 3.40143E-10-5.24747E-10-8.24805E-11 2.63958E+02 4.23446E+01
 -1       758-6.31055E-11-4.60946E-11-2.61673E-10 2.43370E-12 1.46435E+02 5.73558E+00
 -1       759 8.70406E-11-5.18174E-12-8.44242E-10 3.95364E-11-1.09225E+01 1.02347E+02
 -1       760-1.25888E-10-5.76353E-11 9.74345E-11-1.52979E-11 5.89223E+01 2.05029E+02
 -1       761-5.81291E-11-1.59333E-10 5.27617E-10-1.17207E-11-7.97161E+02-8.79347E+02
 -1       762 7.40954E-11-3.26466E-10-7.15943E-11-3.47837E-11-1.49688E+03 1.28959E+02
 -1       763-3.30033E-10 1.69962E-10 2.94168E-09 5.51239E-11 1.83400E+03-8.49606E+02
 -1       764-6.45457E-11-2.07180E-10 9.62440E-10 2.19345E-11 1.66678E+02 3.45982E+01
 -1       765 3.83110E-10-1.52545E-10-1.27678E-09 2.65555E-10 2.36194E+02 1.30220E+03
 -1       766 3.15481E-11 5.16032E-13 9.78876E-10 1.54863E-10 4.57579E-03 1.51000E+03
 -1       767-1.75024E-10-7.90479E-14-2.95017E-11 7.98650E-12-7.33550E-04 2.10081E+02
 -1       768-2.73406E-10 8.18186E-11 2.05941E-10 1.57243E-11 6.63645E+00 1.20216E+02
 -1       769-3.40711E-10 1.94812E-10 7.84957E-11-1.77003E-11 7.50684E+01 4.38823E+01
 -1       770-9.95697E-10 5.01939E-11 3.11152E-10-1.37064E-10 1.40660E+02-1.57696E+02
 -1       771-1.68319E-09 8.92821E-10 5.70968E-10 5.73528E-10 6.39474E+02-5.55768E+02
 -1       772-2.36168E-10 3.36731E-11 6.19613E-10 4.31644E-11 1.08841E+00-1.05577E+02
 -1       773-1.18488E-10-2.53255E-11 5.18147E-10 3.39564E-11-1.00879E+02-1.37320E+02
 -1       774-3.19069E-11-1.74509E-11 5.30065E-11 1.18259E-11 2.76183E+02-1.07896E+02
 -1       775 4.38192E-11 1.26491E-10 1.80933E-10 9.01403E-11 9.53778E+01-1.50691E+03
 -1       776 9.10820E-10-1.88256E-09 2.65658E-10-5.43395E-10-5.56124E+03-6.06182E+03
 -1       777 1.17776E-09 5.11019E-10-2.62370E-10-8.17723E-10-8.65185E+02-1.90257E+03
 -1       778 8.73356E-10-7.51768E-10-2.81409E-09 2.15969E-10-3.45043E+02 9.92005E+02
 -1       779 6.11465E-10-2.35342E-10-2.96137E-09 4.73619E-10-2.27869E+01 2.35797E+03
 -1       780 3.05818E-10 8.17124E-13 1.87230E-09 2.88814E-10 4.23306E-03 3.26040E+03
 -1       781-4.04967E-10-1.27010E-13-8.44480E-12 1.08336E-10-3.07541E-04 6.36710E+02
 -1       782-3.73582E-10 1.23025E-10 9.15019E-11-1.33547E-11 4.20453E+01 5.40086E+02
 -1       783-1.74429E-10 1.71638E-10 4.58535E-10 9.51701E-11 6.22293E+01 4.45268E+01
 -1       784 4.13762E-11-2.65638E-10 1.97238E-11 1.20136E-10 3.72460E+01 3.64507E+01
 -1       785 9.22521E-13 3.03781E-10 2.74660E-10-2.05375E-10 1.81965E+02-3.88245E+01
 -1       786 5.67155E-11-8.45972E-11 3.74552E-10-2.35936E-11 6.39116E+01 2.12925E+02
 -1       787-4.55714E-10-1.58025E-11-8.52395E-10-1.11015E-10-6.32267E+02 1.42106E+03
 -1       788 2.29034E-10-9.19377E-11-1.84216E-09-5.47876E-11-1.49519E+03-9.84318E+02
 -1       789-6.56080E-10 6.58881E-10-1.09735E-09-4.19107E-10-5.48880E+01 8.45916E+01
 -1       790-3.65773E-10-1.39012E-09 9.88237E-10 1.48608E-10-5.82537E+02 6.14156E+02
 -1       791 1.06900E-09-4.89533E-10-2.32457E-09-1.15215E-10-3.19200E+02 5.84618E+03
 -1       792 1.80034E-09-1.77636E-12 9.61137E-10 4.27377E-10-1.79958E-03 6.19281E+03
 -1       793-1.01537E-11-4.32578E-11 9.32189E-10 8.53930E-11 1.59110E+02-1.31004E+02
 -1       794 1.31844E-10-4.84566E-11-4.18615E-10-3.81644E-11-1.04405E+02-5.79111E+01
 -1       795 2.10919E-11 3.10917E-11-3.33215E-10 6.81157E-11-1.30987E+02-4.73968E+01
 -1       796 8.30003E-12 7.83098E-11-1.02206E-10 4.81455E-11-8.47599E+01-6.76430E+00
 -1       797-3.18252E-11-2.86803E-10 1.71310E-09 8.60751E-11-1.52871E+02 3.70818E+01
 -1       798 2.84953E-10-2.27828E-10 9.70449E-10-1.13545E-11 8.03810E+02-4.43897E+02
 -1       799 2.25408E-10 9.45434E-10-7.31229E-10-2.14186E-10 7.26550E+02-5.48642E+02
 -1       800 2.16687E-10-8.81698E-10-1.74822E-10-3.86081E-10-1.54822E+03-1.29640E+03
 -1       801 3.87508E-11-2.43514E-10 2.90932E-10-1.26308E-11-6.76253E+02-1.73242E+01
 -1       802 1.60911E-11-6.14855E-11 1.34602E-11 4.83937E-11-3.08993E+02-7.75115E+00
 -1       803 5.74945E-11 1.35961E-10-1.56293E-10 9.09116E-11-2.24731E+02-1.80734E+01
 -1       804 3.22062E-11-1.95399E-11-2.46743E-11-1.69602E-11-8.15918E+01-1.07504E+02
 -1       805 2.65975E-11 2.55795E-12-2.78555E-11-5.03952E-12-1.10822E+02-2.44589E+02
 -1       806 1.83562E-10-3.51103E-10 4.56700E-10-2.03357E-11 6.11684E+02 4.20656E+01
 -1       807-6.33124E-11 8.48672E-11 6.40265E-10-3.66697E-10 1.88511E+03-3.35879E+01
 -1       808-2.07795E-10 5.16593E-10-7.65272E-10-6.00409E-11 5.74373E+03-3.01322E+02
 -1       809-3.70426E-13-1.52809E-10-1.47575E-10 2.41416E-11-6.47227E+02-4.81800E-04
 -1       810-6.38378E-15 2.05844E-11 1.13736E-11-2.95950E-11-4.16830E+02 5.18663E-04
 -1       811-4.16334E-14 5.19353E-11 4.57885E-11 4.02745E-12-1.18076E+02 2.99366E-04
 -1       812-1.89404E-13 4.19735E-11 3.35243E-11 1.66791E-11-5.79737E+01 5.59025E-04
 -1       813-6.94556E-13 3.46034E-12 2.18529E-10-2.54623E-11 3.67253E+02 3.02265E-03
 -1       814-1.49614E-12-6.69047E-11 2.58419E-10-3.68843E-11 8.91491E+02 3.10588E-03
 -1       815-1.88227E-12-8.53788E-11 4.44507E-10-7.81739E-11 2.82701E+03 4.79969E-03
 -1       816 2.55085E-12-1.78716E-10-2.15087E-09-8.10587E-11 6.23562E+03 4.74675E-04
 -1       817 3.64980E-03-1.40095E+04-3.94722E-03 1.48022E+02 5.12036E+03-4.77109E-03
 -1       818 3.01450E-03-1.08866E+04-3.85304E-03 2.43496E+02 3.20242E+03 2.64314E-03
 -1       819 2.29925E-03-8.20746E+03-2.95046E-03 2.92251E+02 2.72300E+03-1.36111E-03
 -1       820 2.21024E-03-6.30293E+03-3.28322E-03 1.77908E+02 1.14139E+03 4.15703E-03
 -1       821 5.59218E-04-4.77613E+03-3.37373E-03 6.28963E+01 1.00197E+03-1.68194E-03
 -1       822-3.58577E-04-3.61339E+03-2.54265E-03 7.69054E+01 6.66246E+02 4.06995E-04
 -1       823 1.11939E-03-2.39952E+03-1.08231E-03 1.44173E+02 1.43278E+02-3.09112E-04
 -1       824 1.10893E-03-1.35789E+03-1.35853E-03 1.21193E+02-1.44140E+00 2.25027E-03
 -1       825 3.25889E-04-5.40184E+02-1.41305E-03 4.20062E+01 4.81764E+02 3.13617E-04
 -1       826 7.17124E-04 1.03053E+02-1.81367E-05 3.46153E+01 1.15391E+01 1.25684E-04
 -1       827 3.09926E-04 6.93264E+02 1.28650E-04 5.73776E+01-1.59515E+02-2.29502E-04
 -1       828-2.90719E-04 1.15470E+03 4.42491E-04 5.00614E+01-2.97303E+02 8.65608E-04
 -1       829-1.63788E-04 1.64291E+03 4.58812E-04 5.86722E+01-5.68935E+02-4.89338E-04
 -1       830-5.10766E-04 2.30199E+03 6.93406E-04 5.38138E+01-7.13811E+02 7.33575E-04
 -1       831-7.68111E-04 2.98718E+03 5.72027E-04 3.00292E+01-1.11405E+03-9.06271E-04
 -1       832-1.00292E+02-1.06235E+04 1.02751E+03 2.95337E+03-3.21034E+02-8.88351E+02
 -1       833-3.22456E+02-6.48709E+03 1.05522E+03 1.92668E+03-3.00798E+02 2.85528E+02
 -1       834-1.90061E+02-4.08522E+03 7.19501E+02 9.76991E+02-2.57884E+01 2.89154E+02
 -1       835 6.69685E+01-2.44707E+03 6.54907E+02 1.13728E+03 1.93159E+01 9.59248E+01
 -1       836-2.01437E+02-2.01132E+02 7.94349E+01 6.55448E+02-6.15887E+01 8.16615E+01
 -1       837-6.84922E-01 5.17289E+02-6.96317E+01 3.95607E+02 5.36524E+01 1.46821E+02
 -1       838 6.41716E+01 1.26440E+03-1.69553E+02 4.94531E+02 4.05926E+01 8.33450E+01
 -1       839-7.75047E+00 2.24059E+03-2.05261E+02 6.35244E+02 8.88454E+00-1.90593E+02
 -1       840-8.76526E+02-7.36125E+02 2.05503E+03 5.41479E+03 4.75736E+03 5.15933E+00
 -1       841-1.06343E+03-8.38963E+02 2.08273E+03 4.36681E+03 3.12606E+03 7.10459E+01
 -1       842-1.11258E+03-7.26934E+02 2.11044E+03 3.22383E+03 1.58318E+03-1.83592E+02
 -1       843-9.77508E+02-1.38240E+03 1.77472E+03 2.39185E+03 1.46113E+03 9.26906E+01
 -1       844-5.04309E+02-1.81783E+03 1.43901E+03 1.67121E+03 4.13268E+02 8.77064E+01
 -1       845 1.84594E+02-2.34804E+03 1.37441E+03 1.63567E+03 4.17966E+02-1.12726E+02
 -1       846 1.79095E+02-2.71060E+03 1.30981E+03 1.86486E+03 2.63513E+02-2.28772E+01
 -1       847-4.82821E+02-1.06639E+03 7.34343E+02 1.93860E+03 4.02749E+02-5.99731E+02
 -1       848-4.92407E+02 3.42274E+02 1.58871E+02 1.03531E+03 1.01423E+02-9.39898E+01
 -1       849-2.64160E+02 2.53372E+02 9.80362E+00 7.22433E+02 2.39819E+00 5.14556E+01
 -1       850-4.78596E+01 8.61673E+01-1.39264E+02 6.57368E+02-2.08855E+02 1.43373E+01
 -1       851 1.11531E+02 5.66629E+01-2.39186E+02 7.61203E+02-2.65776E+02-6.70308E+01
 -1       852 2.14325E+02 5.98162E+01-3.39107E+02 8.69116E+02-3.95869E+02 8.83679E+00
 -1       853 1.77701E+02 1.25020E+02-3.74816E+02 1.01615E+03-6.48809E+02 5.08120E+01
 -1       854 1.01993E+02 1.40991E+02-4.10524E+02 1.14104E+03-1.04474E+03-5.46338E+01
 -1       855-2.03002E+03 9.71573E+03-1.15959E+03 2.91808E+03 7.26768E+02-4.01595E+02
 -1       856-2.37885E+03 4.56660E+03-4.39914E+02 1.06627E+03 2.48072E+02-1.28270E+02
 -1       857-5.37514E+02-2.55521E+02 6.83502E+02 3.04431E+02 1.82491E+02 1.61170E+02
 -1       858 2.32973E+02-2.20287E+03 6.49462E+02 5.97949E+02-2.38299E+02-1.41077E+02
 -1       859-1.87923E+02 6.00505E+02-4.41937E+01 2.03747E+02-4.45457E+01-2.63185E+01
 -1       860 5.66946E+01-2.83021E+02 4.62897E+01 3.10577E+02 1.33526E+01-7.04301E-01
 -1       861 2.73601E+02-9.56968E+02 1.43309E+02 5.51572E+02 6.91675E+00-6.24239E+01
 -1       862 3.24596E+02-2.03673E+03 2.75622E+02 6.44240E+02-7.63797E+01 4.19998E+01
 -1       863 2.50279E+02 3.29311E+02 2.97406E+02-8.26161E+03-1.91058E+03-1.57562E+03
 -1       864 5.84634E+02 4.04592E+03-2.03839E+03-6.64878E+03 1.24765E+03-2.21889E+03
 -1       865-1.80948E+03 1.02801E+04-4.37420E+03-2.87137E+03 5.70731E+02-9.07055E+02
 -1       866-3.75068E+03 9.98255E+03-3.68224E+03-7.03615E+02 6.23116E+02 1.95055E+02
 -1       867-3.72146E+03 8.28722E+03-2.99027E+03-5.75883E+02 4.52367E+02-1.69751E+02
 -1       868-1.58033E+03 2.36643E+03-1.53114E+03-1.97846E+03-2.82408E+02 3.56352E+02
 -1       869-1.10402E+02-2.69688E+02-7.20059E+01-1.10273E+03 4.46372E+02 7.37256E+02
 -1       870 4.88021E+02-8.00515E+02-4.14473E+01-4.01550E+02 4.72159E+02-1.81796E+02
 -1       871 5.45240E+02-1.26318E+03-1.08910E+01 1.25980E+01 9.71583E+02 5.05363E+02
 -1       872-5.37882E+01 4.50029E+02-2.47257E+02-1.83651E+02-7.38881E+01 5.15186E+01
 -1       873-7.74040E+01-2.39044E+01-7.70745E+00-1.02549E+02-1.47427E+02 8.93224E+01
 -1       874 2.00076E+02-6.42344E+02 2.31843E+02-2.18342E+01 5.61552E+01 8.79852E+00
 -1       875 2.98976E+02-1.07239E+03 4.28785E+02 6.92600E+01-8.12429E+01 1.16029E+01
 -1       876 3.06367E+02-1.42206E+03 6.25726E+02 1.44627E+02-2.12426E+02-4.42657E+01
 -1       877 4.34878E+02-1.90620E+03 7.93747E+02-6.61147E+01-9.69300E+01 4.30024E+00
 -1       878 2.99661E+02-2.22848E+03 9.61766E+02-5.16043E+02-1.62445E+02-7.14392E+01
 -1       879-7.37790E+01-9.31212E+02 4.58455E+02-1.39534E+03-2.62204E+02-5.22245E+02
 -1       880-3.78419E+01-1.14064E+02-4.48547E+01-1.78815E+03 3.42462E+02-3.49710E+02
 -1       881 3.82073E+03 4.59867E+02-1.85887E+03-6.09173E+03-2.24653E+03 1.03894E+03
 -1       882 8.02396E+02 7.64299E+03-3.35013E+03-1.25999E+03-7.64671E+02-2.80751E+02
 -1       883-5.75902E+02 1.12790E+04-2.36984E+03 3.06579E+03-1.07786E+03 4.97595E+02
 -1       884 2.52917E+02-7.98927E+02 1.83426E+02-3.63339E+02-2.13892E+02 1.08198E+02
 -1       885 3.36795E+02-1.80820E+03 4.67729E+02-1.39142E+02 4.16408E+01 7.69514E+01
 -1       886-1.86538E+02-1.62304E+03 7.36529E+02-2.80752E+02 5.45583E+01-9.52703E+01
 -1       887-7.85313E+02-1.96230E+02 4.07376E+02-1.35856E+03 4.62267E+02 2.27294E+02
 -1       888-1.31436E+04 3.99803E-03-2.52213E-03 1.80657E+02-4.98061E-03 5.11690E+03
 -1       889-9.83185E+03 1.82803E+01 9.33315E+02 3.05347E+03-9.04194E+02 1.51073E+01
 -1       890-7.23539E+02-5.43577E+02 1.86663E+03 5.48971E+03-2.97860E+02 4.59263E+03
 -1       891 8.66717E+03-1.68288E+03-1.07426E+03 3.42111E+03 1.30776E+02 5.19335E+02
 -1       892 9.45926E+03-1.51326E+03-4.01515E+03-1.72739E+03-3.59964E+02 5.69292E+02
 -1       893 6.62012E+03 1.19980E+03-3.17061E+03-7.31928E+02-6.28090E+02-1.63008E+02
 -1       894 2.57681E+03 3.09274E+03-2.32606E+03 1.26246E+03 1.63648E+02 4.36099E+02
 -1       895 1.08485E+03 4.40494E+03-2.03775E+03 3.09368E+03-3.49047E+03-1.09531E+03
 -1       896 2.19806E+03 3.13148E+03-1.74943E+03 4.25692E+03-1.93517E+03-1.79273E+03
 -1       897 2.97578E+02-4.64946E+02 1.35010E+02-8.81548E+02 1.13054E+02 2.53828E+02
 -1       898 5.99028E+02-1.13091E+03 2.22372E+02-8.37242E+02 3.37103E+02 1.66911E+02
 -1       899 5.15928E+02-1.58636E+03 3.09733E+02-1.92375E+02 2.46445E+02-2.13473E+02
 -1       900 3.13465E+02-1.37384E+03 4.10514E+02 1.89565E+02 5.27446E+02-1.48836E+02
 -1       901-4.51569E+02-8.09702E+02 5.11294E+02 1.80919E+02-4.92248E+01 7.88488E+01
 -1       902-1.42443E+03-3.21220E+02 6.85451E+02-2.38711E+02 8.95635E+01-1.51293E+02
 -1       903-1.98930E+03 3.33944E+02 8.59609E+02-4.60920E+02 1.80497E+02 9.69535E+01
 -1       904-1.91629E+03 4.16736E+02 2.16277E+02 7.58845E+02 8.01254E+01 1.98389E+02
 -1       905 1.31889E+02 1.77191E+02-4.27056E+02 1.26600E+03 1.85596E+01 9.84506E+02
 -1       906 2.13085E+03 3.18648E+01-2.13527E+02 7.06325E+02 1.57074E+02-4.32978E+01
 -1       907 2.84833E+03-6.90554E-04 5.87647E-04 5.62645E+01 9.44995E-04 1.10765E+03
 -1       908-9.88418E+03 2.64224E-03-3.12509E-03 2.84972E+02 4.45994E-03 3.08064E+03
 -1       909-5.05537E+02-9.42435E+02 1.68925E+03 4.80336E+03 2.30197E+02 2.78371E+03
 -1       910 8.09521E+03-2.29455E+03-3.26117E+03 3.65366E+02 9.43589E+00 4.59458E+02
 -1       911 5.12734E+03-1.12615E+03-1.52409E+03 2.08499E+03-3.99489E+02-2.78185E+03
 -1       912-3.21714E+03-8.02680E+03 2.06704E+03-4.37413E+03-3.88233E+02-7.65587E+02
 -1       913 1.31389E+03 4.86247E+02-4.45900E+02-1.14074E+03-7.31759E+01 3.22262E+01
 -1       914-6.68487E+02-4.38662E+02 4.03342E+02 7.15243E+02 1.52156E+02-7.51612E+02
 -1       915-1.87902E+03 7.56826E+02 6.94405E+02 4.66135E+01-3.51714E+01 1.23566E+02
 -1       916 1.34744E+02 2.12811E+02-3.88497E+02 1.06215E+03-1.95262E+01 6.03319E+02
 -1       917 2.08665E+03-5.69475E-04 7.18715E-04 6.42443E+01-6.58086E-04 6.27451E+02
 -1       918-6.79809E+03 1.28044E-03-2.13850E-03 2.89575E+02-2.32337E-03 2.38506E+03
 -1       919-5.20841E+03-4.14385E+02 7.55929E+02 2.29616E+03 3.23271E+02-2.04904E+02
 -1       920-6.08737E+01-1.26687E+03 1.51186E+03 4.00695E+03-5.69059E+01 1.59250E+03
 -1       921 4.22398E+03-1.76339E+03-4.97664E+02 2.84933E+03-3.04695E+02 5.76827E+01
 -1       922 6.24390E+03-1.98565E+03-2.50719E+03 1.37278E+03-3.30216E+02 8.15820E+02
 -1       923 8.06376E+03-2.36378E+03-1.61465E+03 5.31663E+02 1.11998E+02-1.91907E+02
 -1       924 6.35190E+03-3.16637E+03-7.22119E+02 9.51432E+02-1.13946E+03-1.36888E+03
 -1       925-5.72432E+03-4.52802E+03 2.58070E+03-4.03215E+03 1.19135E+02-2.76521E+02
 -1       926-7.50972E+03-7.00110E+03 3.71407E+03-7.85504E+03-4.80644E+03-5.34837E+03
 -1       927-2.08390E+03-8.38182E+02 1.59349E+03-1.57798E+03-2.70925E+02-6.14069E+02
 -1       928 1.27502E+02 5.86172E+02-8.12515E+02 4.90325E+02 1.22267E+02-6.61736E+02
 -1       929-1.43139E+01 3.44437E+02-1.50966E+02 1.58459E+02-1.07141E+02-4.00087E+02
 -1       930-4.44113E+00-1.88767E+02 1.51912E+02-1.77702E+01-5.07403E+01-9.29973E+01
 -1       931-1.05397E+02-3.25759E+01 6.61696E+01-9.24141E+01-3.09641E+01-9.68861E+01
 -1       932-6.76299E+01 9.80515E+01-5.52945E+01 6.06759E+00 1.13159E+00 5.79729E+01
 -1       933-2.64830E+01-4.14677E+01 2.44621E+01 4.92592E+01 2.49086E+01-2.28475E+01
 -1       934-3.79873E+01-1.24975E+02 1.75079E+02 1.07322E+02-1.27975E+01-3.36260E+01
 -1       935 4.52863E+02 1.56318E+02-3.24918E+02-3.27915E+02 8.07629E+01-6.95860E+01
 -1       936 1.85250E+03 1.14139E+03-7.57087E+02-1.65858E+03 1.06710E+03-1.05718E+03
 -1       937 2.26339E+03 1.97324E+02-4.53072E+02-7.74386E+02 2.15179E+02-1.46158E+02
 -1       938-3.57144E+02-5.92020E+02 2.95389E+02 1.12199E+03 4.05551E+02-4.76697E+02
 -1       939-2.07520E+03 4.53458E+01 4.12294E+02 8.56631E+02-4.99570E+01-2.37184E+02
 -1       940-1.55340E+03 8.07150E+02 5.29200E+02 8.75291E+01-1.75978E+01 4.29440E+01
 -1       941-8.86878E+02 4.93277E+02 8.96315E+01 3.95691E+02 5.80695E+01 6.60296E+01
 -1       942 8.47242E+01 2.36276E+02-3.49938E+02 8.52811E+02 1.66867E+01 2.73971E+02
 -1       943 1.12089E+03 7.17341E+01-1.74968E+02 5.09036E+02-5.94971E+01-6.09560E+01
 -1       944 1.40910E+03-5.72220E-04 6.66366E-04 6.33201E+01 5.03280E-04 4.48870E+02
 -1       945-4.57857E+03 2.17472E-03-2.00466E-03 1.72606E+02 3.57773E-03 1.04336E+03
 -1       946-3.52051E+01-9.27596E+02 1.08361E+03 3.10694E+03-2.25858E+02 1.16387E+03
 -1       947 5.13830E+03-2.50704E+03-1.57065E+03 9.07101E+02 2.14710E+02 3.88645E+02
 -1       948 5.12097E+03-4.04870E+03-5.60987E+02-2.71944E+03 4.15431E+02-1.53269E+03
 -1       949-9.57066E+02-1.81885E+03 1.53505E+03-1.59439E+03-7.58200E+02-3.02476E+02
 -1       950 2.39450E+02-1.12967E+02-4.38255E+02 4.66522E+00 1.79287E+02 2.01883E+02
 -1       951-1.45810E+02-3.99026E+01 1.56278E+02-6.03423E+01-2.71849E+01 5.52975E+01
 -1       952-1.70485E+01 2.33596E+01-5.11036E+01-1.23006E+01 3.92008E+01 1.08164E+02
 -1       953-7.11872E+01 3.53492E+01 1.01040E+02 1.05726E+01-8.68044E+00 1.04281E+02
 -1       954 2.14214E+02 3.65918E+02-3.20002E+02-3.26484E+02 1.75387E+02-6.74182E+01
 -1       955-3.74128E+02 4.49970E+02 1.70451E+02-3.46590E+02 7.93827E+00-5.09577E+01
 -1       956 2.14487E+02 2.56438E+02-3.18612E+02 6.87254E+02 1.66592E+01 2.26384E+02
 -1       957 8.96907E+02-5.86187E-04 5.89429E-04 3.93271E+01-1.13151E-03 1.64012E+02
 -1       958-2.68989E+03 2.43274E-03-2.04324E-03 1.21849E+02-2.79067E-03 9.82901E+02
 -1       959-2.16883E+03-1.90638E+02 3.27673E+02 1.33316E+03 2.28880E+02-3.65927E+01
 -1       960-2.24788E+02-6.66363E+02 6.55349E+02 2.23571E+03 1.71442E+02 7.10139E+02
 -1       961 2.10202E+03-1.57376E+03 1.06222E+01 1.05562E+03-1.56741E+02-2.75761E+02
 -1       962 3.89241E+03-2.66776E+03-6.34105E+02 1.92697E+02 1.86907E+02-1.12001E+02
 -1       963 4.01119E+03-2.13947E+03-5.16977E+02-7.75857E+02 9.00220E+02 7.73925E+02
 -1       964 2.35685E+03-2.07584E+03-3.99850E+02-2.94499E+03 1.36237E+03-7.06925E+02
 -1       965 6.47401E+02 9.88594E+01-8.05735E+02 4.85955E+02-7.06434E+02 1.28611E+02
 -1       966-1.26140E+02 1.83723E+02-4.29051E+02 3.74064E+01 1.45747E+02 2.07203E+02
 -1       967-4.10797E+02-3.73754E+02 4.68584E+02-4.52914E+02-2.22812E+02-2.19838E+02
 -1       968 2.69860E+01-1.17574E+02 1.45597E+02-1.25715E+02-2.95218E+01 4.41167E+01
 -1       969-5.48509E+01 2.99671E+01-4.88579E+01-6.32801E+01 4.28492E+01 1.40359E+02
 -1       970-6.31868E+01 1.35982E+01-8.67240E+00-4.14938E+01 4.61796E+01 9.23761E+01
 -1       971-3.52909E+01-1.33180E+01 4.71592E+01-2.74224E+01 4.34853E+01 1.17333E+02
 -1       972-2.28445E+01 3.53817E+01-1.82587E+01-1.62943E+01 7.67285E+01 6.26963E+01
 -1       973 7.85857E+01 1.01504E+02-1.03181E+02-7.00746E+01 1.33297E+02 8.10279E+00
 -1       974 1.93314E+01 8.90901E+00 6.46334E+01 2.90435E+01 5.52965E+01 6.04014E+01
 -1       975-1.34362E+02 1.65822E+01 1.47690E+02 1.04196E+02 1.89061E+02 1.92047E+01
 -1       976 1.62259E+02 2.25565E+02-1.88299E+02-2.96877E+02-2.43472E+02 2.49397E+02
 -1       977 1.72719E+02 2.25399E+02-2.37793E+02 1.81702E+02-9.41179E+01 3.88962E+01
 -1       978 3.32762E+02 3.94244E+02-2.87286E+02 5.01354E+02-2.51646E+01-9.45918E+01
 -1       979 4.47253E+02 1.34768E+02-1.43643E+02 2.33818E+02 4.45451E+01 1.33039E+01
 -1       980 4.86951E+02-1.07766E-03 9.01146E-04 7.25525E+00 1.17805E-03 2.12910E+02
 -1       981-1.44702E+03 1.70864E-03-1.00576E-03 8.83954E+01 2.26154E-03 1.60937E+02
 -1       982-3.00223E+02-6.94059E+02 5.43655E+02 1.74110E+03 4.19794E+01 4.80246E+02
 -1       983 1.03131E+03-1.25220E+03-1.43537E+02-6.73733E+02-3.99904E+01 4.12370E+01
 -1       984 3.88411E+02-4.08185E+01-1.64781E+02 1.34746E+02-4.04757E+02-1.16616E+02
 -1       985-1.29131E+02 7.41584E+00 1.55813E+02-1.09677E+02 3.44306E+01-2.09277E+01
 -1       986-5.02837E+01-3.05222E+01 9.08382E+00-5.46238E+01 6.26497E+01 1.20265E+02
 -1       987-3.57607E+00 2.49375E+01 4.03319E+00-5.33827E-01 6.36705E+01 1.21546E+02
 -1       988 3.26538E+01 4.73044E+01-6.35842E+01 1.96450E+01 5.52472E+01 2.86556E+01
 -1       989-1.32143E+02 7.52940E+01 3.03457E+01 2.16400E+01 1.96836E+01-4.46621E+01
 -1       990 2.53666E+02 6.28328E+02-3.96808E+02-8.49114E+01 3.30379E+01 2.33178E+02
 -1       991 4.86819E+02-1.60044E-03 7.34093E-04-5.56221E+00-4.68023E-04-2.23764E+01
 -1       992-4.56368E+02 1.44153E-03-4.95473E-04 4.89220E+01-1.11485E-03 1.92903E+02
 -1       993-4.75976E+02-2.07944E+02 2.15981E+02 6.28163E+02 1.01688E+02 1.25963E+01
 -1       994-3.94066E+02-6.92955E+02 4.31963E+02 1.28472E+03-6.83029E+01-3.25995E+02
 -1       995-4.08666E+02-5.43600E+02 3.89498E+02 5.22120E+02 3.14027E+02 1.36858E+02
 -1       996-6.26300E+02-6.34691E+02 3.47031E+02-8.01178E+02 5.66038E+02 1.71764E+02
 -1       997-1.91812E+02-4.51946E+01 1.56294E+02 1.70269E+00-1.16823E+02-4.71817E+01
 -1       998-4.10757E+01-1.63086E+02 1.53235E+02-5.43863E+01 2.39844E+01-2.05537E+01
 -1       999 3.07457E+01-7.89155E+01-3.33750E+01-5.45255E+01 1.06300E+02 5.31541E+01
 -1      1000-3.01124E+01-6.05753E+01 1.53748E+01-4.88069E+01 8.50170E+01 8.44586E+01
 -1      1001-1.72785E+01-1.98750E+01 2.60340E+01-7.28850E+00 9.12127E+01 1.21961E+02
 -1      1002-6.68461E+00 4.57726E+00 6.22550E+00 4.04454E+00 9.28084E+01 1.05367E+02
 -1      1003 1.27880E+01 3.24924E+01-1.95915E+01 2.78440E+01 9.13608E+01 1.13052E+02
 -1      1004 1.07111E+01 6.49231E+01-3.42088E+01 3.71364E+01 1.01306E+02 7.90962E+01
 -1      1005 1.95548E+01 1.07251E+02-5.67968E+01 6.61838E+01 7.87097E+01 2.40767E+01
 -1      1006-1.01008E+01 1.31194E+02-2.45191E+01 2.69756E+01 8.78057E+01 2.09207E+01
 -1      1007-5.43291E+01 1.28869E+02-1.71552E+01 5.68393E+00-5.30021E+01-3.92649E+01
 -1      1008 3.11897E+02 7.05404E+02-5.06331E+02-7.37731E+02-1.51375E+02 8.25061E+00
 -1      1009 5.05352E+02 2.18594E+02-2.53165E+02-3.84050E+02 5.30495E+01-5.48992E+01
 -1      1010 6.98807E+02-1.49817E-03 1.52936E-03-2.41553E+01 1.94528E-04 4.42684E+02
 -1      1011-3.15841E+01 1.46825E-03-3.78459E-04 2.34963E+01 4.25893E-04-1.55987E+02
 -1      1012-3.29012E+01-5.80234E+02 2.04573E+02 6.47405E+02-1.17621E+02 8.18058E+01
 -1      1013-5.32883E+01-1.47115E+02 9.55434E+01-6.38045E+01-5.49733E+01-4.57060E+01
 -1      1014 2.08570E+01-9.19935E+01-9.49888E+00-2.55307E+01 6.74940E+01 5.88062E+01
 -1      1015 6.69371E-01-1.66980E+01 1.32299E+01 1.15586E+01 7.84269E+01 1.24299E+02
 -1      1016 3.38805E+01 5.10454E+01-3.99354E+01 5.68225E+01 7.80547E+01 1.13752E+02
 -1      1017-1.81526E+01 1.43157E+02-3.59953E+00 9.93067E+01 5.96830E+01 3.33119E+01
 -1      1018 6.27775E+01 2.12708E+02-1.19539E+02 9.56804E+01-2.79666E+02-7.27271E+01
 -1      1019 1.03943E+03 6.97768E+02-8.41660E+02-1.49733E+03-3.79512E+02 4.17007E+02
 -1      1020 1.32229E+03-1.68386E-03 1.55707E-03-7.94575E+01 1.46264E-03-3.06681E+01
 -1      1021 2.04346E+02 1.05783E-03-5.80034E-04 1.36605E+01 5.41046E-04 1.28096E+02
 -1      1022 2.22638E+02-1.11024E+02-1.14081E+01 6.13012E+01 7.55267E+01 6.99411E-01
 -1      1023 2.49945E+02-3.56160E+02-2.28156E+01 2.24194E+01-3.27854E+01-1.38285E+02
 -1      1024 1.60225E+02-2.10281E+02 2.89970E+01-9.13194E+01-9.78563E+01 1.67191E+00
 -1      1025 5.24720E+01-2.22926E+02 8.08098E+01 1.79453E+01-9.61313E+01-4.14771E+01
 -1      1026 4.29319E+01-7.67660E+01-1.01687E+01 1.02590E+01 1.16753E+02-1.90501E+01
 -1      1027 1.06605E+01-7.47717E+01 1.21419E+00 1.25423E+01 1.00627E+02 3.04347E+01
 -1      1028-6.71899E+00-6.09958E+01 3.60783E+01-6.72478E-01 8.03371E+01 5.45484E+01
 -1      1029 1.36631E+01-2.65669E+01 1.08441E+01 2.38931E+01 9.18040E+01 8.42453E+01
 -1      1030 2.34458E+01 1.07470E+00-7.63322E+00 3.91143E+01 8.24070E+01 1.22840E+02
 -1      1031 4.39272E+01 2.67885E+01-3.29588E+01 6.43627E+01 8.33242E+01 1.04774E+02
 -1      1032 5.24509E+01 5.15736E+01-5.23072E+01 7.64334E+01 8.21002E+01 1.12002E+02
 -1      1033 5.71742E+01 9.96049E+01-3.96119E+01 1.25372E+02 7.48099E+01 7.85529E+01
 -1      1034-3.08183E+01 1.22162E+02 2.08729E+01 1.36353E+02 9.74284E+01 3.01058E+01
 -1      1035 5.32777E+01 2.24579E+02-1.89207E+02 1.13475E+02-2.78632E+01-3.91498E+01
 -1      1036 2.37736E+02 7.60903E+01-1.63991E+02 1.16077E+01-3.83904E+02-6.94561E+01
 -1      1037 1.27512E+03 2.00779E+02-1.79150E+02 1.36209E+03 5.44258E+02 5.12222E+02
 -1      1038 1.32998E+03 1.63276E+02-6.78072E+02-5.21827E+02 1.84489E+02 1.71692E+02
 -1      1039 1.84709E+03 4.60244E+02-1.17699E+03-2.01733E+03-1.17221E+02-8.85836E+01
 -1      1040 2.16763E+03 1.44284E+02-5.88494E+02-1.10038E+03 9.26087E+01-2.01837E+01
 -1      1041 2.25704E+03-1.57637E-03 1.39129E-03-1.19360E+02-1.62269E-03 3.46712E+02
 -1      1042 1.72511E+02 5.77798E-04 2.42762E-05-2.81718E+00-3.66588E-04-5.10118E+01
 -1      1043 1.90581E+02-2.33421E+02-1.31224E+01-1.83680E+02 4.61139E+00 1.68097E+01
 -1      1044 1.77736E+02-3.78286E+02 6.71573E+01-4.76769E+01 6.45882E+01-4.69491E+01
 -1      1045 8.26158E+01-3.85003E+01-2.15857E+01-9.09005E-01 1.36244E+02-1.31462E+01
 -1      1046-6.47405E+00-1.95037E+01 3.24912E+01 3.21452E+01 5.34991E+01 6.46418E+01
 -1      1047 4.46562E+01-2.78107E+00-2.76691E+01 6.10280E+01 5.92860E+01 1.31591E+02
 -1      1048 9.21724E+01 5.41721E+01-3.31901E+01 1.31698E+02 5.69698E+01 1.10394E+02
 -1      1049 1.71894E+02 4.89532E+00-1.95277E+02 2.01637E+02 2.46664E+01-6.41090E+01
 -1      1050-5.01210E+02 6.74383E+01 1.55640E+02-1.49285E+02-7.25354E+02-1.49895E+02
 -1      1051-1.08190E+03 6.67485E+02 6.22204E+02 1.44051E+03 1.72460E+02 2.71520E+02
 -1      1052 1.46134E+03 4.28592E+02-1.21279E+03-2.17185E+03 4.03093E+01 8.68672E+02
 -1      1053 3.68680E+03-1.06808E-03 2.24366E-03-1.30652E+02 3.56412E-03 6.87210E+02
 -1      1054 6.20127E+01 5.85071E-04-1.49352E-04-8.82508E+00 5.06463E-04 5.46342E+01
 -1      1055 5.06841E+01-4.53492E+01-1.71448E+00-1.85078E+02-5.09258E+00 1.42501E+01
 -1      1056 1.19096E+02-1.60100E+02-3.42871E+00-3.28474E+02-2.36941E+01 6.19501E+00
 -1      1057 2.82637E+02-3.31322E+02 2.50379E+01-2.63689E+02 3.04816E+01-4.04819E+01
 -1      1058 3.88029E+02-5.03780E+02 5.35044E+01-2.48510E+02-1.58788E+01-2.74235E+01
 -1      1059 3.04825E+02-3.39365E+02 5.04359E+01-1.57451E+02-1.42607E+02 1.70561E+01
 -1      1060 1.78437E+02-2.93996E+02 4.73674E+01 6.96907E+01-1.47755E+02-6.88078E+01
 -1      1061 7.62188E+01-2.93115E+00-8.08362E+01-5.57127E+01 2.18404E+02 3.08069E+01
 -1      1062-3.95622E+00 2.78542E+00-4.02872E+01 1.11307E+01 4.75493E+01 5.32081E+01
 -1      1063-2.74792E+01-5.85290E+01 5.29862E+01 9.03310E+01 8.97896E+01 5.64598E+01
 -1      1064 5.04493E+01-1.32373E+01-1.24726E+01 6.61002E+01 4.37674E+01 6.63149E+01
 -1      1065 8.41277E+01 2.40802E+01-6.85181E+01 9.33794E+01 1.49439E+01 1.16050E+02
 -1      1066 1.18967E+02-1.02865E+01-4.66233E+00 1.13686E+02 2.18250E+01 8.54207E+01
 -1      1067 9.89150E+01-2.84168E+01 3.58680E+01 1.42264E+02 2.15184E+01 1.33583E+02
 -1      1068-1.91198E+01 1.50653E+02-1.82938E+02 2.25122E+02-6.61846E+01 2.84309E+01
 -1      1069 5.32557E+02 4.67134E+02-5.69784E+02 6.44421E+02-3.10569E+02-3.21422E+02
 -1      1070 1.67250E+02-2.12036E+02 4.99111E+02-3.82254E+00 1.45194E+02 2.52525E+02
 -1      1071-8.25348E+02-9.04445E+01 8.81095E+02-5.96442E+02-1.09716E+03 1.73391E+02
 -1      1072-3.61502E+03 2.61427E+03 6.91067E+02 4.58432E+03 1.84919E+03-8.33785E+02
 -1      1073-5.96422E+03 2.42728E+03 1.05731E+03 1.97588E+03 1.07782E+03 1.43528E+03
 -1      1074-5.31042E+03 2.63137E+03 1.42356E+03 8.06848E+02 2.08226E+02 1.44052E+00
 -1      1075-2.47544E+03 1.39492E+03 8.74807E+01-6.55835E+02-2.01447E+02-4.18353E+02
 -1      1076 1.08611E+03 5.15136E+02-1.24860E+03-2.47507E+03 2.25758E+02 1.28682E+03
 -1      1077 4.29532E+03 1.39325E+02-6.24296E+02-1.52593E+03 3.27739E+02-1.03529E+02
 -1      1078 5.27645E+03-2.19270E-03 3.39185E-03-1.56021E+02-3.14698E-03 1.53688E+03
 -1      1079-2.11776E+02 3.57447E-04-1.21335E-04-2.21031E+01-6.26285E-04 2.30358E+01
 -1      1080 9.58904E+01-1.55884E+02 6.55867E+01-4.69329E+02 2.50759E+01 7.90241E+01
 -1      1081 4.58069E+02-3.79814E+02-6.66701E+01-3.42989E+02-2.11880E+01 1.96745E+01
 -1      1082 4.18735E+02-5.63353E+02 2.36898E+01 3.39568E+01 3.70360E+01-1.14856E+02
 -1      1083-1.36007E+02-2.33249E+02 1.88828E+02 2.10318E+02 1.69031E+02-1.63866E+01
 -1      1084 7.55491E+01-2.37176E+01-7.62187E+01 2.39548E+01-4.72045E+00 1.07458E+02
 -1      1085 7.55109E+01-2.48348E+01 2.79990E+01 5.16304E+01 3.00124E+01 9.74555E+01
 -1      1086 2.12279E+02 4.69252E+01-1.91805E+02 1.19939E+02-4.39642E+01 2.94077E+00
 -1      1087-2.96507E+02 1.42799E+02 5.10684E+02 4.93045E+01 2.11427E+02 2.21599E+02
 -1      1088 1.21843E+03 2.26918E+03-1.76060E+03 2.04536E+03-1.15850E+03-4.22858E+02
 -1      1089-7.19380E+03 5.17881E+03 1.04399E+03 4.31788E+03 8.14344E+02-2.29373E+03
 -1      1090-7.09620E+03 2.71651E+03 2.46830E+03-1.33510E+02 3.08931E+02 5.93194E+02
 -1      1091 5.98376E+02 9.34431E+02-1.69664E+03-3.37249E+03-2.80297E+02 1.71029E+03
 -1      1092 7.40209E+03-2.18623E-03 3.13876E-03-1.93327E+02 2.87915E-03 1.78911E+03
 -1      1093-5.40924E+02 2.26367E-04-1.93456E-04-4.21863E+01 4.93316E-04 2.12977E+02
 -1      1094-4.09295E+02-6.17784E+01 6.73009E+01-3.49409E+02-3.85150E+01-8.43570E+00
 -1      1095 4.42743E+01-1.79829E+02 1.34602E+02-6.12037E+02 9.15615E+00 1.18196E+02
 -1      1096 3.99620E+02-2.48941E+02-2.61212E+01-5.15233E+02 4.40152E+01 2.86263E+01
 -1      1097 5.52445E+02-2.62819E+02-1.86845E+02-3.96659E+02 6.98583E+01 4.24300E+01
 -1      1098 7.01314E+02-2.59389E+02-9.34158E+01-3.38988E+02 3.82502E+00-2.59837E+00
 -1      1099 3.67813E+02-2.17118E+02 1.29141E-02-4.21922E+02 1.36713E+02-1.50150E+02
 -1      1100-1.23136E+03-2.01856E+02 3.37681E+02 2.57423E+02 2.04429E+02-2.02897E+02
 -1      1101-1.12594E+03-6.76380E+02 4.14290E+02 9.14089E+02 7.21657E+02-6.79513E+02
 -1      1102-2.72207E+02-9.90064E+01 1.82821E+02 2.14723E+02 3.65947E+01-8.63242E+01
 -1      1103 4.85638E+01 7.67403E+01-1.07382E+02-5.76158E+01-2.51302E+01-6.41176E+01
 -1      1104 6.16768E+01-1.30986E+00-1.90566E+01-2.53735E+01-4.30404E+00-1.37446E+02
 -1      1105 1.20666E+02-1.11197E+02 2.81590E+01 4.21492E+00-1.90277E+01-1.11871E+02
 -1      1106 1.79143E+02 3.50815E+01-8.94779E+01 1.24651E+02-5.77276E+01-3.17392E+02
 -1      1107 3.00684E+01 2.18145E+02-1.53642E+02 4.53186E+01-7.80128E+01-3.48704E+02
 -1      1108 3.43647E+01-4.36395E+02 1.32500E+02-1.85933E+02-1.35086E+02-7.20157E+02
 -1      1109-1.32117E+02-7.24199E+02 8.89640E+02-6.03586E+02 1.63960E+02-1.04079E+03
 -1      1110 2.70569E+03 1.02471E+03-1.85829E+03 2.01777E+03-3.67933E+02-9.28489E+02
 -1      1111 9.53609E+03 7.89264E+03-4.02016E+03 8.82693E+03-6.53529E+03-7.11305E+03
 -1      1112 6.98954E+03 4.89530E+03-2.57673E+03 3.28253E+03-9.11645E+02-1.44549E+03
 -1      1113-8.85303E+03 3.76573E+03 1.39691E+03-1.05671E+03-8.46030E+02-1.81496E+03
 -1      1114-1.11661E+04 2.86528E+03 2.45497E+03 3.18302E+01 2.98142E+02 3.65765E+01
 -1      1115-8.55104E+03 2.35111E+03 3.51303E+03-7.42207E+02-3.02315E+02 9.53800E+02
 -1      1116-5.57525E+03 2.06245E+03 6.84177E+02-2.71679E+03-3.82196E+02-3.47252E+01
 -1      1117 4.08834E+02 1.47011E+03-2.14468E+03-4.31658E+03-3.53737E+01 2.32001E+03
 -1      1118 7.58290E+03 4.75374E+02-1.07234E+03-2.48909E+03 4.33516E+02-3.33831E+02
 -1      1119 9.85189E+03-1.22759E-03 3.14806E-03-3.27897E+02-1.61551E-03 3.30656E+03
 -1      1120-1.00709E+03 3.45885E-04-3.37531E-04-4.65295E+01-8.32327E-04 3.32756E+02
 -1      1121-4.47981E+01-1.30052E+02 1.82450E+02-7.10705E+02-2.46243E+01 2.78645E+02
 -1      1122 7.46895E+02-2.57470E+02-3.08245E+02-2.14757E+02-1.67534E+01 5.00444E+01
 -1      1123 2.49410E+02 1.23133E+02-1.25197E+02-3.75086E+02 9.55723E+01-3.78113E+02
 -1      1124-8.80741E+02-9.58440E+01 1.93890E+02 5.30059E+02 6.26644E+01-3.20721E+01
 -1      1125 5.64375E+03 5.97358E+03-2.61263E+03 4.18485E+03-1.15909E+03-1.31244E+03
 -1      1126-6.54418E+03 1.45204E+03 1.88515E+03-2.34554E+03-9.22175E+02-3.81837E+03
 -1      1127-1.07606E+04 3.00164E+03 4.44974E+03 4.47977E+02 9.94329E+00 8.20982E+02
 -1      1128 8.04787E+02 1.13072E+03-2.28045E+03-5.37219E+03 2.75784E+02 3.72392E+03
 -1      1129 1.32219E+04-3.24349E-03 4.21881E-03-2.99630E+02 4.10447E-03 3.98231E+03
 -1      1130-1.48988E+03 5.03955E-04-1.74888E-04-3.92476E+01 8.13470E-04 6.41665E+02
 -1      1131-1.09515E+03-7.79214E+00 1.15148E+02-4.48809E+02 9.90103E+01 2.59835E+01
 -1      1132-9.52723E+01-8.35490E+01 2.30297E+02-7.89222E+02 4.41084E+01 5.35445E+02
 -1      1133 8.95739E+02-1.96920E+02-9.96744E+01-5.39725E+02-1.38824E+00 1.07280E+02
 -1      1134 9.34399E+02-1.06906E+02-4.29645E+02 7.59518E+01 6.19910E+01 4.23589E+01
 -1      1135 5.84295E+02 2.74910E+02-3.40026E+02 6.01422E+01 8.49978E+01-1.57852E+01
 -1      1136 2.28771E+01 5.69446E+02-2.50408E+02-5.96613E+01 3.00533E+01 3.79874E+01
 -1      1137-3.31989E+02 1.02572E+03-2.68988E+02-6.41626E+01 3.75182E+02-1.40222E+02
 -1      1138-4.20842E+02 1.30100E+03-2.87568E+02 2.44680E+02 1.72407E+02-3.82898E+01
 -1      1139-4.16458E+02 9.15998E+02-2.13509E+02 7.62403E+02 3.02872E+02 1.67434E+02
 -1      1140-1.74279E+02 4.53237E+02-1.39450E+02 7.29847E+02 6.16788E+01 2.16116E+02
 -1      1141 2.14342E+03-2.41872E+03 1.77766E+02 3.76810E+03-6.10900E+02 1.44579E+03
 -1      1142 4.15942E+03-5.77949E+03 7.51442E+02 3.37442E+03-1.69413E+03 6.62004E+02
 -1      1143 2.26676E+03-7.13152E+03 1.32511E+03-8.88753E+02-1.41330E+03-9.60947E+02
 -1      1144 6.59451E+02-5.66564E+03 1.84926E+03-2.10500E+03-3.49610E+03-1.38583E+03
 -1      1145-2.99076E+03-2.64387E+03 2.37340E+03-7.08684E+02-1.45208E+01 1.28434E+02
 -1      1146-8.86249E+03-9.86635E+02 3.87991E+03 1.70053E+03-6.50515E+02-1.16840E+02
 -1      1147-1.25477E+04 1.91342E+03 5.38644E+03 2.87555E+03-5.96154E+02 6.01370E+02
 -1      1148-1.14207E+04 2.16220E+03 1.48511E+03-3.65989E+03 1.62423E+02 4.60445E+02
 -1      1149 9.83439E+02 6.44705E+02-2.41622E+03-6.29431E+03-3.25049E+02 5.78800E+03
 -1      1150 1.27443E+04-4.93460E+01-1.20811E+03-3.43514E+03-1.17490E+03-9.21729E+01
 -1      1151 1.68495E+04-4.89554E-03 3.75731E-03-1.49863E+02-5.21971E-03 6.24478E+03
 -1      1152 3.75211E+02 1.30888E+02-2.03251E+02 6.73204E+02 2.72612E+02 8.08108E+01
 -1      1153-1.65768E+01 1.17017E+03-4.58488E+02 2.85420E+02 1.92842E+01-4.12293E+01
 -1      1154-2.60797E+02 1.43349E+03-3.79031E+02 2.97337E+02 5.18156E+00 5.92465E+01
 -1      1155-1.81741E+02 7.34465E+02-1.91171E+02 4.10810E+02-2.08281E+02 6.00213E+01
 -1      1156 1.88412E+03-4.00715E+03 6.72714E+02 1.02121E+03 9.97344E+02 8.91077E+02
 -1      1157 2.00198E+03-9.41907E+03 2.20261E+03-6.18002E+02 3.93126E+00 4.25916E+02
 -1      1158-1.42880E+03-8.05304E+03 3.75490E+03 1.39656E+03-2.34851E+02-5.81233E+02
 -1      1159-5.17352E+03-6.63882E+02 2.56437E+03 7.82654E+03-2.77526E+03 1.15251E+03
 -1      1160 3.39738E+00 6.23294E+01 2.31416E+01 1.05694E+03 1.68871E+02-1.45874E+02
 -1      1161 2.82488E+01 6.57373E+02-3.21713E+02 9.18551E+02-1.60895E+02-3.16875E+02
 -1      1162-2.26243E+02 1.56636E+03-6.66569E+02 4.82648E+02-1.03588E+02-6.00480E+01
 -1      1163-3.14941E+02 1.35520E+03-5.68532E+02 2.56117E+02-9.34637E+01-4.59813E+00
 -1      1164-2.05884E+02 1.04749E+03-4.70494E+02 1.53268E+02-1.25172E+02-4.28289E+01
 -1      1165-2.25816E+02 9.03785E+02-3.56693E+02 1.82946E+02-1.27366E+02 5.89508E+01
 -1      1166-3.03830E+02 8.13578E+02-2.42893E+02 2.32255E+02-8.01932E+01-1.85801E+00
 -1      1167 2.48838E+03-4.97325E+03 1.16767E+03-1.04107E+03-1.67902E+02 7.83114E+01
 -1      1168 2.09186E+03-6.03467E+03 2.12389E+03-1.40655E+03 5.28315E+02 1.46625E+02
 -1      1169 2.04858E+03-7.39378E+03 3.08011E+03-1.71304E+03 7.71459E+02-4.01103E+02
 -1      1170 2.55022E+03-9.72454E+03 4.10826E+03-2.30856E+02 5.82721E+02 1.17461E+02
 -1      1171 1.36508E+03-1.15205E+04 5.13641E+03 2.33607E+03 7.12176E+02-5.57832E+02
 -1      1172-7.47662E+02-4.73712E+03 2.43935E+03 7.40543E+03 1.15032E+03-2.87954E+03
 -1      1173-1.93287E+02-3.59802E+02-2.57686E+02 1.01503E+04-1.66990E+03-1.41269E+03
 -1      1174-2.14905E+02 1.38532E+03-1.93724E+02-2.66736E+02 1.34209E+01 2.81752E+01
 -1      1175-1.70587E+02 6.56560E+02-1.09494E+02-1.17797E+02-2.66797E+01-2.71488E+01
 -1      1176-1.33722E+02 1.91779E+02 2.04831E+01 1.08852E+02 4.04248E+01-5.98445E+01
 -1      1177 1.84245E+03-2.52956E+03-2.41179E+01-1.92011E+03-9.84825E+02-3.78006E+02
 -1      1178 1.84293E+03-5.02992E+03 7.03196E+02-3.42942E+03 1.08733E+02-3.64581E+02
 -1      1179 1.86242E+03-1.06926E+04 1.37451E+03-4.03836E+03 5.62731E+02 1.60947E+02
 -1      1180-4.35503E+01-1.31649E+02 2.79120E+02-5.62483E+02-6.69054E+02-1.79188E+01
 -1      1181-9.06725E+01-1.13643E+02 2.65313E+02-4.69097E+02-4.51626E+02 3.21076E+01
 -1      1182-9.17653E+01-8.12033E+01 2.51506E+02-3.63744E+02-3.03910E+02-7.69990E+00
 -1      1183 2.86781E+01-2.55662E+02 2.67683E+02-2.98049E+02-2.55276E+02-3.08769E+01
 -1      1184 8.31919E+01-5.30518E+02 2.83859E+02-3.27673E+02-2.25019E+02-1.80639E+01
 -1      1185-4.00261E+01-3.98718E+02 2.52180E+02-4.55386E+02-1.38140E+02-1.38320E+02
 -1      1186 3.75039E+00-1.57347E+02 2.20502E+02-3.64168E+02-8.63452E+01-1.16142E+02
 -1      1187 2.52677E+02-2.31962E+01-1.48448E+02-5.28603E+02 1.85292E+01-2.24681E+01
 -1      1188 7.76259E+02 1.99510E+02-5.17397E+02-8.83274E+02-9.96679E+01-2.60077E+02
 -1      1189 1.39943E+03 9.36751E+02-8.66648E+02-2.08336E+03 5.50969E+02-3.47123E+02
 -1      1190 1.10330E+03 1.19448E+03-1.21590E+03-3.26296E+03 6.12005E+02 3.04604E+01
 -1      1191 1.00061E+03 3.14325E+02-1.44481E+03-4.09536E+03 1.53123E+03-3.36731E+02
 -1      1192 1.27018E+03 1.05213E+02-1.67371E+03-4.98949E+03 1.85183E+03-4.62174E+01
 -1      1193 1.01382E+03 6.54603E+02-2.03056E+03-5.88342E+03 3.41435E+03 2.71665E+02
 -1      1194 6.43935E+02 9.15170E+02-2.38740E+03-6.65493E+03 5.68825E+03-3.16706E+02
 -1      1195 1.92302E+01-1.49305E+03 1.39560E+02-2.88051E+02 2.74914E+01-1.33867E+02
 -1      1196-2.75366E+01-1.04745E+03 1.25752E+02-2.17325E+02 6.77163E+01 6.39655E+01
 -1      1197 3.66817E+01-7.44661E+02 1.41929E+02-2.45926E+02 1.97815E+01 2.30408E+01
 -1      1198-2.21773E+01-2.21235E+02 1.10251E+02-2.05937E+02 1.80549E+01 7.83709E+01
 -1      1199 2.26434E+02 2.97375E+02-2.58698E+02-4.90801E+02-2.46079E+00 2.88635E+02
 -1      1200 3.94386E+02 2.47756E+03-6.07948E+02-1.84857E+03 2.54178E+01 2.69802E+02
 -1      1201 3.88075E+02 6.49942E+03-8.36854E+02-2.90747E+03-2.69282E+02 4.04112E+02
 -1      1202 9.78506E-01 1.21439E+04-1.19370E+03-3.70434E+03-1.79969E+01-1.02767E+03
 -1      1203 4.54971E-04-1.93717E+03-4.43894E-04 3.62334E+00-6.53232E+02-3.88697E-04
 -1      1204 2.94794E-04-1.64252E+03-4.90827E-04-2.06038E+01-4.76612E+02 1.50369E-04
 -1      1205-9.23736E-05-1.37312E+03-5.43980E-04-3.30506E+01-4.22242E+02 2.11437E-05
 -1      1206-6.64164E-05-1.08557E+03-4.95210E-04-2.66059E+01-2.84526E+02 2.41921E-04
 -1      1207 2.78935E-04-8.07498E+02-3.99537E-04-3.87644E+01-1.24192E+02 2.31401E-06
 -1      1208 8.77865E-05-5.25444E+02-4.66532E-04-4.36189E+01-5.82698E+01 5.01804E-04
 -1      1209-6.19897E-04-2.85124E+02 4.77270E-04-2.76187E+01-6.27271E+01 5.05270E-04
 -1      1210-6.30236E-04 1.07793E+01 2.74627E-04-2.30331E+01 1.26861E+01-3.77891E-04
 -1      1211-2.19843E-03 3.95239E+02 9.05479E-04-4.88774E+01 3.78407E+02 8.70157E-04
 -1      1212-3.42812E-03 1.36633E+03 1.60329E-03-1.00219E+02-1.66142E+02 1.46901E-03
 -1      1213-2.79673E-03 2.80928E+03 1.93355E-03-2.06888E+02 9.17688E+02-3.19638E-03
 -1      1214-2.38727E-03 5.46487E+03 2.67288E-03-2.64496E+02 1.22289E+03 4.73058E-03
 -1      1215-1.73484E-03 8.46241E+03 3.43213E-03-3.61111E+02 2.86302E+03-2.82178E-03
 -1      1216-2.87012E-03 1.22631E+04 3.75651E-03-3.39813E+02 3.82738E+03 5.03055E-03
 -1      1217-4.12744E-03 1.62512E+04 2.54355E-03-2.26048E+02 6.28698E+03-5.86717E-03
 -1      1218-2.56630E+03-2.16334E+03-1.26760E+03-2.87579E+03-5.67839E+03-6.08833E+03
 -1      1219-2.90230E+02 3.74942E+02-9.92475E+01 1.23326E+02-1.01495E+02-4.82653E+02
 -1      1220-1.76048E+02-4.86814E+01-1.42863E+02-2.92037E+01-2.31733E+02-2.45408E+02
 -1      1221-8.08947E+01 6.48006E+01 8.78618E+01-9.53848E+00 4.74616E+01 4.04355E+01
 -1      1222 3.75124E+01-7.78541E+01 1.40525E+01 3.55272E+01 2.57398E+01-7.60545E+00
 -1      1223 5.77712E+02 3.92932E+02 2.65387E+02-5.97980E+02 1.17177E+03-1.28679E+03
 -1      1224 4.08105E+02-2.91994E+02-7.15788E+01 1.26651E+02-5.43517E+02-1.14847E+02
 -1      1225-3.47373E+02-3.28011E+02 5.69379E+02-5.11623E+02 2.38404E+02 2.82960E+02
 -1      1226-1.31007E+02-6.53732E+00 4.84151E+00-1.40404E+02-1.48415E+01 5.51643E+01
 -1      1227-4.72391E+01 5.62306E+00 4.97211E+01-4.33766E+01 6.89463E+01 1.08470E+02
 -1      1228 5.82538E+01 1.17443E+02-1.31028E+02-6.04803E+01 2.07065E+01 9.89910E+01
 -1      1229-1.00229E+02 1.32373E+02 8.79222E+00 3.56888E+01 1.51061E+02-4.24352E+01
 -1      1230-4.06300E+01-2.29288E+02-1.01471E+02-1.44767E+01-2.51052E+02-2.55315E+02
 -1      1231-6.97782E+00-1.67798E+02 2.67229E+01-1.23874E+02 2.56546E+01-2.97413E+00
 -1      1232-4.26436E+01-4.82998E+01 2.71647E+01-2.88210E+01 6.97078E+01 9.68491E+01
 -1      1233 2.48652E+01 6.52782E+01-3.32324E+01 5.00548E+01 8.02492E+01 9.31665E+01
 -1      1234 2.37306E+01 1.92376E+02-1.05557E+02 1.05769E+02 1.05179E+02 3.99849E+01
 -1      1235-8.62876E+01 2.61104E+02-6.98536E+01 3.47897E+01 1.04855E+01-6.46369E+01
 -1      1236 5.61852E+01-1.55335E+02 4.37719E+01 1.48552E+00 1.43566E+02-3.20306E+01
 -1      1237 3.16529E-01-1.05034E+02 5.82711E+01 1.45095E+01 9.81250E+01 6.41614E+01
 -1      1238 4.46120E+01-1.15392E+00-1.72957E+01 7.62526E+01 7.05902E+01 1.03595E+02
 -1      1239 1.12204E+02 1.11427E+02-7.72629E+01 1.64782E+02 5.88432E+01 8.56709E+01
 -1      1240 2.36466E+01 2.52855E+02-5.45480E+01 2.84651E+02-1.67900E+00-3.57815E+01
 -1      1241 4.03437E+01 3.26919E+02 1.21208E+02 5.39583E+01-5.20842E+02-3.35214E+02
 -1      1242 5.16031E+01-6.82017E+01-1.40136E+01-1.62426E+00 1.82678E+02-1.13488E+01
 -1      1243 5.15441E+00-6.10557E+01 6.52719E+01 1.26321E+02 1.36243E+01 1.02314E+02
 -1      1244 1.39299E+02 1.49169E+01-9.82300E+01 1.63449E+02 4.61032E+01 1.18278E+02
 -1      1245 2.20161E+02 2.12569E+01-3.42764E+01 2.98714E+02-4.35486E+01 2.47126E+01
 -1      1246 4.57692E+02 4.17138E+02-7.43744E+02 7.80084E+02 2.67981E+02 3.29259E+02
 -1      1247-5.23865E+02 4.03811E+02 6.83231E+01-1.16991E+02-8.69177E+02-1.52817E+02
 -1      1248-3.71485E+02-2.57115E+02-1.87310E+02 3.78125E+02 7.59736E+02-8.00257E+02
 -1      1249 3.05954E+01 3.39390E+01-1.36507E+01-2.11032E+00-1.79444E+00-4.50129E+01
 -1      1250 1.90728E+02-9.66442E+01-1.13535E+02 4.29282E+01 1.82028E+01-8.57563E+01
 -1      1251 2.76336E+02 3.84253E+01 1.72898E+02 7.51197E+01-2.97075E+02-5.21443E+02
 -1      1252 4.12155E+02-4.71060E+02 1.14144E+02-1.11258E+02-1.31084E+02-7.83731E+02
 -1      1253 3.32081E+03 2.66336E+03 1.81130E+03 3.66414E+03-7.28422E+03-7.96118E+03
 -1      1254-6.68107E+02-4.48444E+02-1.09055E+03-1.06678E+03-3.28249E+03-3.53509E+03
 -1      1255-9.37173E+02-2.52802E+01 3.70792E+02-7.27717E+02-3.03882E+02-8.66362E+02
 -1      1256-7.59042E+02 2.02559E+02 1.91953E+02-2.51679E+02-1.58733E+02-4.46557E+02
 -1      1257-3.48468E+02 1.71456E+02 2.11924E+02-8.62053E+01 1.83887E+01-2.12356E+02
 -1      1258-3.35180E+02 7.87436E+01-3.76830E+01-4.15768E+01-9.68762E+01-1.27431E+02
 -1      1259-1.98695E+02 5.54276E+01 2.67476E+01-4.52781E+01-3.03455E+01-7.98414E+01
 -1      1260-1.02498E+02 3.58796E+01 7.83405E+01-2.60659E+01 5.05096E+00 3.67526E+01
 -1      1261-3.10128E+01-1.16372E+01-9.90062E+00-9.98935E+00 3.28325E-01-4.62766E+00
 -1      1262 1.25032E+02-4.13283E+01-3.75490E+01-3.76606E+01 4.06630E+01-1.21790E+01
 -1      1263 1.94910E+02 3.91274E-01-8.36132E+01-1.43479E+02 7.94162E+01-1.51841E+02
 -1      1264 1.70771E+02 4.83098E+01 2.28979E+02-2.22597E+02 6.78659E+02-7.50955E+02
 -1      1265-6.26585E+01-7.87570E+02 2.89981E+02-7.18575E+02-8.83223E+02-3.24016E+02
 -1      1266-4.73810E+02-2.27899E+01-5.57454E+00-4.62594E+02-1.73714E+02-1.94846E+02
 -1      1267-3.34632E+02 2.00711E+01 1.39861E+02-1.55619E+02 2.46914E+01 9.35282E+01
 -1      1268-9.35196E+01 3.18103E+01 6.94283E+00-5.25923E+01 4.34652E+00 7.85939E+01
 -1      1269 6.46516E+01 4.11705E+01 4.96207E+00-5.84307E+01 5.20548E+01-4.03070E-01
 -1      1270 8.74680E+00 1.90432E+02-6.09378E+01-1.42750E+02 1.83996E+02-7.29655E+01
 -1      1271 2.08398E+02-7.32338E+02 2.04004E+02-2.42770E+02-4.99421E+02-1.67946E+02
 -1      1272-2.10870E+01-4.92227E+02 8.69185E+00-4.51135E+02-1.93585E+02-1.99642E+02
 -1      1273-2.70651E+02-2.69025E+02 4.02751E+02-5.59335E+02 1.56427E+02 1.82329E+02
 -1      1274-2.44972E+02-1.39607E+02 1.79333E+02-3.58288E+02 2.30512E+01 9.86597E+01
 -1      1275-2.12017E+02-4.82489E+01 6.99502E+01-2.22330E+02-1.95778E+01 4.85224E+01
 -1      1276-1.37813E+02-1.06025E+01 4.46483E+01-1.33212E+02 1.36302E+01 4.20992E+01
 -1      1277-5.63667E+01 2.53826E+01 3.06354E+01-5.98133E+01 5.67451E+01 8.56810E+01
 -1      1278-9.08632E+00 7.24506E+01-2.91597E+01-4.63004E+01 5.11287E+01 5.91023E+01
 -1      1279 3.61186E+01 1.29650E+02-1.04461E+02-4.81439E+01 2.41961E+01 6.90513E+01
 -1      1280-2.18344E+01 2.09589E+02-3.79966E+01-4.37232E+01 9.92268E+01-3.05314E+01
 -1      1281-7.20450E+01 2.58184E+02-6.44642E+01-3.43957E+01 1.42835E+02-4.34756E+01
 -1      1282 1.82390E+02-3.95000E+02 2.18126E+02-9.10782E+01-2.30260E+02 3.04848E+01
 -1      1283-1.41611E+02-2.70518E+02 1.92645E+02-3.44830E+02 8.10046E+01 3.78637E+01
 -1      1284-1.34147E+02-7.26672E+01 7.93397E+01-1.27615E+02 3.94264E+01 8.61335E+01
 -1      1285-1.08679E+01 5.59631E+01-1.65335E+01-2.95100E-01 4.30964E+01 8.49446E+01
 -1      1286 2.68650E+01 2.06924E+02-1.01226E+02 5.02772E+01 2.74217E+01 3.76610E+01
 -1      1287-1.00612E+02 2.97505E+02-1.11911E+02 1.53943E+01-2.21943E+00-4.00744E+00
 -1      1288 9.84055E+01-4.04094E+02-1.07417E+00-3.08137E+01-1.31963E+02-1.17244E+02
 -1      1289 3.00912E+01-3.99402E+02 1.56746E+02-1.37076E+02 6.93615E+01 2.60997E+01
 -1      1290-4.99763E+01-2.60615E+02 9.35853E+01-1.98277E+02 2.37978E+01-8.90533E+00
 -1      1291-7.24203E+01-1.62123E+02 9.04051E+01-1.12668E+02 6.24380E+01 5.32997E+01
 -1      1292-6.78316E+01-7.64712E+01 4.70920E+01-4.92009E+01 6.03629E+01 8.16568E+01
 -1      1293-1.37762E+01 1.13944E+01 1.11710E-01 1.24179E+01 6.43021E+01 6.94106E+01
 -1      1294 3.74828E+01 9.78027E+01-4.98505E+01 7.25698E+01 6.21016E+01 7.52632E+01
 -1      1295 4.62343E+01 1.81168E+02-8.82015E+01 1.12874E+02 7.03301E+01 5.43414E+01
 -1      1296 2.89067E+01 2.76309E+02-1.28663E+02 1.44197E+02 8.31869E+01 2.93658E+01
 -1      1297-5.16354E+01 3.90288E+02-1.16657E+02 1.12688E+02 4.23965E+01 4.40792E+00
 -1      1298-1.18571E+02 3.99560E+02-1.15893E+02 6.65227E+01-1.78286E+01-5.12014E+01
 -1      1299 8.23356E+01-2.93284E+02 4.32719E+01-2.68679E+01-4.37441E+01-4.76831E+01
 -1      1300-1.96718E+01-2.08334E+02 7.01803E+01-7.80397E+01 3.26554E+01 1.25843E+01
 -1      1301 7.53853E-01-3.83765E+01 1.33047E+01 3.25447E+01 5.17347E+01 8.65268E+01
 -1      1302 9.80457E+01 1.32898E+02-8.71724E+01 1.60764E+02 5.08929E+01 7.95772E+01
 -1      1303 5.14189E+01 3.38172E+02-1.27864E+02 2.85470E+02 2.60831E+01-1.52095E+01
 -1      1304-1.29949E+02 4.47301E+02-7.51686E+01 9.27580E+01-2.00874E+02-7.14236E+01
 -1      1305 6.97476E+01-2.38459E+02 7.23419E+01-7.92097E+00 9.57436E+01-2.91283E+01
 -1      1306 4.14833E+01-2.29742E+02 6.22390E+01 1.01985E+01 5.57357E+01 1.04982E+01
 -1      1307 6.45970E+00-1.47798E+02 6.32500E+01 3.09221E+01 7.63413E+01 4.95583E+01
 -1      1308 2.61747E+01-7.37991E+01 1.89347E+01 6.11363E+01 6.32060E+01 5.65039E+01
 -1      1309 6.55862E+01-2.79435E+00-2.46402E+01 1.13269E+02 5.55538E+01 8.24729E+01
 -1      1310 1.16767E+02 7.87245E+01-7.39733E+01 1.80838E+02 5.76979E+01 6.85463E+01
 -1      1311 1.71776E+02 1.71031E+02-1.21507E+02 2.51404E+02 5.17991E+01 7.27590E+01
 -1      1312 1.45385E+02 2.68666E+02-1.59937E+02 3.22057E+02 5.66216E+01 4.86768E+01
 -1      1313 8.43614E+01 3.88344E+02-1.49163E+02 4.40026E+02 4.90518E+00-3.78849E+01
 -1      1314-3.79630E+01 5.61822E+02-2.22609E+02 3.05708E+02 4.77478E+01 2.31096E+01
 -1      1315-1.42478E+02 5.66462E+02-1.48261E+01 9.80964E+01-3.29939E+02-1.57600E+02
 -1      1316 5.11386E+01-1.64910E+02 6.58880E+01 2.53609E+01 8.33956E+01 8.01011E+00
 -1      1317 2.42759E+01-1.04808E+02 3.76105E+01 9.19242E+01 3.04508E+01 5.86450E+01
 -1      1318 1.25755E+02 9.81979E+00-5.31804E+01 1.73866E+02 4.11743E+01 9.29176E+01
 -1      1319 2.49127E+02 1.37892E+02-1.49058E+02 3.36644E+02 3.54639E+01 7.97808E+01
 -1      1320 1.99798E+02 3.77431E+02-2.69609E+02 6.19550E+02 8.73021E+01 2.36884E+01
 -1      1321-2.45167E+02 5.37174E+02-2.91123E+02 1.75087E+02-4.37981E+02 3.96200E+01
 -1      1322 2.95134E+01-1.38478E+02 3.14636E+01 5.41863E+01 1.61048E+02-1.46537E+01
 -1      1323 3.47321E+01-1.03820E+02 5.24803E+00 1.11811E+02 7.05487E+01-8.92276E+00
 -1      1324 3.85523E+01-6.08272E+01 3.56042E+01 1.61457E+02 1.43143E+01 7.77091E+01
 -1      1325 1.17412E+02-2.67913E+01-3.44785E+01 1.87698E+02 3.07963E+01 5.57333E+01
 -1      1326 1.91767E+02 5.04085E+00-9.70710E+01 2.34085E+02 3.78270E+01 9.40475E+01
 -1      1327 2.75799E+02 3.72867E+01-1.03373E+02 3.39067E+02-1.18483E+01 3.51416E+01
 -1      1328 3.47337E+02 7.70885E+01-1.26498E+02 4.61901E+02-4.59553E+01 2.82587E+01
 -1      1329 3.61544E+02 1.87846E+02-2.55006E+02 6.33412E+02 8.92256E+00 1.07716E+02
 -1      1330 3.65744E+02 3.50347E+02-5.34030E+02 9.03238E+02 1.74348E+02 2.07266E+02
 -1      1331 3.23620E+01 6.43169E+02-1.24460E+01 7.11886E+02-2.66273E+02-2.64080E+02
 -1      1332-2.72806E+02 9.59022E+02-2.74439E+02 3.77849E+02-7.77351E+02-2.15203E+02
 -1      1333-9.79845E+00-1.16099E+02 3.74025E+01 1.08341E+02 1.58347E+02-2.64219E+01
 -1      1334 4.40735E+01-3.13118E+01-3.67548E+01 1.24456E+02 3.60572E+01 3.26035E+01
 -1      1335 2.61099E+02-4.51773E+01-6.21845E+01 1.74966E+02-7.70749E-01 6.48824E+01
 -1      1336 5.07901E+02-3.24424E+01-2.07697E+02 3.21831E+02 2.21690E+01 7.51245E+01
 -1      1337 6.29481E+02 2.70936E+01 6.71563E+00 7.29931E+02-2.18167E+02-2.79678E+02
 -1      1338 7.68994E+01 1.00503E+03-3.63286E+02 9.65617E+02-1.25790E+03-4.27841E+02
 -1      1339-1.23010E+02-3.83089E+01-1.51849E+02 1.41832E+02 4.39223E+02-4.65681E+02
 -1      1340-9.16139E+01-8.30440E+00 4.52809E+01 1.07179E+02 3.72918E+01-1.27703E+02
 -1      1341 5.80420E+00-1.40343E+00 5.88786E+00 5.53223E+01 1.45615E+01-3.51280E+01
 -1      1342 1.67997E+02-3.91225E+01-3.93973E+01 5.17150E+01-1.41153E+01-9.14688E+01
 -1      1343 2.70656E+02-8.64335E+01-1.23330E+02 8.44197E+01-1.50425E+01-7.21363E+01
 -1      1344 3.60802E+02-1.05230E+02-5.90821E+01 1.10773E+02-5.12665E+01-2.35811E+02
 -1      1345 5.07451E+02-1.26311E+02 2.48719E+01 1.07717E+02-1.27903E+02-3.28074E+02
 -1      1346 4.96432E+02-2.36721E+02-2.92353E+02 1.65019E+02 1.92725E+01-4.09397E+02
 -1      1347 1.01980E+03-2.66612E+02-2.57437E+02 3.92940E+02-1.99273E+02-7.03711E+02
 -1      1348 1.25671E+03 1.49709E+01-4.96880E+02 9.81078E+02-3.92941E+02-1.23363E+03
 -1      1349 8.95942E+02 5.39772E+02 1.48254E+03 1.37693E+03-4.23857E+03-4.65560E+03
 -1      1350-5.38022E+02-3.51249E+02-1.42355E+02-1.01654E+03-1.18693E+03-1.28412E+03
 -1      1351-9.99052E+02 2.14269E+02 3.28615E+02-4.55414E+02-7.51572E+01-1.59015E+02
 -1      1352-4.33816E+02 1.09685E+02 1.36424E+02-9.88176E+01-1.95113E+01-3.61341E-01
 -1      1353-1.40293E+02 3.95195E+01 4.84561E+01-3.86328E+01-6.09486E+00 3.85197E+01
 -1      1354 1.65765E+02-4.07472E+01-5.23670E+01-7.28655E+01 2.06527E+01 1.99190E+01
 -1      1355 1.41303E+02 3.46625E+01 3.10022E+01-2.11236E+02 2.50408E+02-2.73093E+02
 -1      1356 2.17276E+02-9.68986E+02 3.25663E+02-4.46275E+02-2.01171E+02-8.07770E+01
 -1      1357-3.34001E+02-3.35885E+02 2.75344E+02-7.20873E+02-3.37351E+01-2.50970E+01
 -1      1358-2.90009E+02-6.94331E+01 1.26278E+02-2.89300E+02 2.25010E+00 3.21868E+01
 -1      1359-7.49263E+01 3.21974E+01 1.75153E+01-8.22194E+01 2.02514E+01 4.17649E+01
 -1      1360 4.34628E+01 1.66980E+02-8.55690E+01-6.12293E+01 4.34227E+01 1.65050E+01
 -1      1361-8.25581E+01 3.45534E+02-1.13508E+02-6.46378E+01 7.39287E+01-2.07723E+01
 -1      1362 1.34312E+02-5.26955E+02 1.66156E+02-8.59600E+01-1.03600E+01-2.67628E+01
 -1      1363-7.31922E+01-3.53929E+02 1.53188E+02-2.55939E+02 2.06071E+01 5.55662E+00
 -1      1364-8.67373E+01-9.78312E+01 7.41868E+01-6.63672E+01 3.28113E+01 4.56109E+01
 -1      1365 5.05134E+01 1.26472E+02-6.82699E+01 9.56850E+01 3.73586E+01 4.35303E+01
 -1      1366 4.18074E+01 3.70140E+02-1.55473E+02 1.94864E+02 3.46943E+01 5.27429E+00
 -1      1367-1.46956E+02 5.33793E+02-1.68393E+02 8.74884E+01-2.07691E+01-2.47613E+01
 -1      1368 8.54950E+01-3.18430E+02 1.02945E+02 2.25368E+00 4.85641E+01-1.37595E+01
 -1      1369 5.36490E+00-1.98952E+02 7.15293E+01 3.56763E+01 3.50296E+01 1.97443E+01
 -1      1370 8.48963E+01-1.71475E+00-3.13402E+01 1.49846E+02 3.25980E+01 4.87343E+01
 -1      1371 2.22852E+02 2.21677E+02-1.74887E+02 3.34365E+02 2.79748E+01 4.06903E+01
 -1      1372 1.19882E+02 5.24678E+02-2.34481E+02 5.70936E+02 8.99131E+00-8.61070E+00
 -1      1373-1.92551E+02 7.40626E+02-2.31582E+02 2.06701E+02-1.07260E+02-3.84498E+01
 -1      1374 3.46692E+01-1.80617E+02 6.20653E+01 9.20884E+01 8.73923E+01-5.61083E+00
 -1      1375 5.35665E+01-7.69641E+01 1.10940E+01 2.08822E+02 2.88586E+01 3.18329E+01
 -1      1376 2.55492E+02 8.40667E+00-1.02293E+02 3.11656E+02 6.66327E+00 4.20089E+01
 -1      1377 4.71564E+02 1.08319E+02-2.07893E+02 6.01670E+02-1.07500E+01 2.01237E+01
 -1      1378 4.52504E+02 4.38918E+02-3.70110E+02 1.16502E+03-5.85200E+01-5.08197E+01
 -1      1379-2.86833E+02 1.26136E+03-4.25473E+02 6.74085E+02-3.41197E+02-1.05901E+02
 -1      1380-1.02193E+02-2.75820E+01-1.96571E+01 1.39362E+02 1.61961E+02-1.66852E+02
 -1      1381 1.28121E+01-8.46110E+00-2.21559E+00 9.80740E+01 6.89201E+00 2.44428E+00
 -1      1382 3.63991E+02-1.03244E+02-1.17234E+02 1.28065E+02-1.64544E+01-2.94331E+01
 -1      1383 6.59810E+02-1.71852E+02-2.05992E+02 2.17058E+02-2.90505E+01-9.44447E+01
 -1      1384 1.33316E+03-2.86787E+02-4.37505E+02 6.89305E+02-9.61167E+01-2.81197E+02
 -1      1385 7.35693E+02 4.33101E+02 2.02259E+02 1.34612E+03-1.55707E+03-1.71811E+03
 -1      1386-4.98038E+02-3.37011E+02-1.40864E+01-1.07981E+03-5.30104E+02-5.95267E+02
 -1      1387-1.06669E+03-3.39760E+01 4.52742E+02-1.04597E+03 8.52885E+01-2.29775E+02
 -1      1388-1.28440E+03 2.37727E+02 3.79484E+02-6.87890E+02-1.92985E+02-1.27832E+02
 -1      1389-7.22905E+02 2.18276E+02 1.92118E+02-2.69355E+02-7.22624E+01-1.35797E+02
 -1      1390-5.37330E+02 1.34901E+02 1.82942E+02-1.59432E+02 2.37260E+01 4.94694E+01
 -1      1391-3.74873E+02 8.93496E+01 9.98029E+01-9.97935E+01-1.24606E+00-2.86112E+01
 -1      1392-1.82936E+02 4.19283E+01 6.24309E+01-5.34760E+01-1.89817E+01 2.86050E+01
 -1      1393-2.22940E+01-1.18658E+01 1.28381E+01-4.16411E+01 1.27958E+01-3.84204E+01
 -1      1394 2.17403E+02-4.58373E+01-5.72913E+01-1.12915E+02 4.52299E+01 1.36860E+00
 -1      1395 2.17458E+02 6.15959E+00-9.57301E+01-1.99549E+02-4.12373E+00-4.44573E+01
 -1      1396 1.34161E+02 3.74411E+01 3.04162E+00-2.23372E+02 1.11276E+02-1.28730E+02
 -1      1397-6.60526E+01-9.40613E+02 4.02156E+02-1.03893E+03-2.30797E+02 9.65694E+01
 -1      1398-8.49094E+02-6.11157E+01 2.92210E+02-8.73008E+02-7.51932E+01 2.62023E+01
 -1      1399-5.16429E+02 3.73844E+01 2.10419E+02-2.93987E+02 2.50094E+01 6.23366E+01
 -1      1400-1.58959E+02 3.56144E+01 4.22547E+01-9.73561E+01-6.80202E+00 3.57756E+01
 -1      1401 1.27000E+02 6.55014E+01-6.08731E+01-1.15200E+02 1.18768E+01 9.35130E+00
 -1      1402 6.62931E+00 2.57433E+02-1.01661E+02-1.97931E+02 3.83395E+01 2.22484E+01
 -1      1403 2.38707E+02-1.24907E+03 3.78349E+02-6.81182E+02-1.43699E+02-2.02087E+02
 -1      1404-5.67958E+01-8.59547E+02 2.96496E+02-8.66937E+02 3.09013E+01-8.46247E+01
 -1      1405-3.91866E+02-3.96846E+02 3.51488E+02-8.87587E+02-6.06168E+01-5.19660E+01
 -1      1406-4.14833E+02-2.21816E+02 2.71240E+02-5.58006E+02-2.94321E+01-8.01445E+00
 -1      1407-3.68012E+02-9.54615E+01 1.61989E+02-3.59019E+02-7.20644E-01-1.40924E+01
 -1      1408-2.26826E+02-2.59269E+01 9.74092E+01-2.23235E+02 1.50650E+00-1.05184E+01
 -1      1409-9.15426E+01 3.81909E+01 2.41159E+01-1.06082E+02-1.00373E+00 6.38322E+00
 -1      1410-2.55442E+00 1.12366E+02-4.59206E+01-7.12980E+01 1.37827E+01-3.43980E+00
 -1      1411 5.17453E+01 2.00497E+02-1.07959E+02-7.45813E+01 2.59112E+01-5.83922E-01
 -1      1412-2.61389E+01 3.51825E+02-1.15428E+02-9.53667E+01 1.27586E+01-1.43556E+01
 -1      1413-9.35233E+01 4.43469E+02-1.39246E+02-1.00674E+02 5.11219E+01-4.12362E+01
 -1      1414 2.30080E+02-7.93671E+02 2.13742E+02-2.68588E+02-1.24311E+02-7.42546E+01
 -1      1415-2.23260E+02-4.51266E+02 2.86251E+02-5.39956E+02-9.82020E+00-2.61489E+01
 -1      1416-2.26956E+02-1.33904E+02 1.29446E+02-2.09785E+02 6.76355E+00 5.71459E+00
 -1      1417-1.64825E+01 9.09393E+01-2.52159E+01 1.44399E+00-3.64697E+00 1.09209E+01
 -1      1418 4.65347E+01 3.33778E+02-1.55447E+02 8.82478E+01-1.16250E+01-5.93254E+00
 -1      1419-1.39244E+02 5.35443E+02-1.52367E+02 2.65171E+01-1.32294E+01-2.72431E+01
 -1      1420 1.63431E+02-6.58067E+02 2.22260E+02-1.43081E+02 4.00833E+01 1.70704E+01
 -1      1421 4.90171E+01-6.26406E+02 2.46525E+02-2.60162E+02 4.90780E+01 2.50729E+01
 -1      1422-1.01902E+02-4.46303E+02 1.95931E+02-3.16043E+02-1.46632E+01-3.86458E+00
 -1      1423-1.34859E+02-2.71899E+02 1.47814E+02-1.86752E+02 2.61167E+00 5.41904E+00
 -1      1424-1.07712E+02-1.21095E+02 9.56142E+01-8.28068E+01 4.96962E+00 8.86803E+00
 -1      1425-2.08101E+01 1.73919E+01 1.85699E+00 1.91313E+01 1.00166E+01-3.37868E+00
 -1      1426 6.48800E+01 1.55028E+02-8.58473E+01 1.18830E+02 1.12928E+01 7.14480E+00
 -1      1427 8.48241E+01 2.99162E+02-1.48113E+02 1.83703E+02 1.18478E+01 3.76129E-01
 -1      1428 5.73843E+01 4.61965E+02-1.98658E+02 2.47420E+02 5.60468E+00-1.19324E+01
 -1      1429-7.01132E+01 6.34021E+02-2.22123E+02 1.95500E+02 3.00002E+01 4.33217E+00
 -1      1430-1.72598E+02 6.78908E+02-2.18248E+02 1.13720E+02-1.53696E+01-2.01395E+01
 -1      1431 1.33335E+02-5.51740E+02 1.48983E+02-6.07565E+01-1.82047E+01-2.65903E+00
 -1      1432-4.48205E+01-3.43992E+02 1.49734E+02-1.31436E+02-6.04828E+00 3.98288E-01
 -1      1433-1.21792E-02-6.09156E+01 2.45502E+01 5.23872E+01-2.64972E+00 1.36248E+01
 -1      1434 1.61048E+02 2.18934E+02-1.48897E+02 2.65834E+02-7.61055E-01 1.01891E+01
 -1      1435 9.86272E+01 5.60052E+02-2.54489E+02 4.68864E+02-1.77108E+01-6.74235E+00
 -1      1436-2.09941E+02 8.30398E+02-2.24419E+02 2.13025E+02-5.53476E+01-7.73384E+00
 -1      1437 9.82639E+01-4.05268E+02 1.35076E+02 1.12584E+01 1.68493E+01-1.21968E+01
 -1      1438 5.28160E+01-3.72023E+02 1.26449E+02 1.98385E+01 1.58880E+01 1.76150E+00
 -1      1439 1.83152E+00-2.48136E+02 9.30869E+01 3.99300E+01 1.26766E+01-1.64969E+00
 -1      1440 3.68048E+01-1.22007E+02 3.32043E+01 1.02644E+02 1.04176E+01-9.62936E-01
 -1      1441 1.03443E+02-5.58122E-03-3.87112E+01 1.86150E+02 5.49760E+00 1.31411E+01
 -1      1442 1.93040E+02 1.29517E+02-1.26135E+02 2.98945E+02 6.42978E+00-1.46630E+00
 -1      1443 2.76616E+02 2.74845E+02-2.21914E+02 4.15995E+02 4.11624E+00 8.32687E+00
 -1      1444 2.58175E+02 4.47705E+02-2.60906E+02 5.31919E+02-4.01479E+00 1.13986E+01
 -1      1445 1.61581E+02 6.59708E+02-2.97071E+02 7.06262E+02-3.44315E+01-8.76146E+00
 -1      1446-6.58292E+01 8.86206E+02-3.48078E+02 5.63414E+02 6.94966E+01 3.48186E+01
 -1      1447-2.35268E+02 9.25382E+02-3.07218E+02 3.21424E+02 9.82810E+00 2.01906E+01
 -1      1448 6.91854E+01-2.92593E+02 8.49021E+01 6.30106E+01 9.83262E+00-1.27249E+01
 -1      1449 3.62508E+01-1.63337E+02 5.44672E+01 1.45073E+02 1.11973E-01 3.31537E+00
 -1      1450 2.06300E+02 1.96078E+01-9.02207E+01 2.84298E+02-2.53276E+00 1.29295E+01
 -1      1451 4.17395E+02 2.44435E+02-2.43119E+02 5.53737E+02 1.30580E+01-1.59911E+00
 -1      1452 3.14344E+02 6.26560E+02-3.97843E+02 9.81091E+02-2.23803E+01-4.14352E+01
 -1      1453-3.14614E+02 1.05938E+03-2.83764E+02 4.77682E+02-1.89267E+02-9.93028E+01
 -1      1454 3.81591E+01-2.26995E+02 7.44557E+01 1.35679E+02 5.03757E+01-2.18946E+01
 -1      1455 4.72950E+01-1.71339E+02 4.08546E+01 2.04981E+02-5.30194E-01-1.52874E+01
 -1      1456 6.67854E+01-9.01082E+01 1.49485E+01 2.57921E+02 2.02795E+01 4.54920E+00
 -1      1457 1.83588E+02-3.79026E+01-5.60047E+01 3.04033E+02 4.39034E+00-1.58569E+01
 -1      1458 3.17260E+02 1.28431E+01-1.30804E+02 3.92068E+02-1.08422E+01 2.42604E-01
 -1      1459 4.55945E+02 7.07860E+01-2.03897E+02 5.58286E+02-4.75526E+00-2.23934E+01
 -1      1460 5.95692E+02 1.45006E+02-2.63987E+02 7.46066E+02-4.42525E+00-3.51980E+01
 -1      1461 6.07866E+02 2.98745E+02-3.84443E+02 9.96976E+02-4.57830E+01-1.78220E+01
 -1      1462 5.31410E+02 5.19416E+02-4.69843E+02 1.43608E+03-9.42411E+01-8.27217E+01
 -1      1463 7.64705E+01 1.11067E+03-3.81253E+02 1.34183E+03 5.23692E+01-1.18678E+02
 -1      1464-3.18362E+02 1.61727E+03-4.86001E+02 1.01561E+03-2.21397E+02-2.70252E+02
 -1      1465-6.74642E+00-1.41523E+02 5.64772E+01 1.68332E+02 3.69898E+01 2.70560E+01
 -1      1466 6.15829E+01-4.87359E+01-1.49950E+01 2.23640E+02 1.43785E+01 2.44733E+01
 -1      1467 4.31542E+02-5.79641E+01-1.40496E+02 3.11504E+02-4.32030E+00 4.93391E+01
 -1      1468 7.91336E+02-6.15130E+01-3.16212E+02 5.93671E+02 3.43674E+01 8.50285E+01
 -1      1469 1.11998E+03 7.16376E+01-3.80167E+02 1.35061E+03-1.03211E+02 4.19552E+01
 -1      1470 8.25609E+01 1.21602E+03-5.19473E+02 1.45089E+03-3.29012E+02 1.34295E+02
 -1      1471-9.34597E+01-2.41717E+01-2.41993E+00 1.52501E+02 7.12849E+01-7.69319E+01
 -1      1472-7.53365E+01-1.24479E+01 4.05409E+01 1.68211E+02-1.03196E+01-4.33394E+01
 -1      1473 1.54832E+01-1.16473E+01-1.10169E+01 1.46042E+02 2.79218E+01 1.44408E+00
 -1      1474 2.73701E+02-6.11118E+01-8.27397E+01 1.31477E+02-1.41258E+00-6.10127E+01
 -1      1475 4.66082E+02-1.19016E+02-1.49539E+02 1.77831E+02-2.64773E+01-3.90895E+00
 -1      1476 6.66674E+02-1.69278E+02-1.77289E+02 2.50049E+02-5.97601E+00-6.51378E+01
 -1      1477 8.18696E+02-2.11336E+02-2.72572E+02 3.34222E+02 2.77754E+01 2.33136E+01
 -1      1478 1.00358E+03-3.09363E+02-2.66058E+02 4.73625E+02-9.70958E+01-2.03378E+02
 -1      1479 1.70316E+03-3.22559E+02-4.97267E+02 1.02661E+03-2.54322E+02-2.00745E+02
 -1      1480 1.43313E+03 2.86032E+01-6.05378E+02 1.46300E+03 1.17432E+02-3.26743E+02
 -1      1481 6.89762E+02 4.29426E+02 2.19097E+01 1.46648E+03-6.88857E+02-7.96597E+02
 -3
    1PSTEP                        24           1           1          
    1PGM                1.000000E+00                                  
    1PGK                1.575735E+12                                  
    1PHID                         -1                                  
    1PSUBC                         0                                  
    1PMODE                         6                                  
  100CL  106 199784.4837        1481                     2    6MODAL      1
 -4  ERROR       1    1
 -5  STR(%)      1    1    0    0
 -1         1 1.11342E+01
 -1         2 1.15263E+01
 -1         3 1.19185E+01
 -1         4 1.27882E+01
 -1         5 1.36579E+01
 -1         6 1.77091E+01
 -1         7 2.17604E+01
 -1         8 2.17604E+01
 -1         9 2.17604E+01
 -1        10 1.69727E+01
 -1        11 1.21850E+01
 -1        12 1.11342E+01
 -1        13 1.35617E+01
 -1        14 1.73256E+01
 -1        15 2.17604E+01
 -1        16 2.17604E+01
 -1        17 1.21850E+01
 -1        18 1.11342E+01
 -1        19 1.31696E+01
 -1        20 1.52050E+01
 -1        21 1.80991E+01
 -1        22 2.09932E+01
 -1        23 2.13768E+01
 -1        24 2.17604E+01
 -1        25 2.17604E+01
 -1        26 2.17604E+01
 -1        27 1.69727E+01
 -1        28 1.21851E+01
 -1        29 1.15707E+01
 -1        30 1.66287E+01
 -1        31 2.09932E+01
 -1        32 2.13768E+01
 -1        33 2.02488E+01
 -1        34 1.21851E+01
 -1        35 1.20072E+01
 -1        36 1.50298E+01
 -1        37 1.80523E+01
 -1        38 1.95228E+01
 -1        39 2.09932E+01
 -1        40 2.09932E+01
 -1        41 2.09932E+01
 -1        42 1.98653E+01
 -1        43 1.87373E+01
 -1        44 1.54612E+01
 -1        45 1.21851E+01
 -1        46 1.20072E+01
 -1        47 1.97351E+01
 -1        48 2.12056E+01
 -1        49 2.09524E+01
 -1        50 1.67107E+01
 -1        51 1.18324E+01
 -1        52 1.20072E+01
 -1        53 1.67126E+01
 -1        54 2.14180E+01
 -1        55 2.14180E+01
 -1        56 2.14180E+01
 -1        57 2.11648E+01
 -1        58 2.09116E+01
 -1        59 1.77979E+01
 -1        60 1.46841E+01
 -1        61 1.30819E+01
 -1        62 1.14797E+01
 -1        63 1.17332E+01
 -1        64 2.14180E+01
 -1        65 2.14180E+01
 -1        66 1.78693E+01
 -1        67 1.34488E+01
 -1        68 1.14797E+01
 -1        69 1.14592E+01
 -1        70 1.64386E+01
 -1        71 2.14180E+01
 -1        72 2.14180E+01
 -1        73 2.14180E+01
 -1        74 1.81225E+01
 -1        75 1.48270E+01
 -1        76 1.35202E+01
 -1        77 1.22134E+01
 -1        78 1.18466E+01
 -1        79 1.14797E+01
 -1        80 1.14592E+01
 -1        81 1.78837E+01
 -1        82 1.78837E+01
 -1        83 1.35202E+01
 -1        84 1.22134E+01
 -1        85 1.08716E+01
 -1        86 1.14592E+01
 -1        87 1.29043E+01
 -1        88 1.43495E+01
 -1        89 1.43495E+01
 -1        90 1.43495E+01
 -1        91 1.32815E+01
 -1        92 1.22134E+01
 -1        93 1.22134E+01
 -1        94 1.22134E+01
 -1        95 1.12384E+01
 -1        96 1.02635E+01
 -1        97 1.66832E+01
 -1        98 1.70754E+01
 -1        99 1.68727E+01
 -1       100 2.33025E+01
 -1       101 2.33025E+01
 -1       102 1.73276E+01
 -1       103 1.66832E+01
 -1       104 1.94834E+01
 -1       105 2.23775E+01
 -1       106 2.33025E+01
 -1       107 2.33025E+01
 -1       108 1.73276E+01
 -1       109 1.56723E+01
 -1       110 2.09070E+01
 -1       111 2.23775E+01
 -1       112 2.09932E+01
 -1       113 1.87373E+01
 -1       114 1.39556E+01
 -1       115 1.33533E+01
 -1       116 2.14180E+01
 -1       117 2.14180E+01
 -1       118 2.13382E+01
 -1       119 1.82245E+01
 -1       120 1.43602E+01
 -1       121 1.69800E+01
 -1       122 2.19594E+01
 -1       123 2.14180E+01
 -1       124 1.82959E+01
 -1       125 1.72206E+01
 -1       126 1.68538E+01
 -1       127 1.69800E+01
 -1       128 1.84251E+01
 -1       129 1.65666E+01
 -1       130 1.51130E+01
 -1       131 1.72206E+01
 -1       132 1.62457E+01
 -1       133 2.22322E+01
 -1       134 2.22322E+01
 -1       135 2.22322E+01
 -1       136 2.11598E+01
 -1       137 2.00874E+01
 -1       138 2.24660E+01
 -1       139 2.48446E+01
 -1       140 2.48446E+01
 -1       141 2.48446E+01
 -1       142 2.36574E+01
 -1       143 2.24701E+01
 -1       144 2.22322E+01
 -1       145 2.29970E+01
 -1       146 2.19246E+01
 -1       147 2.48446E+01
 -1       148 2.48446E+01
 -1       149 2.24701E+01
 -1       150 2.22322E+01
 -1       151 2.29970E+01
 -1       152 2.37617E+01
 -1       153 2.37617E+01
 -1       154 2.37617E+01
 -1       155 2.43032E+01
 -1       156 2.48446E+01
 -1       157 2.48446E+01
 -1       158 2.48446E+01
 -1       159 2.36574E+01
 -1       160 2.24701E+01
 -1       161 2.07848E+01
 -1       162 2.37617E+01
 -1       163 2.37617E+01
 -1       164 2.29189E+01
 -1       165 2.17910E+01
 -1       166 1.90981E+01
 -1       167 1.93374E+01
 -1       168 2.15496E+01
 -1       169 2.37617E+01
 -1       170 2.37617E+01
 -1       171 2.37617E+01
 -1       172 2.23775E+01
 -1       173 2.09932E+01
 -1       174 1.98653E+01
 -1       175 1.87373E+01
 -1       176 1.72317E+01
 -1       177 1.57260E+01
 -1       178 1.70184E+01
 -1       179 2.25899E+01
 -1       180 2.25899E+01
 -1       181 2.13790E+01
 -1       182 2.02511E+01
 -1       183 1.64834E+01
 -1       184 1.46994E+01
 -1       185 1.80587E+01
 -1       186 2.14180E+01
 -1       187 2.14180E+01
 -1       188 2.14180E+01
 -1       189 2.15914E+01
 -1       190 2.17648E+01
 -1       191 2.17648E+01
 -1       192 2.17648E+01
 -1       193 1.95028E+01
 -1       194 1.72408E+01
 -1       195 1.86001E+01
 -1       196 2.19594E+01
 -1       197 2.14180E+01
 -1       198 2.17648E+01
 -1       199 2.19963E+01
 -1       200 1.97343E+01
 -1       201 2.25007E+01
 -1       202 2.25007E+01
 -1       203 2.25007E+01
 -1       204 2.19594E+01
 -1       205 2.14180E+01
 -1       206 2.15914E+01
 -1       207 2.17648E+01
 -1       208 2.19963E+01
 -1       209 2.22279E+01
 -1       210 2.22279E+01
 -1       211 2.22279E+01
 -1       212 2.25007E+01
 -1       213 2.25007E+01
 -1       214 2.01009E+01
 -1       215 1.98887E+01
 -1       216 2.22279E+01
 -1       217 2.22279E+01
 -1       218 2.25007E+01
 -1       219 2.25007E+01
 -1       220 2.25007E+01
 -1       221 2.06422E+01
 -1       222 1.87837E+01
 -1       223 1.83981E+01
 -1       224 1.80126E+01
 -1       225 2.01202E+01
 -1       226 2.22279E+01
 -1       227 2.22279E+01
 -1       228 2.22279E+01
 -1       229 2.31409E+01
 -1       230 2.25295E+01
 -1       231 2.14571E+01
 -1       232 2.48446E+01
 -1       233 2.48446E+01
 -1       234 2.33315E+01
 -1       235 2.22473E+01
 -1       236 2.37617E+01
 -1       237 2.37617E+01
 -1       238 2.48446E+01
 -1       239 2.48446E+01
 -1       240 2.24701E+01
 -1       241 2.07999E+01
 -1       242 2.37617E+01
 -1       243 2.37617E+01
 -1       244 2.24564E+01
 -1       245 2.13284E+01
 -1       246 1.84155E+01
 -1       247 1.81074E+01
 -1       248 2.14667E+01
 -1       249 2.10436E+01
 -1       250 2.28422E+01
 -1       251 2.28422E+01
 -1       252 1.95201E+01
 -1       253 2.25007E+01
 -1       254 2.25007E+01
 -1       255 2.13052E+01
 -1       256 2.21510E+01
 -1       257 2.23826E+01
 -1       258 2.22279E+01
 -1       259 2.30383E+01
 -1       260 2.25007E+01
 -1       261 1.99881E+01
 -1       262 2.02749E+01
 -1       263 2.23826E+01
 -1       264 2.28397E+01
 -1       265 3.06827E+01
 -1       266 3.08357E+01
 -1       267 3.09888E+01
 -1       268 3.10757E+01
 -1       269 3.11627E+01
 -1       270 3.11627E+01
 -1       271 3.11627E+01
 -1       272 2.99625E+01
 -1       273 2.87623E+01
 -1       274 2.97213E+01
 -1       275 3.06803E+01
 -1       276 3.06803E+01
 -1       277 3.06803E+01
 -1       278 3.06415E+01
 -1       279 3.06027E+01
 -1       280 3.06827E+01
 -1       281 3.09888E+01
 -1       282 3.11627E+01
 -1       283 3.11627E+01
 -1       284 2.87623E+01
 -1       285 3.06803E+01
 -1       286 3.06803E+01
 -1       287 3.06027E+01
 -1       288 3.06827E+01
 -1       289 3.08357E+01
 -1       290 3.09888E+01
 -1       291 3.10757E+01
 -1       292 3.11627E+01
 -1       293 3.11627E+01
 -1       294 3.11627E+01
 -1       295 2.99625E+01
 -1       296 2.87623E+01
 -1       297 2.97213E+01
 -1       298 3.06803E+01
 -1       299 3.06803E+01
 -1       300 3.06803E+01
 -1       301 3.06415E+01
 -1       302 3.06027E+01
 -1       303 2.88192E+01
 -1       304 2.88458E+01
 -1       305 2.63474E+01
 -1       306 2.63474E+01
 -1       307 2.57141E+01
 -1       308 2.66731E+01
 -1       309 2.76044E+01
 -1       310 2.87187E+01
 -1       311 2.69557E+01
 -1       312 2.69557E+01
 -1       313 2.69557E+01
 -1       314 2.68292E+01
 -1       315 2.67028E+01
 -1       316 2.41175E+01
 -1       317 2.15322E+01
 -1       318 2.15322E+01
 -1       319 2.15322E+01
 -1       320 2.26659E+01
 -1       321 2.26659E+01
 -1       322 2.26659E+01
 -1       323 2.35971E+01
 -1       324 2.45284E+01
 -1       325 2.56815E+01
 -1       326 2.68347E+01
 -1       327 2.68347E+01
 -1       328 2.68347E+01
 -1       329 2.69557E+01
 -1       330 2.69557E+01
 -1       331 2.67028E+01
 -1       332 2.23944E+01
 -1       333 2.43606E+01
 -1       334 2.70371E+01
 -1       335 2.70371E+01
 -1       336 3.04461E+01
 -1       337 3.04461E+01
 -1       338 3.04461E+01
 -1       339 2.87009E+01
 -1       340 2.69557E+01
 -1       341 2.69557E+01
 -1       342 2.69557E+01
 -1       343 2.68292E+01
 -1       344 2.67028E+01
 -1       345 2.21230E+01
 -1       346 2.31579E+01
 -1       347 2.41928E+01
 -1       348 2.57162E+01
 -1       349 2.72395E+01
 -1       350 2.72395E+01
 -1       351 2.72395E+01
 -1       352 2.88628E+01
 -1       353 3.04860E+01
 -1       354 3.04860E+01
 -1       355 3.04860E+01
 -1       356 3.06467E+01
 -1       357 3.06467E+01
 -1       358 2.59459E+01
 -1       359 2.59459E+01
 -1       360 2.53761E+01
 -1       361 2.41928E+01
 -1       362 2.72395E+01
 -1       363 2.72395E+01
 -1       364 3.07341E+01
 -1       365 3.07341E+01
 -1       366 3.08472E+01
 -1       367 3.08472E+01
 -1       368 3.08472E+01
 -1       369 2.78916E+01
 -1       370 2.49361E+01
 -1       371 2.49361E+01
 -1       372 2.49361E+01
 -1       373 2.44928E+01
 -1       374 2.40495E+01
 -1       375 2.34381E+01
 -1       376 2.28267E+01
 -1       377 2.28267E+01
 -1       378 2.28267E+01
 -1       379 2.38357E+01
 -1       380 2.48446E+01
 -1       381 2.48446E+01
 -1       382 2.48446E+01
 -1       383 2.45187E+01
 -1       384 2.41928E+01
 -1       385 2.57162E+01
 -1       386 2.72395E+01
 -1       387 2.72395E+01
 -1       388 2.72395E+01
 -1       389 2.91109E+01
 -1       390 3.09822E+01
 -1       391 3.09822E+01
 -1       392 3.09822E+01
 -1       393 3.08472E+01
 -1       394 3.08472E+01
 -1       395 2.38334E+01
 -1       396 2.31060E+01
 -1       397 2.31559E+01
 -1       398 2.32942E+01
 -1       399 2.32942E+01
 -1       400 2.48446E+01
 -1       401 2.48446E+01
 -1       402 2.33315E+01
 -1       403 2.42245E+01
 -1       404 3.09822E+01
 -1       405 3.09822E+01
 -1       406 3.08472E+01
 -1       407 3.08472E+01
 -1       408 3.08472E+01
 -1       409 2.67890E+01
 -1       410 2.27307E+01
 -1       411 2.20033E+01
 -1       412 2.12759E+01
 -1       413 2.22624E+01
 -1       414 2.30121E+01
 -1       415 2.37617E+01
 -1       416 2.37617E+01
 -1       417 2.37617E+01
 -1       418 2.43032E+01
 -1       419 2.48446E+01
 -1       420 2.48446E+01
 -1       421 2.48446E+01
 -1       422 2.36574E+01
 -1       423 2.24701E+01
 -1       424 2.12094E+01
 -1       425 2.60958E+01
 -1       426 3.09822E+01
 -1       427 3.09822E+01
 -1       428 3.09822E+01
 -1       429 3.05448E+01
 -1       430 3.05448E+01
 -1       431 2.27307E+01
 -1       432 2.22624E+01
 -1       433 2.37617E+01
 -1       434 2.37617E+01
 -1       435 2.43821E+01
 -1       436 2.43821E+01
 -1       437 2.17876E+01
 -1       438 3.01977E+01
 -1       439 3.01977E+01
 -1       440 3.02423E+01
 -1       441 3.02423E+01
 -1       442 3.02423E+01
 -1       443 2.64865E+01
 -1       444 2.27307E+01
 -1       445 2.22624E+01
 -1       446 2.30121E+01
 -1       447 2.37617E+01
 -1       448 2.37617E+01
 -1       449 2.37617E+01
 -1       450 2.38406E+01
 -1       451 2.39195E+01
 -1       452 2.39195E+01
 -1       453 2.39195E+01
 -1       454 2.25122E+01
 -1       455 2.11050E+01
 -1       456 2.94132E+01
 -1       457 2.94132E+01
 -1       458 2.94132E+01
 -1       459 2.86245E+01
 -1       460 2.86245E+01
 -1       461 2.18889E+01
 -1       462 2.26386E+01
 -1       463 2.22155E+01
 -1       464 2.39195E+01
 -1       465 2.39195E+01
 -1       466 2.14522E+01
 -1       467 3.02200E+01
 -1       468 3.02200E+01
 -1       469 2.70068E+01
 -1       470 2.70068E+01
 -1       471 2.70068E+01
 -1       472 2.40919E+01
 -1       473 2.11771E+01
 -1       474 2.15155E+01
 -1       475 2.15155E+01
 -1       476 2.15155E+01
 -1       477 2.10924E+01
 -1       478 2.06693E+01
 -1       479 2.22944E+01
 -1       480 2.39195E+01
 -1       481 2.39195E+01
 -1       482 2.39195E+01
 -1       483 2.28594E+01
 -1       484 2.17994E+01
 -1       485 2.30024E+01
 -1       486 2.70146E+01
 -1       487 3.10268E+01
 -1       488 3.10268E+01
 -1       489 3.10268E+01
 -1       490 2.80072E+01
 -1       491 2.80072E+01
 -1       492 2.12613E+01
 -1       493 2.20081E+01
 -1       494 2.20081E+01
 -1       495 2.09309E+01
 -1       496 2.32284E+01
 -1       497 2.32284E+01
 -1       498 2.20136E+01
 -1       499 2.30024E+01
 -1       500 3.10268E+01
 -1       501 3.10268E+01
 -1       502 2.90076E+01
 -1       503 2.90076E+01
 -1       504 2.90076E+01
 -1       505 2.51766E+01
 -1       506 2.13455E+01
 -1       507 2.13455E+01
 -1       508 2.13455E+01
 -1       509 2.25007E+01
 -1       510 2.25007E+01
 -1       511 2.25007E+01
 -1       512 2.18466E+01
 -1       513 2.11925E+01
 -1       514 2.18649E+01
 -1       515 2.25372E+01
 -1       516 2.25372E+01
 -1       517 2.25372E+01
 -1       518 2.23826E+01
 -1       519 2.22279E+01
 -1       520 2.11242E+01
 -1       521 2.20633E+01
 -1       522 2.30024E+01
 -1       523 2.70146E+01
 -1       524 3.10268E+01
 -1       525 3.10268E+01
 -1       526 3.10268E+01
 -1       527 2.94943E+01
 -1       528 2.94943E+01
 -1       529 2.35031E+01
 -1       530 2.35031E+01
 -1       531 2.30383E+01
 -1       532 2.25007E+01
 -1       533 2.11925E+01
 -1       534 2.25372E+01
 -1       535 2.25372E+01
 -1       536 2.28397E+01
 -1       537 2.28361E+01
 -1       538 2.37752E+01
 -1       539 3.09862E+01
 -1       540 3.09862E+01
 -1       541 2.99809E+01
 -1       542 2.99809E+01
 -1       543 2.99809E+01
 -1       544 2.78208E+01
 -1       545 2.56606E+01
 -1       546 2.56606E+01
 -1       547 2.56606E+01
 -1       548 2.46182E+01
 -1       549 2.35759E+01
 -1       550 2.30383E+01
 -1       551 2.25007E+01
 -1       552 2.18466E+01
 -1       553 2.11925E+01
 -1       554 2.18649E+01
 -1       555 2.25372E+01
 -1       556 2.25372E+01
 -1       557 2.25372E+01
 -1       558 2.29944E+01
 -1       559 2.34516E+01
 -1       560 2.39998E+01
 -1       561 2.45480E+01
 -1       562 2.45480E+01
 -1       563 2.45480E+01
 -1       564 2.77468E+01
 -1       565 3.09456E+01
 -1       566 3.09456E+01
 -1       567 3.09456E+01
 -1       568 2.99809E+01
 -1       569 2.99809E+01
 -1       570 2.59835E+01
 -1       571 2.59835E+01
 -1       572 2.35759E+01
 -1       573 2.40724E+01
 -1       574 2.59375E+01
 -1       575 2.59375E+01
 -1       576 3.07763E+01
 -1       577 3.07763E+01
 -1       578 2.99809E+01
 -1       579 2.99809E+01
 -1       580 2.99809E+01
 -1       581 2.81437E+01
 -1       582 2.63065E+01
 -1       583 2.63065E+01
 -1       584 2.63065E+01
 -1       585 2.49412E+01
 -1       586 2.35759E+01
 -1       587 2.26323E+01
 -1       588 2.16888E+01
 -1       589 2.08245E+01
 -1       590 2.27588E+01
 -1       591 2.46931E+01
 -1       592 2.60101E+01
 -1       593 2.73270E+01
 -1       594 2.73270E+01
 -1       595 2.73270E+01
 -1       596 2.89670E+01
 -1       597 3.06070E+01
 -1       598 3.06070E+01
 -1       599 3.06070E+01
 -1       600 2.63065E+01
 -1       601 2.63065E+01
 -1       602 2.57204E+01
 -1       603 2.47768E+01
 -1       604 2.08245E+01
 -1       605 2.46931E+01
 -1       606 2.73270E+01
 -1       607 2.73270E+01
 -1       608 2.63065E+01
 -1       609 2.63065E+01
 -1       610 2.63065E+01
 -1       611 2.70857E+01
 -1       612 2.78649E+01
 -1       613 2.78649E+01
 -1       614 2.78649E+01
 -1       615 2.08245E+01
 -1       616 2.27588E+01
 -1       617 2.46931E+01
 -1       618 2.60101E+01
 -1       619 2.73270E+01
 -1       620 2.73270E+01
 -1       621 2.73270E+01
 -1       622 2.85633E+01
 -1       623 2.94285E+01
 -1       624 2.94285E+01
 -1       625 2.58395E+01
 -1       626 2.77738E+01
 -1       627 2.88952E+01
 -1       628 3.08202E+01
 -1       629 3.09062E+01
 -1       630 3.09921E+01
 -1       631 3.09921E+01
 -1       632 3.09921E+01
 -1       633 3.07346E+01
 -1       634 3.04771E+01
 -1       635 2.93136E+01
 -1       636 2.81501E+01
 -1       637 2.95023E+01
 -1       638 3.08545E+01
 -1       639 3.08545E+01
 -1       640 3.08545E+01
 -1       641 3.06590E+01
 -1       642 3.04634E+01
 -1       643 3.08202E+01
 -1       644 3.09921E+01
 -1       645 3.09921E+01
 -1       646 3.04771E+01
 -1       647 2.81501E+01
 -1       648 3.08545E+01
 -1       649 3.08545E+01
 -1       650 3.04634E+01
 -1       651 3.08202E+01
 -1       652 3.09062E+01
 -1       653 3.09921E+01
 -1       654 3.09921E+01
 -1       655 3.09921E+01
 -1       656 3.07346E+01
 -1       657 3.04771E+01
 -1       658 2.93136E+01
 -1       659 2.81501E+01
 -1       660 2.95023E+01
 -1       661 3.08545E+01
 -1       662 3.08545E+01
 -1       663 3.08545E+01
 -1       664 3.06590E+01
 -1       665 3.04634E+01
 -1       666 3.06827E+01
 -1       667 3.09888E+01
 -1       668 3.11627E+01
 -1       669 3.11627E+01
 -1       670 2.87623E+01
 -1       671 3.06803E+01
 -1       672 3.06803E+01
 -1       673 3.06027E+01
 -1       674 3.06827E+01
 -1       675 3.09888E+01
 -1       676 3.11627E+01
 -1       677 3.11627E+01
 -1       678 2.87623E+01
 -1       679 3.06803E+01
 -1       680 3.06803E+01
 -1       681 3.06027E+01
 -1       682 2.69557E+01
 -1       683 2.69557E+01
 -1       684 2.67028E+01
 -1       685 2.15322E+01
 -1       686 2.15322E+01
 -1       687 2.26659E+01
 -1       688 2.26659E+01
 -1       689 2.45284E+01
 -1       690 2.68347E+01
 -1       691 2.68347E+01
 -1       692 3.04461E+01
 -1       693 3.04461E+01
 -1       694 2.69557E+01
 -1       695 2.69557E+01
 -1       696 2.67028E+01
 -1       697 2.21230E+01
 -1       698 2.41928E+01
 -1       699 2.72395E+01
 -1       700 2.72395E+01
 -1       701 3.04860E+01
 -1       702 3.04860E+01
 -1       703 3.08472E+01
 -1       704 3.08472E+01
 -1       705 2.49361E+01
 -1       706 2.49361E+01
 -1       707 2.40495E+01
 -1       708 2.28267E+01
 -1       709 2.28267E+01
 -1       710 2.48446E+01
 -1       711 2.48446E+01
 -1       712 2.41928E+01
 -1       713 2.72395E+01
 -1       714 2.72395E+01
 -1       715 3.09822E+01
 -1       716 3.09822E+01
 -1       717 3.08472E+01
 -1       718 3.08472E+01
 -1       719 2.27307E+01
 -1       720 2.12759E+01
 -1       721 2.22624E+01
 -1       722 2.37617E+01
 -1       723 2.37617E+01
 -1       724 2.48446E+01
 -1       725 2.48446E+01
 -1       726 2.24701E+01
 -1       727 2.12094E+01
 -1       728 3.09822E+01
 -1       729 3.09822E+01
 -1       730 3.02423E+01
 -1       731 3.02423E+01
 -1       732 2.27307E+01
 -1       733 2.22624E+01
 -1       734 2.37617E+01
 -1       735 2.37617E+01
 -1       736 2.39195E+01
 -1       737 2.39195E+01
 -1       738 2.11050E+01
 -1       739 2.94132E+01
 -1       740 2.94132E+01
 -1       741 2.70068E+01
 -1       742 2.70068E+01
 -1       743 2.11771E+01
 -1       744 2.15155E+01
 -1       745 2.15155E+01
 -1       746 2.06693E+01
 -1       747 2.39195E+01
 -1       748 2.39195E+01
 -1       749 2.17994E+01
 -1       750 2.30024E+01
 -1       751 3.10268E+01
 -1       752 3.10268E+01
 -1       753 2.90076E+01
 -1       754 2.90076E+01
 -1       755 2.13455E+01
 -1       756 2.13455E+01
 -1       757 2.25007E+01
 -1       758 2.25007E+01
 -1       759 2.11925E+01
 -1       760 2.25372E+01
 -1       761 2.25372E+01
 -1       762 2.22279E+01
 -1       763 2.11242E+01
 -1       764 2.30024E+01
 -1       765 3.10268E+01
 -1       766 3.10268E+01
 -1       767 2.99809E+01
 -1       768 2.99809E+01
 -1       769 2.56606E+01
 -1       770 2.56606E+01
 -1       771 2.35759E+01
 -1       772 2.25007E+01
 -1       773 2.11925E+01
 -1       774 2.25372E+01
 -1       775 2.25372E+01
 -1       776 2.34516E+01
 -1       777 2.45480E+01
 -1       778 2.45480E+01
 -1       779 3.09456E+01
 -1       780 3.09456E+01
 -1       781 2.99809E+01
 -1       782 2.99809E+01
 -1       783 2.63065E+01
 -1       784 2.63065E+01
 -1       785 2.35759E+01
 -1       786 2.16888E+01
 -1       787 2.08245E+01
 -1       788 2.46931E+01
 -1       789 2.73270E+01
 -1       790 2.73270E+01
 -1       791 3.06070E+01
 -1       792 3.06070E+01
 -1       793 2.63065E+01
 -1       794 2.63065E+01
 -1       795 2.78649E+01
 -1       796 2.78649E+01
 -1       797 2.08245E+01
 -1       798 2.46931E+01
 -1       799 2.73270E+01
 -1       800 2.73270E+01
 -1       801 3.08202E+01
 -1       802 3.09921E+01
 -1       803 3.09921E+01
 -1       804 3.04771E+01
 -1       805 2.81501E+01
 -1       806 3.08545E+01
 -1       807 3.08545E+01
 -1       808 3.04634E+01
 -1       809 3.08202E+01
 -1       810 3.09921E+01
 -1       811 3.09921E+01
 -1       812 3.04771E+01
 -1       813 2.81501E+01
 -1       814 3.08545E+01
 -1       815 3.08545E+01
 -1       816 3.04634E+01
 -1       817 3.06827E+01
 -1       818 3.08357E+01
 -1       819 3.09888E+01
 -1       820 3.10757E+01
 -1       821 3.11627E+01
 -1       822 3.11627E+01
 -1       823 3.11627E+01
 -1       824 2.99625E+01
 -1       825 2.87623E+01
 -1       826 2.97213E+01
 -1       827 3.06803E+01
 -1       828 3.06803E+01
 -1       829 3.06803E+01
 -1       830 3.06415E+01
 -1       831 3.06027E+01
 -1       832 3.06827E+01
 -1       833 3.09888E+01
 -1       834 3.11627E+01
 -1       835 3.11627E+01
 -1       836 2.87623E+01
 -1       837 3.06803E+01
 -1       838 3.06803E+01
 -1       839 3.06027E+01
 -1       840 3.06827E+01
 -1       841 3.08357E+01
 -1       842 3.09888E+01
 -1       843 3.10757E+01
 -1       844 3.11627E+01
 -1       845 3.11627E+01
 -1       846 3.11627E+01
 -1       847 2.99625E+01
 -1       848 2.87623E+01
 -1       849 2.97213E+01
 -1       850 3.06803E+01
 -1       851 3.06803E+01
 -1       852 3.06803E+01
 -1       853 3.06415E+01
 -1       854 3.06027E+01
 -1       855 2.88192E+01
 -1       856 2.88458E+01
 -1       857 2.63474E+01
 -1       858 2.63474E+01
 -1       859 2.57141E+01
 -1       860 2.66731E+01
 -1       861 2.76044E+01
 -1       862 2.87187E+01
 -1       863 2.69557E+01
 -1       864 2.69557E+01
 -1       865 2.69557E+01
 -1       866 2.68292E+01
 -1       867 2.67028E+01
 -1       868 2.41175E+01
 -1       869 2.15322E+01
 -1       870 2.15322E+01
 -1       871 2.15322E+01
 -1       872 2.26659E+01
 -1       873 2.26659E+01
 -1       874 2.26659E+01
 -1       875 2.35971E+01
 -1       876 2.45284E+01
 -1       877 2.56815E+01
 -1       878 2.68347E+01
 -1       879 2.68347E+01
 -1       880 2.68347E+01
 -1       881 2.69557E+01
 -1       882 2.69557E+01
 -1       883 2.67028E+01
 -1       884 2.23944E+01
 -1       885 2.43606E+01
 -1       886 2.70371E+01
 -1       887 2.70371E+01
 -1       888 3.04461E+01
 -1       889 3.04461E+01
 -1       890 3.04461E+01
 -1       891 2.87009E+01
 -1       892 2.69557E+01
 -1       893 2.69557E+01
 -1       894 2.69557E+01
 -1       895 2.68292E+01
 -1       896 2.67028E+01
 -1       897 2.21230E+01
 -1       898 2.31579E+01
 -1       899 2.41928E+01
 -1       900 2.57162E+01
 -1       901 2.72395E+01
 -1       902 2.72395E+01
 -1       903 2.72395E+01
 -1       904 2.88628E+01
 -1       905 3.04860E+01
 -1       906 3.04860E+01
 -1       907 3.04860E+01
 -1       908 3.06467E+01
 -1       909 3.06467E+01
 -1       910 2.59459E+01
 -1       911 2.59459E+01
 -1       912 2.53761E+01
 -1       913 2.41928E+01
 -1       914 2.72395E+01
 -1       915 2.72395E+01
 -1       916 3.07341E+01
 -1       917 3.07341E+01
 -1       918 3.08472E+01
 -1       919 3.08472E+01
 -1       920 3.08472E+01
 -1       921 2.78916E+01
 -1       922 2.49361E+01
 -1       923 2.49361E+01
 -1       924 2.49361E+01
 -1       925 2.44928E+01
 -1       926 2.40495E+01
 -1       927 2.34381E+01
 -1       928 2.28267E+01
 -1       929 2.28267E+01
 -1       930 2.28267E+01
 -1       931 2.38357E+01
 -1       932 2.48446E+01
 -1       933 2.48446E+01
 -1       934 2.48446E+01
 -1       935 2.45187E+01
 -1       936 2.41928E+01
 -1       937 2.57162E+01
 -1       938 2.72395E+01
 -1       939 2.72395E+01
 -1       940 2.72395E+01
 -1       941 2.91109E+01
 -1       942 3.09822E+01
 -1       943 3.09822E+01
 -1       944 3.09822E+01
 -1       945 3.08472E+01
 -1       946 3.08472E+01
 -1       947 2.38334E+01
 -1       948 2.31060E+01
 -1       949 2.31559E+01
 -1       950 2.32942E+01
 -1       951 2.32942E+01
 -1       952 2.48446E+01
 -1       953 2.48446E+01
 -1       954 2.33315E+01
 -1       955 2.42245E+01
 -1       956 3.09822E+01
 -1       957 3.09822E+01
 -1       958 3.08472E+01
 -1       959 3.08472E+01
 -1       960 3.08472E+01
 -1       961 2.67890E+01
 -1       962 2.27307E+01
 -1       963 2.20033E+01
 -1       964 2.12759E+01
 -1       965 2.22624E+01
 -1       966 2.30121E+01
 -1       967 2.37617E+01
 -1       968 2.37617E+01
 -1       969 2.37617E+01
 -1       970 2.43032E+01
 -1       971 2.48446E+01
 -1       972 2.48446E+01
 -1       973 2.48446E+01
 -1       974 2.36574E+01
 -1       975 2.24701E+01
 -1       976 2.12094E+01
 -1       977 2.60958E+01
 -1       978 3.09822E+01
 -1       979 3.09822E+01
 -1       980 3.09822E+01
 -1       981 3.05448E+01
 -1       982 3.05448E+01
 -1       983 2.27307E+01
 -1       984 2.22624E+01
 -1       985 2.37617E+01
 -1       986 2.37617E+01
 -1       987 2.43821E+01
 -1       988 2.43821E+01
 -1       989 2.17876E+01
 -1       990 3.01977E+01
 -1       991 3.01977E+01
 -1       992 3.02423E+01
 -1       993 3.02423E+01
 -1       994 3.02423E+01
 -1       995 2.64865E+01
 -1       996 2.27307E+01
 -1       997 2.22624E+01
 -1       998 2.30121E+01
 -1       999 2.37617E+01
 -1      1000 2.37617E+01
 -1      1001 2.37617E+01
 -1      1002 2.38406E+01
 -1      1003 2.39195E+01
 -1      1004 2.39195E+01
 -1      1005 2.39195E+01
 -1      1006 2.25122E+01
 -1      1007 2.11050E+01
 -1      1008 2.94132E+01
 -1      1009 2.94132E+01
 -1      1010 2.94132E+01
 -1      1011 2.86245E+01
 -1      1012 2.86245E+01
 -1      1013 2.18889E+01
 -1      1014 2.26386E+01
 -1      1015 2.22155E+01
 -1      1016 2.39195E+01
 -1      1017 2.39195E+01
 -1      1018 2.14522E+01
 -1      1019 3.02200E+01
 -1      1020 3.02200E+01
 -1      1021 2.70068E+01
 -1      1022 2.70068E+01
 -1      1023 2.70068E+01
 -1      1024 2.40919E+01
 -1      1025 2.11771E+01
 -1      1026 2.15155E+01
 -1      1027 2.15155E+01
 -1      1028 2.15155E+01
 -1      1029 2.10924E+01
 -1      1030 2.06693E+01
 -1      1031 2.22944E+01
 -1      1032 2.39195E+01
 -1      1033 2.39195E+01
 -1      1034 2.39195E+01
 -1      1035 2.28594E+01
 -1      1036 2.17994E+01
 -1      1037 2.30024E+01
 -1      1038 2.70146E+01
 -1      1039 3.10268E+01
 -1      1040 3.10268E+01
 -1      1041 3.10268E+01
 -1      1042 2.80072E+01
 -1      1043 2.80072E+01
 -1      1044 2.12613E+01
 -1      1045 2.20081E+01
 -1      1046 2.20081E+01
 -1      1047 2.09309E+01
 -1      1048 2.32284E+01
 -1      1049 2.32284E+01
 -1      1050 2.20136E+01
 -1      1051 2.30024E+01
 -1      1052 3.10268E+01
 -1      1053 3.10268E+01
 -1      1054 2.90076E+01
 -1      1055 2.90076E+01
 -1      1056 2.90076E+01
 -1      1057 2.51766E+01
 -1      1058 2.13455E+01
 -1      1059 2.13455E+01
 -1      1060 2.13455E+01
 -1      1061 2.25007E+01
 -1      1062 2.25007E+01
 -1      1063 2.25007E+01
 -1      1064 2.18466E+01
 -1      1065 2.11925E+01
 -1      1066 2.18649E+01
 -1      1067 2.25372E+01
 -1      1068 2.25372E+01
 -1      1069 2.25372E+01
 -1      1070 2.23826E+01
 -1      1071 2.22279E+01
 -1      1072 2.11242E+01
 -1      1073 2.20633E+01
 -1      1074 2.30024E+01
 -1      1075 2.70146E+01
 -1      1076 3.10268E+01
 -1      1077 3.10268E+01
 -1      1078 3.10268E+01
 -1      1079 2.94943E+01
 -1      1080 2.94943E+01
 -1      1081 2.35031E+01
 -1      1082 2.35031E+01
 -1      1083 2.30383E+01
 -1      1084 2.25007E+01
 -1      1085 2.11925E+01
 -1      1086 2.25372E+01
 -1      1087 2.25372E+01
 -1      1088 2.28397E+01
 -1      1089 2.28361E+01
 -1      1090 2.37752E+01
 -1      1091 3.09862E+01
 -1      1092 3.09862E+01
 -1      1093 2.99809E+01
 -1      1094 2.99809E+01
 -1      1095 2.99809E+01
 -1      1096 2.78208E+01
 -1      1097 2.56606E+01
 -1      1098 2.56606E+01
 -1      1099 2.56606E+01
 -1      1100 2.46182E+01
 -1      1101 2.35759E+01
 -1      1102 2.30383E+01
 -1      1103 2.25007E+01
 -1      1104 2.18466E+01
 -1      1105 2.11925E+01
 -1      1106 2.18649E+01
 -1      1107 2.25372E+01
 -1      1108 2.25372E+01
 -1      1109 2.25372E+01
 -1      1110 2.29944E+01
 -1      1111 2.34516E+01
 -1      1112 2.39998E+01
 -1      1113 2.45480E+01
 -1      1114 2.45480E+01
 -1      1115 2.45480E+01
 -1      1116 2.77468E+01
 -1      1117 3.09456E+01
 -1      1118 3.09456E+01
 -1      1119 3.09456E+01
 -1      1120 2.99809E+01
 -1      1121 2.99809E+01
 -1      1122 2.59835E+01
 -1      1123 2.59835E+01
 -1      1124 2.35759E+01
 -1      1125 2.40724E+01
 -1      1126 2.59375E+01
 -1      1127 2.59375E+01
 -1      1128 3.07763E+01
 -1      1129 3.07763E+01
 -1      1130 2.99809E+01
 -1      1131 2.99809E+01
 -1      1132 2.99809E+01
 -1      1133 2.81437E+01
 -1      1134 2.63065E+01
 -1      1135 2.63065E+01
 -1      1136 2.63065E+01
 -1      1137 2.49412E+01
 -1      1138 2.35759E+01
 -1      1139 2.26323E+01
 -1      1140 2.16888E+01
 -1      1141 2.08245E+01
 -1      1142 2.27588E+01
 -1      1143 2.46931E+01
 -1      1144 2.60101E+01
 -1      1145 2.73270E+01
 -1      1146 2.73270E+01
 -1      1147 2.73270E+01
 -1      1148 2.89670E+01
 -1      1149 3.06070E+01
 -1      1150 3.06070E+01
 -1      1151 3.06070E+01
 -1      1152 2.63065E+01
 -1      1153 2.63065E+01
 -1      1154 2.57204E+01
 -1      1155 2.47768E+01
 -1      1156 2.08245E+01
 -1      1157 2.46931E+01
 -1      1158 2.73270E+01
 -1      1159 2.73270E+01
 -1      1160 2.63065E+01
 -1      1161 2.63065E+01
 -1      1162 2.63065E+01
 -1      1163 2.70857E+01
 -1      1164 2.78649E+01
 -1      1165 2.78649E+01
 -1      1166 2.78649E+01
 -1      1167 2.08245E+01
 -1      1168 2.27588E+01
 -1      1169 2.46931E+01
 -1      1170 2.60101E+01
 -1      1171 2.73270E+01
 -1      1172 2.73270E+01
 -1      1173 2.73270E+01
 -1      1174 2.85633E+01
 -1      1175 2.94285E+01
 -1      1176 2.94285E+01
 -1      1177 2.58395E+01
 -1      1178 2.77738E+01
 -1      1179 2.88952E+01
 -1      1180 3.08202E+01
 -1      1181 3.09062E+01
 -1      1182 3.09921E+01
 -1      1183 3.09921E+01
 -1      1184 3.09921E+01
 -1      1185 3.07346E+01
 -1      1186 3.04771E+01
 -1      1187 2.93136E+01
 -1      1188 2.81501E+01
 -1      1189 2.95023E+01
 -1      1190 3.08545E+01
 -1      1191 3.08545E+01
 -1      1192 3.08545E+01
 -1      1193 3.06590E+01
 -1      1194 3.04634E+01
 -1      1195 3.08202E+01
 -1      1196 3.09921E+01
 -1      1197 3.09921E+01
 -1      1198 3.04771E+01
 -1      1199 2.81501E+01
 -1      1200 3.08545E+01
 -1      1201 3.08545E+01
 -1      1202 3.04634E+01
 -1      1203 3.08202E+01
 -1      1204 3.09062E+01
 -1      1205 3.09921E+01
 -1      1206 3.09921E+01
 -1      1207 3.09921E+01
 -1      1208 3.07346E+01
 -1      1209 3.04771E+01
 -1      1210 2.93136E+01
 -1      1211 2.81501E+01
 -1      1212 2.95023E+01
 -1      1213 3.08545E+01
 -1      1214 3.08545E+01
 -1      1215 3.08545E+01
 -1      1216 3.06590E+01
 -1      1217 3.04634E+01
 -1      1218 2.31409E+01
 -1      1219 2.25295E+01
 -1      1220 2.14571E+01
 -1      1221 2.48446E+01
 -1      1222 2.48446E+01
 -1      1223 2.33315E+01
 -1      1224 2.22473E+01
 -1      1225 2.37617E+01
 -1      1226 2.37617E+01
 -1      1227 2.48446E+01
 -1      1228 2.48446E+01
 -1      1229 2.24701E+01
 -1      1230 2.07999E+01
 -1      1231 2.37617E+01
 -1      1232 2.37617E+01
 -1      1233 2.24564E+01
 -1      1234 2.13284E+01
 -1      1235 1.84155E+01
 -1      1236 1.81074E+01
 -1      1237 2.14667E+01
 -1      1238 2.10436E+01
 -1      1239 2.28422E+01
 -1      1240 2.28422E+01
 -1      1241 1.95201E+01
 -1      1242 2.25007E+01
 -1      1243 2.25007E+01
 -1      1244 2.13052E+01
 -1      1245 2.21510E+01
 -1      1246 2.23826E+01
 -1      1247 2.22279E+01
 -1      1248 2.30383E+01
 -1      1249 2.25007E+01
 -1      1250 1.99881E+01
 -1      1251 2.02749E+01
 -1      1252 2.23826E+01
 -1      1253 2.28397E+01
 -1      1254 2.22322E+01
 -1      1255 2.22322E+01
 -1      1256 2.22322E+01
 -1      1257 2.11598E+01
 -1      1258 2.00874E+01
 -1      1259 2.24660E+01
 -1      1260 2.48446E+01
 -1      1261 2.48446E+01
 -1      1262 2.48446E+01
 -1      1263 2.36574E+01
 -1      1264 2.24701E+01
 -1      1265 2.22322E+01
 -1      1266 2.29970E+01
 -1      1267 2.19246E+01
 -1      1268 2.48446E+01
 -1      1269 2.48446E+01
 -1      1270 2.24701E+01
 -1      1271 2.22322E+01
 -1      1272 2.29970E+01
 -1      1273 2.37617E+01
 -1      1274 2.37617E+01
 -1      1275 2.37617E+01
 -1      1276 2.43032E+01
 -1      1277 2.48446E+01
 -1      1278 2.48446E+01
 -1      1279 2.48446E+01
 -1      1280 2.36574E+01
 -1      1281 2.24701E+01
 -1      1282 2.07848E+01
 -1      1283 2.37617E+01
 -1      1284 2.37617E+01
 -1      1285 2.29189E+01
 -1      1286 2.17910E+01
 -1      1287 1.90981E+01
 -1      1288 1.93374E+01
 -1      1289 2.15496E+01
 -1      1290 2.37617E+01
 -1      1291 2.37617E+01
 -1      1292 2.37617E+01
 -1      1293 2.23775E+01
 -1      1294 2.09932E+01
 -1      1295 1.98653E+01
 -1      1296 1.87373E+01
 -1      1297 1.72317E+01
 -1      1298 1.57260E+01
 -1      1299 1.70184E+01
 -1      1300 2.25899E+01
 -1      1301 2.25899E+01
 -1      1302 2.13790E+01
 -1      1303 2.02511E+01
 -1      1304 1.64834E+01
 -1      1305 1.46994E+01
 -1      1306 1.80587E+01
 -1      1307 2.14180E+01
 -1      1308 2.14180E+01
 -1      1309 2.14180E+01
 -1      1310 2.15914E+01
 -1      1311 2.17648E+01
 -1      1312 2.17648E+01
 -1      1313 2.17648E+01
 -1      1314 1.95028E+01
 -1      1315 1.72408E+01
 -1      1316 1.86001E+01
 -1      1317 2.19594E+01
 -1      1318 2.14180E+01
 -1      1319 2.17648E+01
 -1      1320 2.19963E+01
 -1      1321 1.97343E+01
 -1      1322 2.25007E+01
 -1      1323 2.25007E+01
 -1      1324 2.25007E+01
 -1      1325 2.19594E+01
 -1      1326 2.14180E+01
 -1      1327 2.15914E+01
 -1      1328 2.17648E+01
 -1      1329 2.19963E+01
 -1      1330 2.22279E+01
 -1      1331 2.22279E+01
 -1      1332 2.22279E+01
 -1      1333 2.25007E+01
 -1      1334 2.25007E+01
 -1      1335 2.01009E+01
 -1      1336 1.98887E+01
 -1      1337 2.22279E+01
 -1      1338 2.22279E+01
 -1      1339 2.25007E+01
 -1      1340 2.25007E+01
 -1      1341 2.25007E+01
 -1      1342 2.06422E+01
 -1      1343 1.87837E+01
 -1      1344 1.83981E+01
 -1      1345 1.80126E+01
 -1      1346 2.01202E+01
 -1      1347 2.22279E+01
 -1      1348 2.22279E+01
 -1      1349 2.22279E+01
 -1      1350 1.66832E+01
 -1      1351 1.70754E+01
 -1      1352 1.68727E+01
 -1      1353 2.33025E+01
 -1      1354 2.33025E+01
 -1      1355 1.73276E+01
 -1      1356 1.66832E+01
 -1      1357 1.94834E+01
 -1      1358 2.23775E+01
 -1      1359 2.33025E+01
 -1      1360 2.33025E+01
 -1      1361 1.73276E+01
 -1      1362 1.56723E+01
 -1      1363 2.09070E+01
 -1      1364 2.23775E+01
 -1      1365 2.09932E+01
 -1      1366 1.87373E+01
 -1      1367 1.39556E+01
 -1      1368 1.33533E+01
 -1      1369 2.14180E+01
 -1      1370 2.14180E+01
 -1      1371 2.13382E+01
 -1      1372 1.82245E+01
 -1      1373 1.43602E+01
 -1      1374 1.69800E+01
 -1      1375 2.19594E+01
 -1      1376 2.14180E+01
 -1      1377 1.82959E+01
 -1      1378 1.72206E+01
 -1      1379 1.68538E+01
 -1      1380 1.69800E+01
 -1      1381 1.84251E+01
 -1      1382 1.65666E+01
 -1      1383 1.51130E+01
 -1      1384 1.72206E+01
 -1      1385 1.62457E+01
 -1      1386 1.11342E+01
 -1      1387 1.15263E+01
 -1      1388 1.19185E+01
 -1      1389 1.27882E+01
 -1      1390 1.36579E+01
 -1      1391 1.77091E+01
 -1      1392 2.17604E+01
 -1      1393 2.17604E+01
 -1      1394 2.17604E+01
 -1      1395 1.69727E+01
 -1      1396 1.21850E+01
 -1      1397 1.11342E+01
 -1      1398 1.35617E+01
 -1      1399 1.73256E+01
 -1      1400 2.17604E+01
 -1      1401 2.17604E+01
 -1      1402 1.21850E+01
 -1      1403 1.11342E+01
 -1      1404 1.31696E+01
 -1      1405 1.52050E+01
 -1      1406 1.80991E+01
 -1      1407 2.09932E+01
 -1      1408 2.13768E+01
 -1      1409 2.17604E+01
 -1      1410 2.17604E+01
 -1      1411 2.17604E+01
 -1      1412 1.69727E+01
 -1      1413 1.21851E+01
 -1      1414 1.15707E+01
 -1      1415 1.66287E+01
 -1      1416 2.09932E+01
 -1      1417 2.13768E+01
 -1      1418 2.02488E+01
 -1      1419 1.21851E+01
 -1      1420 1.20072E+01
 -1      1421 1.50298E+01
 -1      1422 1.80523E+01
 -1      1423 1.95228E+01
 -1      1424 2.09932E+01
 -1      1425 2.09932E+01
 -1      1426 2.09932E+01
 -1      1427 1.98653E+01
 -1      1428 1.87373E+01
 -1      1429 1.54612E+01
 -1      1430 1.21851E+01
 -1      1431 1.20072E+01
 -1      1432 1.97351E+01
 -1      1433 2.12056E+01
 -1      1434 2.09524E+01
 -1      1435 1.67107E+01
 -1      1436 1.18324E+01
 -1      1437 1.20072E+01
 -1      1438 1.67126E+01
 -1      1439 2.14180E+01
 -1      1440 2.14180E+01
 -1      1441 2.14180E+01
 -1      1442 2.11648E+01
 -1      1443 2.09116E+01
 -1      1444 1.77979E+01
 -1      1445 1.46841E+01
 -1      1446 1.30819E+01
 -1      1447 1.14797E+01
 -1      1448 1.17332E+01
 -1      1449 2.14180E+01
 -1      1450 2.14180E+01
 -1      1451 1.78693E+01
 -1      1452 1.34488E+01
 -1      1453 1.14797E+01
 -1      1454 1.14592E+01
 -1      1455 1.64386E+01
 -1      1456 2.14180E+01
 -1      1457 2.14180E+01
 -1      1458 2.14180E+01
 -1      1459 1.81225E+01
 -1      1460 1.48270E+01
 -1      1461 1.35202E+01
 -1      1462 1.22134E+01
 -1      1463 1.18466E+01
 -1      1464 1.14797E+01
 -1      1465 1.14592E+01
 -1      1466 1.78837E+01
 -1      1467 1.78837E+01
 -1      1468 1.35202E+01
 -1      1469 1.22134E+01
 -1      1470 1.08716E+01
 -1      1471 1.14592E+01
 -1      1472 1.29043E+01
 -1      1473 1.43495E+01
 -1      1474 1.43495E+01
 -1      1475 1.43495E+01
 -1      1476 1.32815E+01
 -1      1477 1.22134E+01
 -1      1478 1.22134E+01
 -1      1479 1.22134E+01
 -1      1480 1.12384E+01
 -1      1481 1.02635E+01
 -3
    1PSTEP                        25           1           1          
    1PGM                1.000000E+00                                  
    1PGK                1.579256E+12                                  
    1PHID                         -1                                  
    1PSUBC                         0                                  
    1PMODE                         7                                  
  100CL  107 200007.5647        1481                     2    7MODAL      1
 -4  DISP        4    1
 -5  D1          1    2    1    0
 -5  D2          1    2    2    0
 -5  D3          1    2    3    0
 -5  ALL         1    2    0    0    1ALL
 -1         1-1.32287E+03 1.50480E+03-1.09077E+03
 -1         2-1.32051E+03 1.54306E+03-2.78240E+03
 -1         3-1.30129E+03 1.58034E+03-4.46292E+03
 -1         4-1.26461E+03 1.60132E+03-6.09868E+03
 -1         5-1.20748E+03 1.60661E+03-7.66251E+03
 -1         6-1.12201E+03 1.58669E+03-9.11681E+03
 -1         7-1.00990E+03 1.53391E+03-1.04111E+04
 -1         8-8.77031E+02 1.43643E+03-1.15002E+04
 -1         9-7.10830E+02 1.28027E+03-1.23495E+04
 -1        10-4.76139E+02 9.32482E+02-1.27986E+04
 -1        11-3.60813E+02 6.36451E+02-1.30176E+04
 -1        12-1.31627E+03 1.51846E+03 7.95356E+02
 -1        13-1.29437E+03 1.57375E+03-2.48848E+03
 -1        14-1.21298E+03 1.59401E+03-5.66347E+03
 -1        15-1.03224E+03 1.51519E+03-8.50742E+03
 -1        16-7.66237E+02 1.26364E+03-1.07800E+04
 -1        17-5.80983E+02 8.03488E+02-1.23532E+04
 -1        18-1.28369E+03 1.52158E+03 2.68438E+03
 -1        19-1.27730E+03 1.53227E+03 1.08062E+03
 -1        20-1.26763E+03 1.56239E+03-5.16255E+02
 -1        21-1.25019E+03 1.58428E+03-2.10386E+03
 -1        22-1.22012E+03 1.58939E+03-3.66470E+03
 -1        23-1.16926E+03 1.56947E+03-5.17733E+03
 -1        24-1.10213E+03 1.51843E+03-6.61592E+03
 -1        25-1.01869E+03 1.43017E+03-7.95032E+03
 -1        26-9.37496E+02 1.30517E+03-9.17673E+03
 -1        27-8.98671E+02 1.13378E+03-1.03242E+04
 -1        28-9.17148E+02 1.08164E+03-1.14401E+04
 -1        29-1.25145E+03 1.47724E+03 4.54586E+03
 -1        30-1.23381E+03 1.53316E+03 1.43711E+03
 -1        31-1.21922E+03 1.58569E+03-1.66163E+03
 -1        32-1.15897E+03 1.54597E+03-4.68241E+03
 -1        33-1.06219E+03 1.38958E+03-7.48500E+03
 -1        34-1.07357E+03 1.24509E+03-1.01205E+04
 -1        35-1.20312E+03 1.39729E+03 6.31388E+03
 -1        36-1.18498E+03 1.42028E+03 4.82662E+03
 -1        37-1.18159E+03 1.48221E+03 3.34386E+03
 -1        38-1.19210E+03 1.53568E+03 1.84974E+03
 -1        39-1.20360E+03 1.57350E+03 3.37233E+02
 -1        40-1.20454E+03 1.58586E+03-1.18779E+03
 -1        41-1.19642E+03 1.57242E+03-2.70995E+03
 -1        42-1.17633E+03 1.53236E+03-4.21139E+03
 -1        43-1.15502E+03 1.46969E+03-5.68364E+03
 -1        44-1.15482E+03 1.39190E+03-7.12211E+03
 -1        45-1.17219E+03 1.36554E+03-8.57726E+03
 -1        46-1.12631E+03 1.27732E+03 7.93350E+03
 -1        47-1.10338E+03 1.39916E+03 5.16830E+03
 -1        48-1.16583E+03 1.54068E+03 2.31030E+03
 -1        49-1.21313E+03 1.58271E+03-7.10162E+02
 -1        50-1.21810E+03 1.52454E+03-3.78717E+03
 -1        51-1.23502E+03 1.45646E+03-6.85410E+03
 -1        52-1.01128E+03 1.12120E+03 9.33713E+03
 -1        53-9.84925E+02 1.16290E+03 8.09454E+03
 -1        54-9.91311E+02 1.29458E+03 6.87442E+03
 -1        55-1.04296E+03 1.40824E+03 5.59270E+03
 -1        56-1.10515E+03 1.49586E+03 4.23599E+03
 -1        57-1.16269E+03 1.55290E+03 2.79733E+03
 -1        58-1.21080E+03 1.58054E+03 1.29376E+03
 -1        59-1.24032E+03 1.57924E+03-2.57865E+02
 -1        60-1.25919E+03 1.55739E+03-1.83536E+03
 -1        61-1.26766E+03 1.52383E+03-3.42727E+03
 -1        62-1.27563E+03 1.50992E+03-5.01664E+03
 -1        63-8.43551E+02 9.40193E+02 1.04646E+04
 -1        64-8.36917E+02 1.17193E+03 8.42389E+03
 -1        65-1.02092E+03 1.44169E+03 6.09209E+03
 -1        66-1.19011E+03 1.56398E+03 3.28001E+03
 -1        67-1.28661E+03 1.56362E+03 1.35025E+02
 -1        68-1.30562E+03 1.52753E+03-3.13214E+03
 -1        69-6.02121E+02 7.17109E+02 1.12750E+04
 -1        70-5.79722E+02 7.99372E+02 1.05666E+04
 -1        71-6.40058E+02 1.05579E+03 9.81776E+03
 -1        72-7.72926E+02 1.24923E+03 8.93850E+03
 -1        73-9.15577E+02 1.39559E+03 7.88078E+03
 -1        74-1.04619E+03 1.49326E+03 6.63798E+03
 -1        75-1.16010E+03 1.54847E+03 5.24060E+03
 -1        76-1.24598E+03 1.56740E+03 3.71645E+03
 -1        77-1.30863E+03 1.55763E+03 2.10111E+03
 -1        78-1.33588E+03 1.52599E+03 4.32965E+02
 -1        79-1.33819E+03 1.51372E+03-1.24900E+03
 -1        80-1.12819E+02 3.94176E+02 1.15586E+04
 -1        81-3.84377E+02 1.00427E+03 1.10990E+04
 -1        82-7.94483E+02 1.39508E+03 9.61296E+03
 -1        83-1.12639E+03 1.55426E+03 7.18193E+03
 -1        84-1.33702E+03 1.55685E+03 4.05389E+03
 -1        85-1.41606E+03 1.46253E+03 5.55229E+02
 -1        86 2.77985E+02 2.27360E+02 1.15301E+04
 -1        87 6.36998E+01 5.52817E+02 1.21037E+04
 -1        88-3.06298E+02 1.03225E+03 1.23448E+04
 -1        89-5.49380E+02 1.27122E+03 1.20329E+04
 -1        90-7.56455E+02 1.42891E+03 1.13739E+04
 -1        91-9.48995E+02 1.52836E+03 1.03924E+04
 -1        92-1.11251E+03 1.58094E+03 9.13588E+03
 -1        93-1.24093E+03 1.59336E+03 7.65840E+03
 -1        94-1.34381E+03 1.57070E+03 6.00606E+03
 -1        95-1.43512E+03 1.49240E+03 4.19173E+03
 -1        96-1.47933E+03 1.43204E+03 2.29831E+03
 -1        97-1.05945E+03 1.20423E+03-1.09061E+03
 -1        98-1.04214E+03 1.26992E+03-4.46431E+03
 -1        99-9.68691E+02 1.29216E+03-7.66572E+03
 -1       100-8.20130E+02 1.23419E+03-1.04167E+04
 -1       101-5.97396E+02 1.02729E+03-1.23601E+04
 -1       102-2.94249E+02 4.92806E+02-1.30152E+04
 -1       103-1.03204E+03 1.22473E+03 2.68512E+03
 -1       104-1.01822E+03 1.25403E+03-5.16056E+02
 -1       105-9.78386E+02 1.27581E+03-3.66679E+03
 -1       106-8.83331E+02 1.22035E+03-6.62094E+03
 -1       107-7.51480E+02 1.04741E+03-9.18626E+03
 -1       108-7.36020E+02 8.95868E+02-1.14512E+04
 -1       109-9.68048E+02 1.12607E+03 6.31829E+03
 -1       110-9.48679E+02 1.18796E+03 3.34794E+03
 -1       111-9.65544E+02 1.26200E+03 3.38864E+02
 -1       112-9.59377E+02 1.26105E+03-2.71216E+03
 -1       113-9.28584E+02 1.17775E+03-5.68786E+03
 -1       114-9.43047E+02 1.10605E+03-8.58216E+03
 -1       115-8.14449E+02 9.16385E+02 9.34475E+03
 -1       116-7.98027E+02 1.03722E+03 6.88227E+03
 -1       117-8.86406E+02 1.19972E+03 4.24271E+03
 -1       118-9.71087E+02 1.26781E+03 1.29661E+03
 -1       119-1.01015E+03 1.24863E+03-1.83576E+03
 -1       120-1.02573E+03 1.21476E+03-5.01828E+03
 -1       121-4.81664E+02 6.13868E+02 1.12892E+04
 -1       122-5.13261E+02 8.46343E+02 9.83132E+03
 -1       123-7.33167E+02 1.12253E+03 7.88953E+03
 -1       124-9.29870E+02 1.24361E+03 5.24653E+03
 -1       125-1.05033E+03 1.25060E+03 2.10448E+03
 -1       126-1.07586E+03 1.22139E+03-1.24712E+03
 -1       127 2.38792E+02 1.87336E+02 1.15266E+04
 -1       128-2.84682E+02 8.27936E+02 1.23601E+04
 -1       129-6.23061E+02 1.15023E+03 1.13829E+04
 -1       130-8.93742E+02 1.27209E+03 9.14243E+03
 -1       131-1.07281E+03 1.26236E+03 6.01055E+03
 -1       132-1.19062E+03 1.15089E+03 2.29764E+03
 -1       133-7.98607E+02 9.00623E+02-1.09019E+03
 -1       134-7.98465E+02 9.37312E+02-2.78311E+03
 -1       135-7.84890E+02 9.59969E+02-4.46537E+03
 -1       136-7.65321E+02 9.73698E+02-6.10185E+03
 -1       137-7.31008E+02 9.77767E+02-7.66805E+03
 -1       138-6.85262E+02 9.64015E+02-9.12270E+03
 -1       139-6.26830E+02 9.31985E+02-1.04207E+04
 -1       140-5.47938E+02 8.78280E+02-1.15095E+04
 -1       141-4.78576E+02 7.81318E+02-1.23692E+04
 -1       142-2.99206E+02 5.68292E+02-1.28166E+04
 -1       143-1.90347E+02 3.09088E+02-1.30087E+04
 -1       144-7.99857E+02 9.20411E+02 7.93714E+02
 -1       145-7.83805E+02 9.55003E+02-2.48964E+03
 -1       146-7.35276E+02 9.68135E+02-5.66869E+03
 -1       147-6.26819E+02 9.20799E+02-8.51892E+03
 -1       148-4.72781E+02 7.63484E+02-1.07940E+04
 -1       149-3.54934E+02 4.83542E+02-1.23771E+04
 -1       150-7.79678E+02 9.28345E+02 2.68553E+03
 -1       151-7.75757E+02 9.28583E+02 1.08215E+03
 -1       152-7.69201E+02 9.46987E+02-5.15872E+02
 -1       153-7.57832E+02 9.60279E+02-2.10544E+03
 -1       154-7.37963E+02 9.63432E+02-3.66831E+03
 -1       155-7.08555E+02 9.52771E+02-5.18383E+03
 -1       156-6.66497E+02 9.22547E+02-6.62473E+03
 -1       157-6.19355E+02 8.67369E+02-7.96383E+03
 -1       158-5.67609E+02 7.91427E+02-9.19347E+03
 -1       159-5.43098E+02 6.94147E+02-1.03382E+04
 -1       160-5.61373E+02 7.06783E+02-1.14608E+04
 -1       161-7.60900E+02 9.00890E+02 4.55022E+03
 -1       162-7.48633E+02 9.29449E+02 1.44077E+03
 -1       163-7.37693E+02 9.60747E+02-1.66236E+03
 -1       164-7.01411E+02 9.36103E+02-4.68886E+03
 -1       165-6.43719E+02 8.44919E+02-7.49799E+03
 -1       166-6.57754E+02 7.71082E+02-1.01293E+04
 -1       167-7.33441E+02 8.53596E+02 6.32160E+03
 -1       168-7.20063E+02 8.61577E+02 4.83424E+03
 -1       169-7.16635E+02 8.95912E+02 3.35103E+03
 -1       170-7.22589E+02 9.28671E+02 1.85512E+03
 -1       171-7.28913E+02 9.52371E+02 3.40143E+02
 -1       172-7.29162E+02 9.59773E+02-1.18802E+03
 -1       173-7.23861E+02 9.51594E+02-2.71379E+03
 -1       174-7.12163E+02 9.27129E+02-4.21704E+03
 -1       175-7.02104E+02 8.88399E+02-5.69101E+03
 -1       176-7.01587E+02 8.45242E+02-7.13242E+03
 -1       177-7.11567E+02 8.42848E+02-8.58563E+03
 -1       178-6.84512E+02 7.87299E+02 7.94198E+03
 -1       179-6.71046E+02 8.47862E+02 5.17915E+03
 -1       180-7.05796E+02 9.32496E+02 2.31743E+03
 -1       181-7.34070E+02 9.58087E+02-7.09369E+02
 -1       182-7.39235E+02 9.23780E+02-3.79147E+03
 -1       183-7.50147E+02 8.89748E+02-6.85822E+03
 -1       184-6.14292E+02 7.04723E+02 9.35021E+03
 -1       185-5.99089E+02 7.07422E+02 8.11080E+03
 -1       186-6.04104E+02 7.82690E+02 6.88829E+03
 -1       187-6.31200E+02 8.52252E+02 5.60555E+03
 -1       188-6.68919E+02 9.05358E+02 4.24784E+03
 -1       189-7.03711E+02 9.39974E+02 2.80544E+03
 -1       190-7.32833E+02 9.56994E+02 1.29882E+03
 -1       191-7.51610E+02 9.55545E+02-2.56010E+02
 -1       192-7.62420E+02 9.41801E+02-1.83599E+03
 -1       193-7.69712E+02 9.24094E+02-3.42894E+03
 -1       194-7.76678E+02 9.19551E+02-5.01952E+03
 -1       195-5.19763E+02 5.96674E+02 1.04774E+04
 -1       196-5.08180E+02 7.12937E+02 8.44371E+03
 -1       197-6.17847E+02 8.72872E+02 6.10584E+03
 -1       198-7.19533E+02 9.47698E+02 3.28811E+03
 -1       199-7.79501E+02 9.48327E+02 1.37911E+02
 -1       200-7.92316E+02 9.30422E+02-3.13249E+03
 -1       201-3.70549E+02 5.02109E+02 1.13016E+04
 -1       202-3.47594E+02 4.95707E+02 1.05856E+04
 -1       203-3.88401E+02 6.39663E+02 9.84167E+03
 -1       204-4.71773E+02 7.57685E+02 8.95926E+03
 -1       205-5.53244E+02 8.49091E+02 7.89620E+03
 -1       206-6.33915E+02 9.07810E+02 6.65144E+03
 -1       207-7.01125E+02 9.39609E+02 5.25103E+03
 -1       208-7.54477E+02 9.50751E+02 3.72483E+03
 -1       209-7.92926E+02 9.44730E+02 2.10707E+03
 -1       210-8.11760E+02 9.26911E+02 4.36219E+02
 -1       211-8.11715E+02 9.28896E+02-1.24539E+03
 -1       212-7.17907E+01 2.53688E+02 1.15839E+04
 -1       213-2.43066E+02 6.06457E+02 1.11188E+04
 -1       214-4.84340E+02 8.47973E+02 9.63161E+03
 -1       215-6.82740E+02 9.44443E+02 7.19377E+03
 -1       216-8.07957E+02 9.44800E+02 4.06016E+03
 -1       217-8.59427E+02 8.89554E+02 5.59774E+02
 -1       218 2.52753E+02 9.67052E+01 1.15173E+04
 -1       219 3.70446E+01 3.39290E+02 1.21345E+04
 -1       220-2.55914E+02 6.32395E+02 1.23733E+04
 -1       221-3.58749E+02 7.79905E+02 1.20473E+04
 -1       222-4.82602E+02 8.68502E+02 1.13895E+04
 -1       223-5.85306E+02 9.28599E+02 1.04031E+04
 -1       224-6.75429E+02 9.62954E+02 9.14732E+03
 -1       225-7.51703E+02 9.70428E+02 7.66619E+03
 -1       226-8.03560E+02 9.55326E+02 6.01421E+03
 -1       227-8.71533E+02 9.07649E+02 4.19823E+03
 -1       228-9.11909E+02 8.60622E+02 2.29590E+03
 -1       229-5.50685E+02 5.75619E+02-1.08651E+03
 -1       230-5.30818E+02 6.48798E+02-4.46546E+03
 -1       231-4.95692E+02 6.62151E+02-7.67011E+03
 -1       232-4.20747E+02 6.20603E+02-1.04172E+04
 -1       233-3.32196E+02 5.18625E+02-1.23705E+04
 -1       234 1.27757E+02-1.18531E+02-1.29588E+04
 -1       235-5.28093E+02 6.29598E+02 2.68594E+03
 -1       236-5.19365E+02 6.42637E+02-5.16781E+02
 -1       237-5.00315E+02 6.53057E+02-3.67021E+03
 -1       238-4.47868E+02 6.22509E+02-6.62602E+03
 -1       239-4.02911E+02 5.58219E+02-9.21175E+03
 -1       240-3.71223E+02 4.88550E+02-1.14605E+04
 -1       241-4.98366E+02 5.79163E+02 6.32564E+03
 -1       242-4.86696E+02 6.06811E+02 3.35457E+03
 -1       243-4.93084E+02 6.44215E+02 3.41103E+02
 -1       244-4.89417E+02 6.43535E+02-2.71461E+03
 -1       245-4.73296E+02 5.97585E+02-5.69169E+03
 -1       246-4.73295E+02 5.65420E+02-8.58050E+03
 -1       247-4.02790E+02 4.73302E+02 9.34558E+03
 -1       248-4.06417E+02 5.25554E+02 6.89059E+03
 -1       249-4.52234E+02 6.12112E+02 4.25113E+03
 -1       250-4.95775E+02 6.47298E+02 1.30034E+03
 -1       251-5.17458E+02 6.37466E+02-1.83749E+03
 -1       252-5.29215E+02 6.22795E+02-5.02281E+03
 -1       253-2.37391E+02 3.51848E+02 1.13034E+04
 -1       254-2.91062E+02 4.57516E+02 9.86616E+03
 -1       255-3.69425E+02 5.72877E+02 7.89940E+03
 -1       256-4.76340E+02 6.36988E+02 5.25519E+03
 -1       257-5.31062E+02 6.43613E+02 2.11199E+03
 -1       258-5.51946E+02 6.30734E+02-1.24482E+03
 -1       259 5.75994E+02-2.76519E+02 1.14480E+04
 -1       260-1.86872E+02 4.15932E+02 1.23738E+04
 -1       261-3.20769E+02 5.77242E+02 1.13849E+04
 -1       262-4.60482E+02 6.51198E+02 9.15016E+03
 -1       263-5.41573E+02 6.44411E+02 6.01445E+03
 -1       264-6.90073E+02 5.19047E+02 2.28321E+03
 -1       265 0.00000E+00 0.00000E+00 0.00000E+00
 -1       266 0.00000E+00 0.00000E+00 0.00000E+00
 -1       267 0.00000E+00 0.00000E+00 0.00000E+00
 -1       268 0.00000E+00 0.00000E+00 0.00000E+00
 -1       269 0.00000E+00 0.00000E+00 0.00000E+00
 -1       270 0.00000E+00 0.00000E+00 0.00000E+00
 -1       271 0.00000E+00 0.00000E+00 0.00000E+00
 -1       272 0.00000E+00 0.00000E+00 0.00000E+00
 -1       273 0.00000E+00 0.00000E+00 0.00000E+00
 -1       274 0.00000E+00 0.00000E+00 0.00000E+00
 -1       275 0.00000E+00 0.00000E+00 0.00000E+00
 -1       276 0.00000E+00 0.00000E+00 0.00000E+00
 -1       277 0.00000E+00 0.00000E+00 0.00000E+00
 -1       278 0.00000E+00 0.00000E+00 0.00000E+00
 -1       279 0.00000E+00 0.00000E+00 0.00000E+00
 -1       280-3.09747E+01 1.55999E+02 5.26792E+02
 -1       281-2.07931E+01 7.01797E+01 2.29319E+02
 -1       282-2.22538E+00 2.90904E+01 9.63180E+01
 -1       283 9.80588E+00 3.58303E+01 1.42164E+02
 -1       284 7.92178E+01 1.88078E+02 5.99117E+02
 -1       285 1.54336E+02 5.83800E+02 1.90020E+03
 -1       286 2.76863E+02 1.28273E+03 4.17466E+03
 -1       287 3.48246E+02 2.36215E+03 7.88214E+03
 -1       288-1.05629E+02 2.65636E+02 1.80340E+03
 -1       289-8.68175E+01 1.87028E+02 1.24477E+03
 -1       290-6.39735E+01 1.23504E+02 7.98274E+02
 -1       291-4.05460E+01 7.93501E+01 5.01456E+02
 -1       292-1.52913E+01 5.68953E+01 3.45365E+02
 -1       293 7.28113E+00 4.96824E+01 3.18550E+02
 -1       294 3.40431E+01 5.60084E+01 4.10052E+02
 -1       295 1.43977E+02 1.71060E+02 1.03031E+03
 -1       296 2.67166E+02 3.68918E+02 2.18439E+03
 -1       297 3.94483E+02 6.61893E+02 4.14862E+03
 -1       298 5.19224E+02 1.04488E+03 6.72892E+03
 -1       299 6.70743E+02 1.57165E+03 1.02131E+04
 -1       300 8.78427E+02 2.22696E+03 1.46868E+04
 -1       301 1.11077E+03 3.09983E+03 2.04897E+04
 -1       302 1.26009E+03 4.04931E+03 2.73748E+04
 -1       303-1.92235E+02 1.73594E+02 3.16175E+03
 -1       304-1.09058E+02 6.59138E+01 1.37215E+03
 -1       305-1.75609E+01 4.94142E+01 6.51941E+02
 -1       306 2.01469E+01 5.12508E+01 6.90811E+02
 -1       307 5.09392E+02 4.69133E+02 4.55679E+03
 -1       308 7.97630E+02 7.16520E+02 1.19854E+04
 -1       309 1.53018E+03 1.42141E+03 2.55665E+04
 -1       310 2.25310E+03 2.61669E+03 4.77609E+04
 -1       311-2.22145E+02-1.67530E+02 6.75559E+03
 -1       312-2.37219E+02-5.23139E+01 5.36697E+03
 -1       313-2.56848E+02 3.53490E+01 3.89092E+03
 -1       314-1.99456E+02 2.25554E+01 2.55784E+03
 -1       315-1.30669E+02-6.39242E+00 1.58686E+03
 -1       316-5.99534E+01 1.56971E+01 1.07048E+03
 -1       317-7.51732E+00 3.99018E+01 9.21086E+02
 -1       318 8.69034E+00 5.01219E+01 9.08156E+02
 -1       319 1.67361E+01 4.73465E+01 9.82944E+02
 -1       320 4.53251E+02 6.00601E+02 7.73643E+03
 -1       321 6.09635E+02 4.18762E+02 1.07063E+04
 -1       322 8.78272E+02 1.92306E+02 1.47978E+04
 -1       323 1.43077E+03 2.34950E+02 2.14953E+04
 -1       324 1.87280E+03 4.57830E+02 3.11967E+04
 -1       325 2.31935E+03 5.33731E+02 4.32875E+04
 -1       326 2.83221E+03 4.37191E+02 5.81021E+04
 -1       327 2.73284E+03-9.24939E+02 7.51559E+04
 -1       328 2.65236E+03-2.51147E+03 9.15956E+04
 -1       329-1.01216E+02-1.66442E+02 5.72689E+03
 -1       330-2.35573E+02-5.27662E+01 3.78293E+03
 -1       331-2.37720E+02-1.47764E+02 1.02785E+03
 -1       332 8.97844E+02-8.57228E+02 1.25279E+04
 -1       333 2.03965E+03-1.19228E+03 2.91945E+04
 -1       334 2.48255E+03-1.10583E+03 5.56079E+04
 -1       335 1.08118E+03-2.61004E+03 7.60012E+04
 -1       336 0.00000E+00 0.00000E+00 0.00000E+00
 -1       337 1.94563E+02-2.22142E+01 6.39312E+02
 -1       338 3.34597E+02-8.47299E+01 2.24787E+03
 -1       339 2.08066E+02-1.44489E+02 3.89991E+03
 -1       340 1.97464E+01-1.68259E+02 4.66553E+03
 -1       341-1.21169E+02-1.30381E+02 4.33678E+03
 -1       342-2.44829E+02-1.24475E+02 3.23542E+03
 -1       343-2.96698E+02-1.60015E+02 1.69927E+03
 -1       344-3.51524E+02-2.59271E+02-2.12704E+02
 -1       345 4.16941E+02-1.55106E+03 5.58405E+03
 -1       346 1.04173E+03-2.18646E+03 9.42818E+03
 -1       347 2.07081E+03-2.95686E+03 1.72511E+04
 -1       348 2.38507E+03-2.58853E+03 3.11035E+04
 -1       349 2.55727E+03-2.34721E+03 4.51709E+04
 -1       350 1.18662E+03-2.32517E+03 5.64471E+04
 -1       351-3.71631E+02-2.79559E+03 5.95121E+04
 -1       352-2.66434E+03-2.28602E+03 4.91046E+04
 -1       353-4.18480E+03-1.27817E+03 2.80251E+04
 -1       354-2.43439E+03-3.58832E+02 8.03767E+03
 -1       355 0.00000E+00 0.00000E+00 0.00000E+00
 -1       356 0.00000E+00 0.00000E+00 0.00000E+00
 -1       357 2.70309E+02-7.70324E+01 1.78006E+03
 -1       358 4.80894E+01-1.41640E+02 3.78740E+03
 -1       359-2.40750E+02-8.04510E+01 2.67039E+03
 -1       360-4.00369E+02-6.81108E+01-1.24076E+03
 -1       361 2.21613E+03-2.57810E+03 2.40076E+01
 -1       362 2.84970E+03-2.46600E+03 3.15531E+04
 -1       363-6.33983E+02-2.17844E+03 4.50684E+04
 -1       364-3.19736E+03-1.11410E+03 2.11064E+04
 -1       365 0.00000E+00 0.00000E+00 0.00000E+00
 -1       366 0.00000E+00 0.00000E+00 0.00000E+00
 -1       367 1.18979E+02-1.98426E+01 3.87846E+02
 -1       368 2.07508E+02-6.54140E+01 1.36883E+03
 -1       369 1.44023E+02-1.09078E+02 2.41453E+03
 -1       370 6.31867E+01-1.19382E+02 3.02776E+03
 -1       371-6.81386E+01-1.00235E+02 3.03366E+03
 -1       372-2.07183E+02-5.22836E+01 2.22124E+03
 -1       373-2.92565E+02 3.08711E+01 7.81742E+02
 -1       374-3.06173E+02 2.47389E+02-1.08436E+03
 -1       375-2.83792E+02 3.29147E+02-2.78427E+03
 -1       376-2.76568E+02 3.38396E+02-4.46502E+03
 -1       377-2.71015E+02 3.50190E+02-6.10454E+03
 -1       378-2.61974E+02 3.47179E+02-7.67124E+03
 -1       379-2.39951E+02 3.36582E+02-9.12355E+03
 -1       380-2.10203E+02 3.05597E+02-1.04143E+04
 -1       381-2.15505E+02 3.43597E+02-1.15234E+04
 -1       382-1.94832E+02 2.68773E+02-1.23653E+04
 -1       383-5.93928E+01 1.70098E+02-1.28500E+04
 -1       384 4.89304E+02-5.91450E+02-1.29289E+04
 -1       385 2.44132E+03-2.57846E+03-1.49336E+03
 -1       386 3.47011E+03-2.81766E+03 1.56458E+04
 -1       387 1.54732E+03-2.09488E+03 3.11208E+04
 -1       388-7.12431E+02-1.45745E+03 3.43936E+04
 -1       389-1.63565E+03-1.43707E+03 2.70689E+04
 -1       390-2.35140E+03-9.24228E+02 1.51696E+04
 -1       391-1.33110E+03-2.93106E+02 4.26060E+03
 -1       392 0.00000E+00 0.00000E+00 0.00000E+00
 -1       393 0.00000E+00 0.00000E+00 0.00000E+00
 -1       394 1.51475E+02-6.35136E+01 9.96118E+02
 -1       395 7.08810E+01-1.19863E+02 2.33234E+03
 -1       396-1.11223E+02-3.17547E+01 2.04769E+03
 -1       397-2.84887E+02 3.18926E+02 7.89089E+02
 -1       398-2.79045E+02 3.33205E+02-2.48919E+03
 -1       399-2.59115E+02 3.41212E+02-5.66978E+03
 -1       400-2.27108E+02 3.30748E+02-8.52782E+03
 -1       401-1.34130E+02 2.15206E+02-1.07771E+04
 -1       402-9.81573E+01 1.08332E+02-1.24228E+04
 -1       403-1.24959E+03-1.09448E+03 2.73048E+04
 -1       404-1.62283E+03-7.76944E+02 1.02411E+04
 -1       405 0.00000E+00 0.00000E+00 0.00000E+00
 -1       406 0.00000E+00 0.00000E+00 0.00000E+00
 -1       407 5.50707E+01-2.36901E+01 1.60188E+02
 -1       408 9.06114E+01-6.66358E+01 6.05690E+02
 -1       409 8.67721E+01-1.16634E+02 1.13415E+03
 -1       410 8.22491E+01-1.23897E+02 1.62737E+03
 -1       411 1.93661E+01-9.14983E+01 1.92180E+03
 -1       412-2.13030E+01-2.05701E+01 1.93074E+03
 -1       413-2.75210E+02 3.31770E+02 2.68662E+03
 -1       414-2.77435E+02 3.24663E+02 1.08577E+03
 -1       415-2.70223E+02 3.38799E+02-5.17813E+02
 -1       416-2.68702E+02 3.41482E+02-2.10713E+03
 -1       417-2.62905E+02 3.42973E+02-3.67167E+03
 -1       418-2.48672E+02 3.34955E+02-5.18481E+03
 -1       419-2.31170E+02 3.23779E+02-6.62584E+03
 -1       420-2.27825E+02 3.13028E+02-7.97455E+03
 -1       421-2.35353E+02 3.21831E+02-9.22892E+03
 -1       422-1.47921E+02 2.02783E+02-1.03190E+04
 -1       423-1.93429E+02 2.81017E+02-1.14538E+04
 -1       424-1.59555E+03-8.89541E+02 2.17935E+04
 -1       425-1.33903E+03-1.02859E+03 1.29822E+04
 -1       426-1.02627E+03-6.31371E+02 6.09322E+03
 -1       427-5.25967E+02-1.89862E+02 1.62266E+03
 -1       428 0.00000E+00 0.00000E+00 0.00000E+00
 -1       429 0.00000E+00 0.00000E+00 0.00000E+00
 -1       430 2.28573E+01-1.16927E+02 8.65746E+01
 -1       431 8.63877E+01-1.74152E+02 7.65880E+02
 -1       432-2.70779E+02 3.23619E+02 4.55219E+03
 -1       433-2.65976E+02 3.31020E+02 1.44315E+03
 -1       434-2.60978E+02 3.40612E+02-1.66272E+03
 -1       435-2.49047E+02 3.31840E+02-4.69252E+03
 -1       436-2.31989E+02 3.10249E+02-7.50749E+03
 -1       437-2.59618E+02 2.99843E+02-1.01446E+04
 -1       438-4.83572E+02-4.44924E+02 2.92177E+03
 -1       439 0.00000E+00 0.00000E+00 0.00000E+00
 -1       440 0.00000E+00 0.00000E+00 0.00000E+00
 -1       441-6.47674E+01-5.48959E+01-2.71441E+02
 -1       442-7.48530E+01-1.89185E+02-7.18679E+02
 -1       443 3.19750E+01-2.02688E+02-7.47923E+02
 -1       444 1.09322E+02-2.06589E+02-3.24050E+02
 -1       445-2.64680E+02 3.05004E+02 6.32819E+03
 -1       446-2.52145E+02 3.04436E+02 4.83558E+03
 -1       447-2.56614E+02 3.18433E+02 3.35730E+03
 -1       448-2.56295E+02 3.28575E+02 1.85785E+03
 -1       449-2.58255E+02 3.37233E+02 3.41702E+02
 -1       450-2.57926E+02 3.39787E+02-1.18838E+03
 -1       451-2.55322E+02 3.36103E+02-2.71507E+03
 -1       452-2.52617E+02 3.28661E+02-4.22027E+03
 -1       453-2.45734E+02 3.08904E+02-5.69104E+03
 -1       454-2.53037E+02 3.05492E+02-7.14103E+03
 -1       455-2.31196E+02 2.83686E+02-8.57610E+03
 -1       456-8.65151E+01-2.76090E+02 5.96535E+02
 -1       457-5.29662E+01-7.94370E+01 2.10591E+02
 -1       458 0.00000E+00 0.00000E+00 0.00000E+00
 -1       459 0.00000E+00 0.00000E+00 0.00000E+00
 -1       460-4.17822E+02-3.42883E+02-2.56137E+03
 -1       461-2.36974E+02 2.75304E+02 7.94374E+03
 -1       462-2.34963E+02 2.96829E+02 5.18204E+03
 -1       463-2.49944E+02 3.29818E+02 2.32123E+03
 -1       464-2.59726E+02 3.38978E+02-7.09167E+02
 -1       465-2.60567E+02 3.23651E+02-3.79202E+03
 -1       466-2.62976E+02 3.10472E+02-6.85862E+03
 -1       467 1.41675E+02-2.10293E+02-8.26412E+02
 -1       468 0.00000E+00 0.00000E+00 0.00000E+00
 -1       469 0.00000E+00 0.00000E+00 0.00000E+00
 -1       470-4.37081E+02-1.42605E+02-1.32548E+03
 -1       471-8.69757E+02-4.69698E+02-5.07623E+03
 -1       472-1.16948E+03-7.54741E+02-1.10410E+04
 -1       473-1.44945E+03-6.53059E+02-1.87737E+04
 -1       474-1.86452E+02 2.35285E+02 9.34139E+03
 -1       475-2.18068E+02 2.57379E+02 8.12342E+03
 -1       476-2.09973E+02 2.70893E+02 6.89073E+03
 -1       477-2.23937E+02 3.02591E+02 5.61264E+03
 -1       478-2.35705E+02 3.19343E+02 4.25313E+03
 -1       479-2.48950E+02 3.32678E+02 2.80982E+03
 -1       480-2.59795E+02 3.38733E+02 1.30128E+03
 -1       481-2.66320E+02 3.38435E+02-2.54982E+02
 -1       482-2.72474E+02 3.33951E+02-1.83902E+03
 -1       483-2.69913E+02 3.27071E+02-3.42700E+03
 -1       484-2.83555E+02 3.26270E+02-5.02502E+03
 -1       485 5.64227E+02-1.50011E+02-7.41973E+03
 -1       486 4.65597E+02-1.86884E+02-4.38642E+03
 -1       487 3.40628E+02-1.44122E+02-1.98497E+03
 -1       488 1.72679E+02-4.85806E+01-4.93302E+02
 -1       489 0.00000E+00 0.00000E+00 0.00000E+00
 -1       490 0.00000E+00 0.00000E+00 0.00000E+00
 -1       491-1.28342E+03-5.34972E+02-7.98613E+03
 -1       492-1.14876E+03-7.27475E+02-2.26298E+04
 -1       493-2.23982E+02 2.41302E+02 1.04965E+04
 -1       494-1.86990E+02 2.63827E+02 8.45866E+03
 -1       495-2.19393E+02 3.09771E+02 6.11337E+03
 -1       496-2.54498E+02 3.36043E+02 3.29240E+03
 -1       497-2.75411E+02 3.38741E+02 1.39747E+02
 -1       498-2.75343E+02 3.36164E+02-3.13113E+03
 -1       499 4.72046E+02-1.13424E+02-8.15090E+03
 -1       500 4.36851E+02-1.15709E+02-2.71400E+03
 -1       501 0.00000E+00 0.00000E+00 0.00000E+00
 -1       502 0.00000E+00 0.00000E+00 0.00000E+00
 -1       503-9.77622E+02-1.86242E+02-3.12031E+03
 -1       504-1.75277E+03-6.14848E+02-1.12418E+04
 -1       505-1.39241E+03-8.99993E+02-2.05733E+04
 -1       506-7.64222E+02-8.89897E+02-2.70539E+04
 -1       507 6.81896E+02-7.24731E+02-2.69611E+04
 -1       508 1.65228E+03 3.84625E+01-2.03216E+04
 -1       509-1.20589E+02 2.12271E+02 1.12973E+04
 -1       510-5.46736E+01 1.31024E+02 1.05633E+04
 -1       511-1.89483E+02 2.71770E+02 9.88889E+03
 -1       512-1.80274E+02 2.74131E+02 8.97414E+03
 -1       513-1.88016E+02 2.97902E+02 7.90023E+03
 -1       514-2.21514E+02 3.18770E+02 6.65501E+03
 -1       515-2.51646E+02 3.34590E+02 5.25803E+03
 -1       516-2.65655E+02 3.38596E+02 3.73053E+03
 -1       517-2.70780E+02 3.42388E+02 2.11639E+03
 -1       518-3.00265E+02 3.20304E+02 4.31502E+02
 -1       519-2.88928E+02 3.34891E+02-1.24565E+03
 -1       520-2.17958E+02 2.59619E+02-9.08595E+03
 -1       521 1.04742E+01 3.77464E+01-9.64151E+03
 -1       522 3.49279E+02-7.16381E+01-8.64448E+03
 -1       523 4.64479E+02-1.24901E+02-6.22996E+03
 -1       524 5.19627E+02-9.94195E+01-3.32285E+03
 -1       525 2.89632E+02-3.11817E+01-9.10716E+02
 -1       526 0.00000E+00 0.00000E+00 0.00000E+00
 -1       527 0.00000E+00 0.00000E+00 0.00000E+00
 -1       528-2.35419E+03-7.59433E+02-1.52605E+04
 -1       529-6.71515E+02-1.49421E+03-3.39531E+04
 -1       530 2.57769E+03-7.39518E+02-2.18114E+04
 -1       531 1.29019E+01 2.52246E+01 1.16288E+04
 -1       532-3.27616E+01 1.56192E+02 1.10951E+04
 -1       533-1.80015E+02 3.05061E+02 9.64460E+03
 -1       534-2.38607E+02 3.33228E+02 7.19799E+03
 -1       535-2.96135E+02 3.24401E+02 4.05779E+03
 -1       536-3.11326E+02 3.02616E+02 5.67903E+02
 -1       537-4.72494E+02 1.22415E+02-7.84628E+03
 -1       538 2.66377E+02-1.58615E+02-9.29473E+03
 -1       539 6.09155E+02-1.12785E+02-3.94194E+03
 -1       540 0.00000E+00 0.00000E+00 0.00000E+00
 -1       541 0.00000E+00 0.00000E+00 0.00000E+00
 -1       542-1.77211E+03-3.11899E+02-5.74077E+03
 -1       543-3.08290E+03-9.83363E+02-2.02750E+04
 -1       544-2.06041E+03-1.67825E+03-3.55902E+04
 -1       545-8.17752E+02-1.96764E+03-4.41318E+04
 -1       546 1.37504E+03-2.06972E+03-4.27059E+04
 -1       547 3.71309E+03-2.03052E+03-2.82185E+04
 -1       548 3.31941E+03-2.41272E+03-5.94743E+03
 -1       549 9.57292E+02-7.05937E+02 1.14030E+04
 -1       550 9.20521E+01 8.50481E+01 1.21904E+04
 -1       551-1.29945E+02 2.15212E+02 1.23662E+04
 -1       552-1.60943E+02 3.12105E+02 1.20690E+04
 -1       553-1.51955E+02 2.81494E+02 1.13804E+04
 -1       554-2.03916E+02 3.22939E+02 1.04052E+04
 -1       555-2.47464E+02 3.39714E+02 9.15158E+03
 -1       556-2.62180E+02 3.52699E+02 7.67364E+03
 -1       557-2.77280E+02 3.35943E+02 6.01301E+03
 -1       558-3.22647E+02 3.14995E+02 4.20870E+03
 -1       559-4.79256E+02 1.67584E+02 2.27498E+03
 -1       560-8.24115E+02-1.56630E+02-2.40840E+03
 -1       561-7.80965E+02-1.07933E+02-7.44554E+03
 -1       562-2.58219E+02-1.80537E+02-1.03951E+04
 -1       563 2.28944E+02-2.29633E+02-1.04287E+04
 -1       564 4.99177E+02-2.30263E+02-8.28108E+03
 -1       565 7.13543E+02-1.43168E+02-4.67322E+03
 -1       566 4.09157E+02-4.62980E+01-1.31603E+03
 -1       567 0.00000E+00 0.00000E+00 0.00000E+00
 -1       568 0.00000E+00 0.00000E+00 0.00000E+00
 -1       569-4.07015E+03-1.26001E+03-2.68291E+04
 -1       570-7.56401E+02-2.53735E+03-5.71009E+04
 -1       571 3.26212E+03-2.36424E+03-4.21236E+04
 -1       572 2.93192E+03-2.73440E+03-2.83195E+03
 -1       573-8.24161E+02-2.91654E+02 1.13764E+03
 -1       574-7.40053E+02-2.24104E+02-8.62500E+03
 -1       575 1.58806E+02-3.40960E+02-1.20696E+04
 -1       576 8.60923E+02-1.91537E+02-5.65503E+03
 -1       577 0.00000E+00 0.00000E+00 0.00000E+00
 -1       578 0.00000E+00 0.00000E+00 0.00000E+00
 -1       579-2.99628E+03-3.89331E+02-9.92780E+03
 -1       580-5.16125E+03-1.43872E+03-3.46606E+04
 -1       581-3.32237E+03-2.57662E+03-6.05787E+04
 -1       582-5.20711E+02-3.17968E+03-7.35435E+04
 -1       583 1.47220E+03-2.64835E+03-7.00790E+04
 -1       584 3.08691E+03-2.63574E+03-5.63771E+04
 -1       585 2.93505E+03-2.79422E+03-3.91561E+04
 -1       586 2.85116E+03-3.19255E+03-2.12406E+04
 -1       587 1.80957E+03-2.38535E+03-9.00034E+03
 -1       588 1.17248E+03-1.67352E+03-7.72285E+02
 -1       589-4.73033E+02-4.00456E+02 5.56379E+03
 -1       590-5.95225E+02-4.52572E+02 2.50994E+03
 -1       591-7.84345E+02-4.93405E+02-1.32345E+03
 -1       592-7.46079E+02-3.75450E+02-5.96425E+03
 -1       593-7.21753E+02-3.28329E+02-1.01793E+04
 -1       594-3.62236E+02-3.43548E+02-1.34168E+04
 -1       595 6.98840E+01-4.72390E+02-1.43936E+04
 -1       596 6.49055E+02-3.99016E+02-1.19745E+04
 -1       597 1.03136E+03-2.21197E+02-6.85011E+03
 -1       598 5.94523E+02-5.60263E+01-1.94414E+03
 -1       599 0.00000E+00 0.00000E+00 0.00000E+00
 -1       600 1.23203E+03-3.01827E+03-9.26846E+04
 -1       601 3.07020E+03-1.19207E+03-6.79473E+04
 -1       602 2.78244E+03-1.28167E+03-3.41385E+04
 -1       603 1.69355E+03-1.03943E+03-8.56405E+03
 -1       604-4.98696E+02-3.37427E+02 3.41664E+03
 -1       605-7.03116E+02-2.42650E+02-3.45974E+03
 -1       606-6.99931E+02-1.30825E+02-1.15897E+04
 -1       607-2.97419E+02-4.59119E+02-1.73375E+04
 -1       608 3.18659E+03-2.91717E+03-1.10786E+05
 -1       609 3.28404E+03-1.02096E+03-9.11650E+04
 -1       610 3.49413E+03 5.82043E+02-7.03895E+04
 -1       611 2.96630E+03 6.89077E+02-5.17930E+04
 -1       612 2.46738E+03 5.58977E+02-3.60953E+04
 -1       613 2.08386E+03 1.55729E+02-2.27423E+04
 -1       614 1.62264E+03-9.11879E+01-1.20424E+04
 -1       615-4.23973E+02-2.40610E+02 1.70943E+03
 -1       616-5.02438E+02-1.29576E+02-9.74626E+02
 -1       617-5.74191E+02 6.25316E+00-4.13155E+03
 -1       618-6.58524E+02 9.26493E+01-7.69329E+03
 -1       619-7.40888E+02 1.23380E+02-1.17351E+04
 -1       620-6.89537E+02-1.17826E+02-1.60569E+04
 -1       621-6.65319E+02-4.49327E+02-2.01381E+04
 -1       622 2.79499E+03 3.17848E+03-5.76920E+04
 -1       623 1.99702E+03 1.63948E+03-2.95329E+04
 -1       624 1.29508E+03 6.02469E+02-1.04456E+04
 -1       625-2.87895E+02-1.23388E+02 5.97704E+02
 -1       626-4.34500E+02 1.73450E+02-3.58438E+03
 -1       627-5.76431E+02 5.27249E+02-9.52512E+03
 -1       628 1.57332E+03 4.87621E+03-3.30655E+04
 -1       629 1.40438E+03 3.69002E+03-2.44243E+04
 -1       630 1.16108E+03 2.57931E+03-1.70018E+04
 -1       631 9.36894E+02 1.68997E+03-1.08751E+04
 -1       632 7.40783E+02 9.42031E+02-5.86636E+03
 -1       633 4.26806E+02 4.24095E+02-2.59568E+03
 -1       634 1.63790E+02 9.73038E+01-6.62129E+02
 -1       635 8.79019E+01-4.11551E+00 7.84425E+00
 -1       636 3.02697E+01-5.87047E+01 3.70817E+02
 -1       637-2.79850E+01-6.02990E+01 3.87504E+02
 -1       638-1.16928E+02-2.42832E+01 8.19697E+01
 -1       639-1.85128E+02 1.29699E+02-8.51132E+02
 -1       640-2.46738E+02 3.19884E+02-2.11742E+03
 -1       641-2.93061E+02 5.51445E+02-3.67383E+03
 -1       642-3.27616E+02 7.94404E+02-5.47853E+03
 -1       643 4.40741E+02 2.85268E+03-9.53733E+03
 -1       644 3.63469E+02 1.48439E+03-4.82164E+03
 -1       645 2.25939E+02 5.03754E+02-1.65043E+03
 -1       646 4.95309E+01 5.69147E+01-2.40295E+02
 -1       647 1.04773E+01-3.32565E+01 8.40044E+01
 -1       648-3.31681E+01-9.03121E+00-7.19693E+00
 -1       649-7.59039E+01 1.83143E+02-6.08206E+02
 -1       650-9.59737E+01 4.70888E+02-1.60086E+03
 -1       651 0.00000E+00 0.00000E+00 0.00000E+00
 -1       652 0.00000E+00 0.00000E+00 0.00000E+00
 -1       653 0.00000E+00 0.00000E+00 0.00000E+00
 -1       654 0.00000E+00 0.00000E+00 0.00000E+00
 -1       655 0.00000E+00 0.00000E+00 0.00000E+00
 -1       656 0.00000E+00 0.00000E+00 0.00000E+00
 -1       657 0.00000E+00 0.00000E+00 0.00000E+00
 -1       658 0.00000E+00 0.00000E+00 0.00000E+00
 -1       659 0.00000E+00 0.00000E+00 0.00000E+00
 -1       660 0.00000E+00 0.00000E+00 0.00000E+00
 -1       661 0.00000E+00 0.00000E+00 0.00000E+00
 -1       662 0.00000E+00 0.00000E+00 0.00000E+00
 -1       663 0.00000E+00 0.00000E+00 0.00000E+00
 -1       664 0.00000E+00 0.00000E+00 0.00000E+00
 -1       665 0.00000E+00 0.00000E+00 0.00000E+00
 -1       666 0.00000E+00 0.00000E+00 0.00000E+00
 -1       667 0.00000E+00 0.00000E+00 0.00000E+00
 -1       668 0.00000E+00 0.00000E+00 0.00000E+00
 -1       669 0.00000E+00 0.00000E+00 0.00000E+00
 -1       670 0.00000E+00 0.00000E+00 0.00000E+00
 -1       671 0.00000E+00 0.00000E+00 0.00000E+00
 -1       672 0.00000E+00 0.00000E+00 0.00000E+00
 -1       673 0.00000E+00 0.00000E+00 0.00000E+00
 -1       674 9.80245E-11 2.24401E-10 1.80097E+03
 -1       675 5.05379E-11 9.77212E-11 7.96304E+02
 -1       676 3.99512E-11 1.09825E-11 3.44293E+02
 -1       677 2.40004E-11-9.95631E-12 4.07750E+02
 -1       678 2.25485E-12 6.25671E-12 2.17340E+03
 -1       679-5.22648E-12 2.25627E-11 6.71558E+03
 -1       680 2.18513E-12 8.80666E-11 1.46591E+04
 -1       681-3.50958E-11 1.62712E-10 2.73419E+04
 -1       682 3.67213E-10 3.43752E-10 6.75533E+03
 -1       683 3.12644E-10 3.98964E-10 3.89523E+03
 -1       684 2.34575E-10 2.33011E-10 1.58899E+03
 -1       685 1.36081E-10 2.58821E-11 9.20046E+02
 -1       686 1.08331E-10-2.68031E-11 9.83830E+02
 -1       687 2.11751E-11 2.28482E-11 7.73193E+03
 -1       688-4.38467E-11-1.75838E-11 1.48116E+04
 -1       689-3.76831E-11 1.31396E-10 3.12427E+04
 -1       690-1.14362E-10 2.37476E-10 5.81740E+04
 -1       691-1.58020E-10 1.10324E-10 9.15909E+04
 -1       692 0.00000E+00 0.00000E+00 0.00000E+00
 -1       693 1.39397E-10 8.20312E-11 2.24535E+03
 -1       694 2.69548E-10 2.71729E-10 4.67208E+03
 -1       695 3.20590E-10 4.21638E-10 3.23853E+03
 -1       696 3.15646E-10 5.95200E-10-2.11791E+02
 -1       697-2.95942E-10-8.68872E-11 5.59262E+03
 -1       698-2.52822E-10 2.62089E-10 1.72655E+04
 -1       699-2.06999E-10 2.68426E-10 4.52109E+04
 -1       700-4.72584E-11 1.42447E-10 5.95869E+04
 -1       701-9.30055E-11 2.52842E-11 2.79899E+04
 -1       702 0.00000E+00 0.00000E+00 0.00000E+00
 -1       703 0.00000E+00 0.00000E+00 0.00000E+00
 -1       704 4.12460E-11 6.27467E-11 1.36665E+03
 -1       705 8.05373E-11 2.08399E-10 3.03231E+03
 -1       706 7.95690E-11 4.20651E-10 2.22437E+03
 -1       707-4.59429E-11 1.37042E-09-1.09195E+03
 -1       708-5.57526E-11 1.75232E-09-4.46369E+03
 -1       709-7.59640E-11 1.86447E-09-7.67038E+03
 -1       710-9.55311E-11 1.94427E-09-1.04212E+04
 -1       711-1.01668E-10 1.95181E-09-1.23425E+04
 -1       712-6.74848E-11 1.58708E-09-1.30292E+04
 -1       713-5.22934E-11 2.86366E-10 1.56752E+04
 -1       714 6.31579E-12 1.65652E-10 3.44426E+04
 -1       715-2.97243E-11 6.20929E-11 1.51391E+04
 -1       716 0.00000E+00 0.00000E+00 0.00000E+00
 -1       717 0.00000E+00 0.00000E+00 0.00000E+00
 -1       718-1.17809E-11 5.27367E-11 6.04713E+02
 -1       719-4.45831E-11 1.67920E-10 1.62973E+03
 -1       720-9.01078E-11 3.98692E-10 1.93200E+03
 -1       721-1.92622E-10 1.61903E-09 2.68886E+03
 -1       722-1.92548E-10 1.74836E-09-5.18216E+02
 -1       723-1.77193E-10 1.87069E-09-3.67221E+03
 -1       724-1.69247E-10 1.94165E-09-6.62505E+03
 -1       725-1.51460E-10 1.96929E-09-9.23578E+03
 -1       726-1.38520E-10 2.02507E-09-1.14315E+04
 -1       727 5.72957E-11 2.05127E-10 2.17792E+04
 -1       728 2.31588E-11 4.29177E-11 6.06860E+03
 -1       729 0.00000E+00 0.00000E+00 0.00000E+00
 -1       730 0.00000E+00 0.00000E+00 0.00000E+00
 -1       731-2.96071E-11 3.31050E-11-7.15380E+02
 -1       732-6.20101E-11 1.42329E-10-3.26956E+02
 -1       733-2.66405E-10 1.65134E-09 6.32633E+03
 -1       734-2.78263E-10 1.73082E-09 3.35836E+03
 -1       735-2.69507E-10 1.84898E-09 3.41883E+02
 -1       736-2.60484E-10 1.93025E-09-2.71569E+03
 -1       737-2.53192E-10 1.96412E-09-5.69002E+03
 -1       738-2.33711E-10 2.00787E-09-8.58329E+03
 -1       739 2.32223E-12 1.13037E-11 5.91355E+02
 -1       740 0.00000E+00 0.00000E+00 0.00000E+00
 -1       741 0.00000E+00 0.00000E+00 0.00000E+00
 -1       742-1.73489E-11-1.50735E-11-5.05535E+03
 -1       743-1.00672E-10-1.49378E-10-1.87705E+04
 -1       744-3.43945E-10 1.63572E-09 9.34950E+03
 -1       745-3.35089E-10 1.72577E-09 6.89012E+03
 -1       746-3.43757E-10 1.82892E-09 4.25432E+03
 -1       747-3.47552E-10 1.91488E-09 1.30171E+03
 -1       748-3.51856E-10 1.96554E-09-1.83974E+03
 -1       749-3.45980E-10 2.01918E-09-5.02220E+03
 -1       750-3.41397E-11-3.20170E-13-7.42041E+03
 -1       751-9.56380E-13-2.06639E-12-1.97828E+03
 -1       752 0.00000E+00 0.00000E+00 0.00000E+00
 -1       753 0.00000E+00 0.00000E+00 0.00000E+00
 -1       754 1.98119E-11-2.62380E-11-1.12201E+04
 -1       755 3.28748E-11-5.70079E-11-2.70792E+04
 -1       756-9.52848E-11-4.50398E-11-2.03341E+04
 -1       757-3.80940E-10 1.58658E-09 1.12721E+04
 -1       758-4.02066E-10 1.72521E-09 9.89675E+03
 -1       759-4.30517E-10 1.84029E-09 7.89983E+03
 -1       760-4.43474E-10 1.94437E-09 5.25892E+03
 -1       761-4.52678E-10 1.97053E-09 2.11794E+03
 -1       762-4.46795E-10 1.99174E-09-1.25075E+03
 -1       763-8.86894E-11 9.37138E-11-9.09031E+03
 -1       764-5.29386E-11-5.45165E-12-8.65252E+03
 -1       765-1.17644E-11-1.94636E-11-3.31666E+03
 -1       766 0.00000E+00 0.00000E+00 0.00000E+00
 -1       767 0.00000E+00 0.00000E+00 0.00000E+00
 -1       768-3.93007E-11-3.42252E-11-2.02374E+04
 -1       769-6.28945E-11 4.50174E-11-4.41936E+04
 -1       770-1.37401E-10 1.39429E-10-2.82434E+04
 -1       771-4.55391E-10 1.19258E-09 1.15170E+04
 -1       772-5.54795E-10 1.72683E-09 1.23418E+04
 -1       773-5.34745E-10 1.84127E-09 1.13881E+04
 -1       774-5.04698E-10 1.93687E-09 9.15173E+03
 -1       775-4.80348E-10 1.95639E-09 6.00916E+03
 -1       776-4.24660E-10 1.63842E-09 2.29582E+03
 -1       777-8.04036E-11 1.65347E-10-7.45257E+03
 -1       778-1.76312E-11-3.56978E-12-1.04430E+04
 -1       779 1.04613E-11-3.78990E-11-4.66482E+03
 -1       780 0.00000E+00 0.00000E+00 0.00000E+00
 -1       781 0.00000E+00 0.00000E+00 0.00000E+00
 -1       782-5.14715E-11-4.07438E-11-3.46185E+04
 -1       783-1.23154E-10 1.68509E-10-7.36378E+04
 -1       784-1.29983E-10 1.18768E-10-5.64185E+04
 -1       785-1.00286E-10 1.96056E-10-2.12628E+04
 -1       786 8.22252E-11 1.10043E-11-7.74849E+02
 -1       787 3.46316E-10 6.38370E-11 5.56542E+03
 -1       788 2.89332E-10 4.38844E-10-1.32491E+03
 -1       789 2.34207E-10 2.20135E-10-1.01867E+04
 -1       790 1.17008E-10-4.56306E-11-1.44130E+04
 -1       791 1.00542E-11-5.35909E-11-6.84212E+03
 -1       792 0.00000E+00 0.00000E+00 0.00000E+00
 -1       793 1.06358E-10 3.54618E-10-1.10782E+05
 -1       794 1.63752E-11 1.55121E-10-7.04784E+04
 -1       795 3.26304E-11 5.60102E-11-3.61482E+04
 -1       796 3.04642E-11 7.66073E-12-1.20622E+04
 -1       797 1.61590E-10 6.35358E-11 1.70795E+03
 -1       798 1.96867E-10 2.21413E-10-4.13857E+03
 -1       799 3.41671E-10 2.64688E-10-1.17490E+04
 -1       800 4.18831E-10-7.92720E-11-2.01373E+04
 -1       801-2.16580E-11-6.33746E-12-3.30242E+04
 -1       802 2.97877E-11 2.16245E-11-1.69731E+04
 -1       803 1.12331E-13-3.90485E-12-5.84602E+03
 -1       804 2.64684E-12 6.31564E-12-6.53978E+02
 -1       805 5.04829E-12 4.87898E-12 3.69421E+02
 -1       806 3.82541E-11 2.12488E-11 8.29413E+01
 -1       807 7.66890E-11 9.13352E-11-2.11354E+03
 -1       808 1.14672E-10 1.73402E-10-5.47155E+03
 -1       809 0.00000E+00 0.00000E+00 0.00000E+00
 -1       810 0.00000E+00 0.00000E+00 0.00000E+00
 -1       811 0.00000E+00 0.00000E+00 0.00000E+00
 -1       812 0.00000E+00 0.00000E+00 0.00000E+00
 -1       813 0.00000E+00 0.00000E+00 0.00000E+00
 -1       814 0.00000E+00 0.00000E+00 0.00000E+00
 -1       815 0.00000E+00 0.00000E+00 0.00000E+00
 -1       816 0.00000E+00 0.00000E+00 0.00000E+00
 -1       817 0.00000E+00 0.00000E+00 0.00000E+00
 -1       818 0.00000E+00 0.00000E+00 0.00000E+00
 -1       819 0.00000E+00 0.00000E+00 0.00000E+00
 -1       820 0.00000E+00 0.00000E+00 0.00000E+00
 -1       821 0.00000E+00 0.00000E+00 0.00000E+00
 -1       822 0.00000E+00 0.00000E+00 0.00000E+00
 -1       823 0.00000E+00 0.00000E+00 0.00000E+00
 -1       824 0.00000E+00 0.00000E+00 0.00000E+00
 -1       825 0.00000E+00 0.00000E+00 0.00000E+00
 -1       826 0.00000E+00 0.00000E+00 0.00000E+00
 -1       827 0.00000E+00 0.00000E+00 0.00000E+00
 -1       828 0.00000E+00 0.00000E+00 0.00000E+00
 -1       829 0.00000E+00 0.00000E+00 0.00000E+00
 -1       830 0.00000E+00 0.00000E+00 0.00000E+00
 -1       831 0.00000E+00 0.00000E+00 0.00000E+00
 -1       832 3.09747E+01-1.55999E+02 5.26792E+02
 -1       833 2.07931E+01-7.01797E+01 2.29319E+02
 -1       834 2.22538E+00-2.90904E+01 9.63180E+01
 -1       835-9.80588E+00-3.58303E+01 1.42164E+02
 -1       836-7.92178E+01-1.88078E+02 5.99117E+02
 -1       837-1.54336E+02-5.83800E+02 1.90020E+03
 -1       838-2.76863E+02-1.28273E+03 4.17466E+03
 -1       839-3.48246E+02-2.36215E+03 7.88214E+03
 -1       840 1.05629E+02-2.65636E+02 1.80340E+03
 -1       841 8.68175E+01-1.87028E+02 1.24477E+03
 -1       842 6.39735E+01-1.23504E+02 7.98274E+02
 -1       843 4.05460E+01-7.93501E+01 5.01456E+02
 -1       844 1.52913E+01-5.68953E+01 3.45365E+02
 -1       845-7.28113E+00-4.96824E+01 3.18550E+02
 -1       846-3.40431E+01-5.60084E+01 4.10052E+02
 -1       847-1.43977E+02-1.71060E+02 1.03031E+03
 -1       848-2.67166E+02-3.68918E+02 2.18439E+03
 -1       849-3.94483E+02-6.61893E+02 4.14862E+03
 -1       850-5.19224E+02-1.04488E+03 6.72892E+03
 -1       851-6.70743E+02-1.57165E+03 1.02131E+04
 -1       852-8.78427E+02-2.22696E+03 1.46868E+04
 -1       853-1.11077E+03-3.09983E+03 2.04897E+04
 -1       854-1.26009E+03-4.04931E+03 2.73748E+04
 -1       855 1.92235E+02-1.73594E+02 3.16175E+03
 -1       856 1.09058E+02-6.59138E+01 1.37215E+03
 -1       857 1.75609E+01-4.94142E+01 6.51941E+02
 -1       858-2.01469E+01-5.12508E+01 6.90811E+02
 -1       859-5.09392E+02-4.69133E+02 4.55679E+03
 -1       860-7.97630E+02-7.16520E+02 1.19854E+04
 -1       861-1.53018E+03-1.42141E+03 2.55665E+04
 -1       862-2.25310E+03-2.61669E+03 4.77609E+04
 -1       863 2.22145E+02 1.67530E+02 6.75559E+03
 -1       864 2.37219E+02 5.23139E+01 5.36697E+03
 -1       865 2.56848E+02-3.53490E+01 3.89092E+03
 -1       866 1.99456E+02-2.25554E+01 2.55784E+03
 -1       867 1.30669E+02 6.39242E+00 1.58686E+03
 -1       868 5.99534E+01-1.56971E+01 1.07048E+03
 -1       869 7.51732E+00-3.99018E+01 9.21086E+02
 -1       870-8.69034E+00-5.01219E+01 9.08156E+02
 -1       871-1.67361E+01-4.73465E+01 9.82944E+02
 -1       872-4.53251E+02-6.00601E+02 7.73643E+03
 -1       873-6.09635E+02-4.18762E+02 1.07063E+04
 -1       874-8.78272E+02-1.92306E+02 1.47978E+04
 -1       875-1.43077E+03-2.34950E+02 2.14953E+04
 -1       876-1.87280E+03-4.57830E+02 3.11967E+04
 -1       877-2.31935E+03-5.33731E+02 4.32875E+04
 -1       878-2.83221E+03-4.37191E+02 5.81021E+04
 -1       879-2.73284E+03 9.24939E+02 7.51559E+04
 -1       880-2.65236E+03 2.51147E+03 9.15956E+04
 -1       881 1.01216E+02 1.66442E+02 5.72689E+03
 -1       882 2.35573E+02 5.27662E+01 3.78293E+03
 -1       883 2.37720E+02 1.47764E+02 1.02785E+03
 -1       884-8.97844E+02 8.57228E+02 1.25279E+04
 -1       885-2.03965E+03 1.19228E+03 2.91945E+04
 -1       886-2.48255E+03 1.10583E+03 5.56079E+04
 -1       887-1.08118E+03 2.61004E+03 7.60012E+04
 -1       888 0.00000E+00 0.00000E+00 0.00000E+00
 -1       889-1.94563E+02 2.22142E+01 6.39312E+02
 -1       890-3.34597E+02 8.47299E+01 2.24787E+03
 -1       891-2.08066E+02 1.44489E+02 3.89991E+03
 -1       892-1.97464E+01 1.68259E+02 4.66553E+03
 -1       893 1.21169E+02 1.30381E+02 4.33678E+03
 -1       894 2.44829E+02 1.24475E+02 3.23542E+03
 -1       895 2.96698E+02 1.60015E+02 1.69927E+03
 -1       896 3.51524E+02 2.59271E+02-2.12704E+02
 -1       897-4.16941E+02 1.55106E+03 5.58405E+03
 -1       898-1.04173E+03 2.18646E+03 9.42818E+03
 -1       899-2.07081E+03 2.95686E+03 1.72511E+04
 -1       900-2.38507E+03 2.58853E+03 3.11035E+04
 -1       901-2.55727E+03 2.34721E+03 4.51709E+04
 -1       902-1.18662E+03 2.32517E+03 5.64471E+04
 -1       903 3.71631E+02 2.79559E+03 5.95121E+04
 -1       904 2.66434E+03 2.28602E+03 4.91046E+04
 -1       905 4.18480E+03 1.27817E+03 2.80251E+04
 -1       906 2.43439E+03 3.58832E+02 8.03767E+03
 -1       907 0.00000E+00 0.00000E+00 0.00000E+00
 -1       908 0.00000E+00 0.00000E+00 0.00000E+00
 -1       909-2.70309E+02 7.70324E+01 1.78006E+03
 -1       910-4.80894E+01 1.41640E+02 3.78740E+03
 -1       911 2.40750E+02 8.04510E+01 2.67039E+03
 -1       912 4.00369E+02 6.81108E+01-1.24076E+03
 -1       913-2.21613E+03 2.57810E+03 2.40076E+01
 -1       914-2.84970E+03 2.46600E+03 3.15531E+04
 -1       915 6.33983E+02 2.17844E+03 4.50684E+04
 -1       916 3.19736E+03 1.11410E+03 2.11064E+04
 -1       917 0.00000E+00 0.00000E+00 0.00000E+00
 -1       918 0.00000E+00 0.00000E+00 0.00000E+00
 -1       919-1.18979E+02 1.98426E+01 3.87846E+02
 -1       920-2.07508E+02 6.54140E+01 1.36883E+03
 -1       921-1.44023E+02 1.09078E+02 2.41453E+03
 -1       922-6.31867E+01 1.19382E+02 3.02776E+03
 -1       923 6.81386E+01 1.00235E+02 3.03366E+03
 -1       924 2.07183E+02 5.22836E+01 2.22124E+03
 -1       925 2.92565E+02-3.08711E+01 7.81742E+02
 -1       926 3.06173E+02-2.47389E+02-1.08436E+03
 -1       927 2.83792E+02-3.29147E+02-2.78427E+03
 -1       928 2.76568E+02-3.38396E+02-4.46502E+03
 -1       929 2.71015E+02-3.50190E+02-6.10454E+03
 -1       930 2.61974E+02-3.47179E+02-7.67124E+03
 -1       931 2.39951E+02-3.36582E+02-9.12355E+03
 -1       932 2.10203E+02-3.05597E+02-1.04143E+04
 -1       933 2.15505E+02-3.43597E+02-1.15234E+04
 -1       934 1.94832E+02-2.68773E+02-1.23653E+04
 -1       935 5.93928E+01-1.70098E+02-1.28500E+04
 -1       936-4.89304E+02 5.91450E+02-1.29289E+04
 -1       937-2.44132E+03 2.57846E+03-1.49336E+03
 -1       938-3.47011E+03 2.81766E+03 1.56458E+04
 -1       939-1.54732E+03 2.09488E+03 3.11208E+04
 -1       940 7.12431E+02 1.45745E+03 3.43936E+04
 -1       941 1.63565E+03 1.43707E+03 2.70689E+04
 -1       942 2.35140E+03 9.24228E+02 1.51696E+04
 -1       943 1.33110E+03 2.93106E+02 4.26060E+03
 -1       944 0.00000E+00 0.00000E+00 0.00000E+00
 -1       945 0.00000E+00 0.00000E+00 0.00000E+00
 -1       946-1.51475E+02 6.35136E+01 9.96118E+02
 -1       947-7.08810E+01 1.19863E+02 2.33234E+03
 -1       948 1.11223E+02 3.17547E+01 2.04769E+03
 -1       949 2.84887E+02-3.18926E+02 7.89089E+02
 -1       950 2.79045E+02-3.33205E+02-2.48919E+03
 -1       951 2.59115E+02-3.41212E+02-5.66978E+03
 -1       952 2.27108E+02-3.30748E+02-8.52782E+03
 -1       953 1.34130E+02-2.15206E+02-1.07771E+04
 -1       954 9.81573E+01-1.08332E+02-1.24228E+04
 -1       955 1.24959E+03 1.09448E+03 2.73048E+04
 -1       956 1.62283E+03 7.76944E+02 1.02411E+04
 -1       957 0.00000E+00 0.00000E+00 0.00000E+00
 -1       958 0.00000E+00 0.00000E+00 0.00000E+00
 -1       959-5.50707E+01 2.36901E+01 1.60188E+02
 -1       960-9.06114E+01 6.66358E+01 6.05690E+02
 -1       961-8.67721E+01 1.16634E+02 1.13415E+03
 -1       962-8.22491E+01 1.23897E+02 1.62737E+03
 -1       963-1.93661E+01 9.14983E+01 1.92180E+03
 -1       964 2.13030E+01 2.05701E+01 1.93074E+03
 -1       965 2.75210E+02-3.31770E+02 2.68662E+03
 -1       966 2.77435E+02-3.24663E+02 1.08577E+03
 -1       967 2.70223E+02-3.38799E+02-5.17813E+02
 -1       968 2.68702E+02-3.41482E+02-2.10713E+03
 -1       969 2.62905E+02-3.42973E+02-3.67167E+03
 -1       970 2.48672E+02-3.34955E+02-5.18481E+03
 -1       971 2.31170E+02-3.23779E+02-6.62584E+03
 -1       972 2.27825E+02-3.13028E+02-7.97455E+03
 -1       973 2.35353E+02-3.21831E+02-9.22892E+03
 -1       974 1.47921E+02-2.02783E+02-1.03190E+04
 -1       975 1.93429E+02-2.81017E+02-1.14538E+04
 -1       976 1.59555E+03 8.89541E+02 2.17935E+04
 -1       977 1.33903E+03 1.02859E+03 1.29822E+04
 -1       978 1.02627E+03 6.31371E+02 6.09322E+03
 -1       979 5.25967E+02 1.89862E+02 1.62266E+03
 -1       980 0.00000E+00 0.00000E+00 0.00000E+00
 -1       981 0.00000E+00 0.00000E+00 0.00000E+00
 -1       982-2.28573E+01 1.16927E+02 8.65746E+01
 -1       983-8.63877E+01 1.74152E+02 7.65880E+02
 -1       984 2.70779E+02-3.23619E+02 4.55219E+03
 -1       985 2.65976E+02-3.31020E+02 1.44315E+03
 -1       986 2.60978E+02-3.40612E+02-1.66272E+03
 -1       987 2.49047E+02-3.31840E+02-4.69252E+03
 -1       988 2.31989E+02-3.10249E+02-7.50749E+03
 -1       989 2.59618E+02-2.99843E+02-1.01446E+04
 -1       990 4.83572E+02 4.44924E+02 2.92177E+03
 -1       991 0.00000E+00 0.00000E+00 0.00000E+00
 -1       992 0.00000E+00 0.00000E+00 0.00000E+00
 -1       993 6.47674E+01 5.48959E+01-2.71441E+02
 -1       994 7.48530E+01 1.89185E+02-7.18679E+02
 -1       995-3.19750E+01 2.02688E+02-7.47923E+02
 -1       996-1.09322E+02 2.06589E+02-3.24050E+02
 -1       997 2.64680E+02-3.05004E+02 6.32819E+03
 -1       998 2.52145E+02-3.04436E+02 4.83558E+03
 -1       999 2.56614E+02-3.18433E+02 3.35730E+03
 -1      1000 2.56295E+02-3.28575E+02 1.85785E+03
 -1      1001 2.58255E+02-3.37233E+02 3.41702E+02
 -1      1002 2.57926E+02-3.39787E+02-1.18838E+03
 -1      1003 2.55322E+02-3.36103E+02-2.71507E+03
 -1      1004 2.52617E+02-3.28661E+02-4.22027E+03
 -1      1005 2.45734E+02-3.08904E+02-5.69104E+03
 -1      1006 2.53037E+02-3.05492E+02-7.14103E+03
 -1      1007 2.31196E+02-2.83686E+02-8.57610E+03
 -1      1008 8.65151E+01 2.76090E+02 5.96535E+02
 -1      1009 5.29662E+01 7.94370E+01 2.10591E+02
 -1      1010 0.00000E+00 0.00000E+00 0.00000E+00
 -1      1011 0.00000E+00 0.00000E+00 0.00000E+00
 -1      1012 4.17822E+02 3.42883E+02-2.56137E+03
 -1      1013 2.36974E+02-2.75304E+02 7.94374E+03
 -1      1014 2.34963E+02-2.96829E+02 5.18204E+03
 -1      1015 2.49944E+02-3.29818E+02 2.32123E+03
 -1      1016 2.59726E+02-3.38978E+02-7.09167E+02
 -1      1017 2.60567E+02-3.23651E+02-3.79202E+03
 -1      1018 2.62976E+02-3.10472E+02-6.85862E+03
 -1      1019-1.41675E+02 2.10293E+02-8.26412E+02
 -1      1020 0.00000E+00 0.00000E+00 0.00000E+00
 -1      1021 0.00000E+00 0.00000E+00 0.00000E+00
 -1      1022 4.37081E+02 1.42605E+02-1.32548E+03
 -1      1023 8.69757E+02 4.69698E+02-5.07623E+03
 -1      1024 1.16948E+03 7.54741E+02-1.10410E+04
 -1      1025 1.44945E+03 6.53059E+02-1.87737E+04
 -1      1026 1.86452E+02-2.35285E+02 9.34139E+03
 -1      1027 2.18068E+02-2.57379E+02 8.12342E+03
 -1      1028 2.09973E+02-2.70893E+02 6.89073E+03
 -1      1029 2.23937E+02-3.02591E+02 5.61264E+03
 -1      1030 2.35705E+02-3.19343E+02 4.25313E+03
 -1      1031 2.48950E+02-3.32678E+02 2.80982E+03
 -1      1032 2.59795E+02-3.38733E+02 1.30128E+03
 -1      1033 2.66320E+02-3.38435E+02-2.54982E+02
 -1      1034 2.72474E+02-3.33951E+02-1.83902E+03
 -1      1035 2.69913E+02-3.27071E+02-3.42700E+03
 -1      1036 2.83555E+02-3.26270E+02-5.02502E+03
 -1      1037-5.64227E+02 1.50011E+02-7.41973E+03
 -1      1038-4.65597E+02 1.86884E+02-4.38642E+03
 -1      1039-3.40628E+02 1.44122E+02-1.98497E+03
 -1      1040-1.72679E+02 4.85806E+01-4.93302E+02
 -1      1041 0.00000E+00 0.00000E+00 0.00000E+00
 -1      1042 0.00000E+00 0.00000E+00 0.00000E+00
 -1      1043 1.28342E+03 5.34972E+02-7.98613E+03
 -1      1044 1.14876E+03 7.27475E+02-2.26298E+04
 -1      1045 2.23982E+02-2.41302E+02 1.04965E+04
 -1      1046 1.86990E+02-2.63827E+02 8.45866E+03
 -1      1047 2.19393E+02-3.09771E+02 6.11337E+03
 -1      1048 2.54498E+02-3.36043E+02 3.29240E+03
 -1      1049 2.75411E+02-3.38741E+02 1.39747E+02
 -1      1050 2.75343E+02-3.36164E+02-3.13113E+03
 -1      1051-4.72046E+02 1.13424E+02-8.15090E+03
 -1      1052-4.36851E+02 1.15709E+02-2.71400E+03
 -1      1053 0.00000E+00 0.00000E+00 0.00000E+00
 -1      1054 0.00000E+00 0.00000E+00 0.00000E+00
 -1      1055 9.77622E+02 1.86242E+02-3.12031E+03
 -1      1056 1.75277E+03 6.14848E+02-1.12418E+04
 -1      1057 1.39241E+03 8.99993E+02-2.05733E+04
 -1      1058 7.64222E+02 8.89897E+02-2.70539E+04
 -1      1059-6.81896E+02 7.24731E+02-2.69611E+04
 -1      1060-1.65228E+03-3.84625E+01-2.03216E+04
 -1      1061 1.20589E+02-2.12271E+02 1.12973E+04
 -1      1062 5.46736E+01-1.31024E+02 1.05633E+04
 -1      1063 1.89483E+02-2.71770E+02 9.88889E+03
 -1      1064 1.80274E+02-2.74131E+02 8.97414E+03
 -1      1065 1.88016E+02-2.97902E+02 7.90023E+03
 -1      1066 2.21514E+02-3.18770E+02 6.65501E+03
 -1      1067 2.51646E+02-3.34590E+02 5.25803E+03
 -1      1068 2.65655E+02-3.38596E+02 3.73053E+03
 -1      1069 2.70780E+02-3.42388E+02 2.11639E+03
 -1      1070 3.00265E+02-3.20304E+02 4.31502E+02
 -1      1071 2.88928E+02-3.34891E+02-1.24565E+03
 -1      1072 2.17958E+02-2.59619E+02-9.08595E+03
 -1      1073-1.04742E+01-3.77464E+01-9.64151E+03
 -1      1074-3.49279E+02 7.16381E+01-8.64448E+03
 -1      1075-4.64479E+02 1.24901E+02-6.22996E+03
 -1      1076-5.19627E+02 9.94195E+01-3.32285E+03
 -1      1077-2.89632E+02 3.11817E+01-9.10716E+02
 -1      1078 0.00000E+00 0.00000E+00 0.00000E+00
 -1      1079 0.00000E+00 0.00000E+00 0.00000E+00
 -1      1080 2.35419E+03 7.59433E+02-1.52605E+04
 -1      1081 6.71515E+02 1.49421E+03-3.39531E+04
 -1      1082-2.57769E+03 7.39518E+02-2.18114E+04
 -1      1083-1.29019E+01-2.52246E+01 1.16288E+04
 -1      1084 3.27616E+01-1.56192E+02 1.10951E+04
 -1      1085 1.80015E+02-3.05061E+02 9.64460E+03
 -1      1086 2.38607E+02-3.33228E+02 7.19799E+03
 -1      1087 2.96135E+02-3.24401E+02 4.05779E+03
 -1      1088 3.11326E+02-3.02616E+02 5.67903E+02
 -1      1089 4.72494E+02-1.22415E+02-7.84628E+03
 -1      1090-2.66377E+02 1.58615E+02-9.29473E+03
 -1      1091-6.09155E+02 1.12785E+02-3.94194E+03
 -1      1092 0.00000E+00 0.00000E+00 0.00000E+00
 -1      1093 0.00000E+00 0.00000E+00 0.00000E+00
 -1      1094 1.77211E+03 3.11899E+02-5.74077E+03
 -1      1095 3.08290E+03 9.83363E+02-2.02750E+04
 -1      1096 2.06041E+03 1.67825E+03-3.55902E+04
 -1      1097 8.17752E+02 1.96764E+03-4.41318E+04
 -1      1098-1.37504E+03 2.06972E+03-4.27059E+04
 -1      1099-3.71309E+03 2.03052E+03-2.82185E+04
 -1      1100-3.31941E+03 2.41272E+03-5.94743E+03
 -1      1101-9.57292E+02 7.05937E+02 1.14030E+04
 -1      1102-9.20521E+01-8.50481E+01 1.21904E+04
 -1      1103 1.29945E+02-2.15212E+02 1.23662E+04
 -1      1104 1.60943E+02-3.12105E+02 1.20690E+04
 -1      1105 1.51955E+02-2.81494E+02 1.13804E+04
 -1      1106 2.03916E+02-3.22939E+02 1.04052E+04
 -1      1107 2.47464E+02-3.39714E+02 9.15158E+03
 -1      1108 2.62180E+02-3.52699E+02 7.67364E+03
 -1      1109 2.77280E+02-3.35943E+02 6.01301E+03
 -1      1110 3.22647E+02-3.14995E+02 4.20870E+03
 -1      1111 4.79256E+02-1.67584E+02 2.27498E+03
 -1      1112 8.24115E+02 1.56630E+02-2.40840E+03
 -1      1113 7.80965E+02 1.07933E+02-7.44554E+03
 -1      1114 2.58219E+02 1.80537E+02-1.03951E+04
 -1      1115-2.28944E+02 2.29633E+02-1.04287E+04
 -1      1116-4.99177E+02 2.30263E+02-8.28108E+03
 -1      1117-7.13543E+02 1.43168E+02-4.67322E+03
 -1      1118-4.09157E+02 4.62980E+01-1.31603E+03
 -1      1119 0.00000E+00 0.00000E+00 0.00000E+00
 -1      1120 0.00000E+00 0.00000E+00 0.00000E+00
 -1      1121 4.07015E+03 1.26001E+03-2.68291E+04
 -1      1122 7.56401E+02 2.53735E+03-5.71009E+04
 -1      1123-3.26212E+03 2.36424E+03-4.21236E+04
 -1      1124-2.93192E+03 2.73440E+03-2.83195E+03
 -1      1125 8.24161E+02 2.91654E+02 1.13764E+03
 -1      1126 7.40053E+02 2.24104E+02-8.62500E+03
 -1      1127-1.58806E+02 3.40960E+02-1.20696E+04
 -1      1128-8.60923E+02 1.91537E+02-5.65503E+03
 -1      1129 0.00000E+00 0.00000E+00 0.00000E+00
 -1      1130 0.00000E+00 0.00000E+00 0.00000E+00
 -1      1131 2.99628E+03 3.89331E+02-9.92780E+03
 -1      1132 5.16125E+03 1.43872E+03-3.46606E+04
 -1      1133 3.32237E+03 2.57662E+03-6.05787E+04
 -1      1134 5.20711E+02 3.17968E+03-7.35435E+04
 -1      1135-1.47220E+03 2.64835E+03-7.00790E+04
 -1      1136-3.08691E+03 2.63574E+03-5.63771E+04
 -1      1137-2.93505E+03 2.79422E+03-3.91561E+04
 -1      1138-2.85116E+03 3.19255E+03-2.12406E+04
 -1      1139-1.80957E+03 2.38535E+03-9.00034E+03
 -1      1140-1.17248E+03 1.67352E+03-7.72285E+02
 -1      1141 4.73033E+02 4.00456E+02 5.56379E+03
 -1      1142 5.95225E+02 4.52572E+02 2.50994E+03
 -1      1143 7.84345E+02 4.93405E+02-1.32345E+03
 -1      1144 7.46079E+02 3.75450E+02-5.96425E+03
 -1      1145 7.21753E+02 3.28329E+02-1.01793E+04
 -1      1146 3.62236E+02 3.43548E+02-1.34168E+04
 -1      1147-6.98840E+01 4.72390E+02-1.43936E+04
 -1      1148-6.49055E+02 3.99016E+02-1.19745E+04
 -1      1149-1.03136E+03 2.21197E+02-6.85011E+03
 -1      1150-5.94523E+02 5.60263E+01-1.94414E+03
 -1      1151 0.00000E+00 0.00000E+00 0.00000E+00
 -1      1152-1.23203E+03 3.01827E+03-9.26846E+04
 -1      1153-3.07020E+03 1.19207E+03-6.79473E+04
 -1      1154-2.78244E+03 1.28167E+03-3.41385E+04
 -1      1155-1.69355E+03 1.03943E+03-8.56405E+03
 -1      1156 4.98696E+02 3.37427E+02 3.41664E+03
 -1      1157 7.03116E+02 2.42650E+02-3.45974E+03
 -1      1158 6.99931E+02 1.30825E+02-1.15897E+04
 -1      1159 2.97419E+02 4.59119E+02-1.73375E+04
 -1      1160-3.18659E+03 2.91717E+03-1.10786E+05
 -1      1161-3.28404E+03 1.02096E+03-9.11650E+04
 -1      1162-3.49413E+03-5.82043E+02-7.03895E+04
 -1      1163-2.96630E+03-6.89077E+02-5.17930E+04
 -1      1164-2.46738E+03-5.58977E+02-3.60953E+04
 -1      1165-2.08386E+03-1.55729E+02-2.27423E+04
 -1      1166-1.62264E+03 9.11879E+01-1.20424E+04
 -1      1167 4.23973E+02 2.40610E+02 1.70943E+03
 -1      1168 5.02438E+02 1.29576E+02-9.74626E+02
 -1      1169 5.74191E+02-6.25316E+00-4.13155E+03
 -1      1170 6.58524E+02-9.26493E+01-7.69329E+03
 -1      1171 7.40888E+02-1.23380E+02-1.17351E+04
 -1      1172 6.89537E+02 1.17826E+02-1.60569E+04
 -1      1173 6.65319E+02 4.49327E+02-2.01381E+04
 -1      1174-2.79499E+03-3.17848E+03-5.76920E+04
 -1      1175-1.99702E+03-1.63948E+03-2.95329E+04
 -1      1176-1.29508E+03-6.02469E+02-1.04456E+04
 -1      1177 2.87895E+02 1.23388E+02 5.97704E+02
 -1      1178 4.34500E+02-1.73450E+02-3.58438E+03
 -1      1179 5.76431E+02-5.27249E+02-9.52512E+03
 -1      1180-1.57332E+03-4.87621E+03-3.30655E+04
 -1      1181-1.40438E+03-3.69002E+03-2.44243E+04
 -1      1182-1.16108E+03-2.57931E+03-1.70018E+04
 -1      1183-9.36894E+02-1.68997E+03-1.08751E+04
 -1      1184-7.40783E+02-9.42031E+02-5.86636E+03
 -1      1185-4.26806E+02-4.24095E+02-2.59568E+03
 -1      1186-1.63790E+02-9.73038E+01-6.62129E+02
 -1      1187-8.79019E+01 4.11551E+00 7.84425E+00
 -1      1188-3.02697E+01 5.87047E+01 3.70817E+02
 -1      1189 2.79850E+01 6.02990E+01 3.87504E+02
 -1      1190 1.16928E+02 2.42832E+01 8.19697E+01
 -1      1191 1.85128E+02-1.29699E+02-8.51132E+02
 -1      1192 2.46738E+02-3.19884E+02-2.11742E+03
 -1      1193 2.93061E+02-5.51445E+02-3.67383E+03
 -1      1194 3.27616E+02-7.94404E+02-5.47853E+03
 -1      1195-4.40741E+02-2.85268E+03-9.53733E+03
 -1      1196-3.63469E+02-1.48439E+03-4.82164E+03
 -1      1197-2.25939E+02-5.03754E+02-1.65043E+03
 -1      1198-4.95309E+01-5.69147E+01-2.40295E+02
 -1      1199-1.04773E+01 3.32565E+01 8.40044E+01
 -1      1200 3.31681E+01 9.03121E+00-7.19693E+00
 -1      1201 7.59039E+01-1.83143E+02-6.08206E+02
 -1      1202 9.59737E+01-4.70888E+02-1.60086E+03
 -1      1203 0.00000E+00 0.00000E+00 0.00000E+00
 -1      1204 0.00000E+00 0.00000E+00 0.00000E+00
 -1      1205 0.00000E+00 0.00000E+00 0.00000E+00
 -1      1206 0.00000E+00 0.00000E+00 0.00000E+00
 -1      1207 0.00000E+00 0.00000E+00 0.00000E+00
 -1      1208 0.00000E+00 0.00000E+00 0.00000E+00
 -1      1209 0.00000E+00 0.00000E+00 0.00000E+00
 -1      1210 0.00000E+00 0.00000E+00 0.00000E+00
 -1      1211 0.00000E+00 0.00000E+00 0.00000E+00
 -1      1212 0.00000E+00 0.00000E+00 0.00000E+00
 -1      1213 0.00000E+00 0.00000E+00 0.00000E+00
 -1      1214 0.00000E+00 0.00000E+00 0.00000E+00
 -1      1215 0.00000E+00 0.00000E+00 0.00000E+00
 -1      1216 0.00000E+00 0.00000E+00 0.00000E+00
 -1      1217 0.00000E+00 0.00000E+00 0.00000E+00
 -1      1218 5.50685E+02-5.75619E+02-1.08651E+03
 -1      1219 5.30818E+02-6.48798E+02-4.46546E+03
 -1      1220 4.95692E+02-6.62151E+02-7.67011E+03
 -1      1221 4.20747E+02-6.20603E+02-1.04172E+04
 -1      1222 3.32196E+02-5.18625E+02-1.23705E+04
 -1      1223-1.27757E+02 1.18531E+02-1.29588E+04
 -1      1224 5.28093E+02-6.29598E+02 2.68594E+03
 -1      1225 5.19365E+02-6.42637E+02-5.16781E+02
 -1      1226 5.00315E+02-6.53057E+02-3.67021E+03
 -1      1227 4.47868E+02-6.22509E+02-6.62602E+03
 -1      1228 4.02911E+02-5.58219E+02-9.21175E+03
 -1      1229 3.71223E+02-4.88550E+02-1.14605E+04
 -1      1230 4.98366E+02-5.79163E+02 6.32564E+03
 -1      1231 4.86696E+02-6.06811E+02 3.35457E+03
 -1      1232 4.93084E+02-6.44215E+02 3.41103E+02
 -1      1233 4.89417E+02-6.43535E+02-2.71461E+03
 -1      1234 4.73296E+02-5.97585E+02-5.69169E+03
 -1      1235 4.73295E+02-5.65420E+02-8.58050E+03
 -1      1236 4.02790E+02-4.73302E+02 9.34558E+03
 -1      1237 4.06417E+02-5.25554E+02 6.89059E+03
 -1      1238 4.52234E+02-6.12112E+02 4.25113E+03
 -1      1239 4.95775E+02-6.47298E+02 1.30034E+03
 -1      1240 5.17458E+02-6.37466E+02-1.83749E+03
 -1      1241 5.29215E+02-6.22795E+02-5.02281E+03
 -1      1242 2.37391E+02-3.51848E+02 1.13034E+04
 -1      1243 2.91062E+02-4.57516E+02 9.86616E+03
 -1      1244 3.69425E+02-5.72877E+02 7.89940E+03
 -1      1245 4.76340E+02-6.36988E+02 5.25519E+03
 -1      1246 5.31062E+02-6.43613E+02 2.11199E+03
 -1      1247 5.51946E+02-6.30734E+02-1.24482E+03
 -1      1248-5.75994E+02 2.76519E+02 1.14480E+04
 -1      1249 1.86872E+02-4.15932E+02 1.23738E+04
 -1      1250 3.20769E+02-5.77242E+02 1.13849E+04
 -1      1251 4.60482E+02-6.51198E+02 9.15016E+03
 -1      1252 5.41573E+02-6.44411E+02 6.01445E+03
 -1      1253 6.90073E+02-5.19047E+02 2.28321E+03
 -1      1254 7.98607E+02-9.00623E+02-1.09019E+03
 -1      1255 7.98465E+02-9.37312E+02-2.78311E+03
 -1      1256 7.84890E+02-9.59969E+02-4.46537E+03
 -1      1257 7.65321E+02-9.73698E+02-6.10185E+03
 -1      1258 7.31008E+02-9.77767E+02-7.66805E+03
 -1      1259 6.85262E+02-9.64015E+02-9.12270E+03
 -1      1260 6.26830E+02-9.31985E+02-1.04207E+04
 -1      1261 5.47938E+02-8.78280E+02-1.15095E+04
 -1      1262 4.78576E+02-7.81318E+02-1.23692E+04
 -1      1263 2.99206E+02-5.68292E+02-1.28166E+04
 -1      1264 1.90347E+02-3.09088E+02-1.30087E+04
 -1      1265 7.99857E+02-9.20411E+02 7.93714E+02
 -1      1266 7.83805E+02-9.55003E+02-2.48964E+03
 -1      1267 7.35276E+02-9.68135E+02-5.66869E+03
 -1      1268 6.26819E+02-9.20799E+02-8.51892E+03
 -1      1269 4.72781E+02-7.63484E+02-1.07940E+04
 -1      1270 3.54934E+02-4.83542E+02-1.23771E+04
 -1      1271 7.79678E+02-9.28345E+02 2.68553E+03
 -1      1272 7.75757E+02-9.28583E+02 1.08215E+03
 -1      1273 7.69201E+02-9.46987E+02-5.15872E+02
 -1      1274 7.57832E+02-9.60279E+02-2.10544E+03
 -1      1275 7.37963E+02-9.63432E+02-3.66831E+03
 -1      1276 7.08555E+02-9.52771E+02-5.18383E+03
 -1      1277 6.66497E+02-9.22547E+02-6.62473E+03
 -1      1278 6.19355E+02-8.67369E+02-7.96383E+03
 -1      1279 5.67609E+02-7.91427E+02-9.19347E+03
 -1      1280 5.43098E+02-6.94147E+02-1.03382E+04
 -1      1281 5.61373E+02-7.06783E+02-1.14608E+04
 -1      1282 7.60900E+02-9.00890E+02 4.55022E+03
 -1      1283 7.48633E+02-9.29449E+02 1.44077E+03
 -1      1284 7.37693E+02-9.60747E+02-1.66236E+03
 -1      1285 7.01411E+02-9.36103E+02-4.68886E+03
 -1      1286 6.43719E+02-8.44919E+02-7.49799E+03
 -1      1287 6.57754E+02-7.71082E+02-1.01293E+04
 -1      1288 7.33441E+02-8.53596E+02 6.32160E+03
 -1      1289 7.20063E+02-8.61577E+02 4.83424E+03
 -1      1290 7.16635E+02-8.95912E+02 3.35103E+03
 -1      1291 7.22589E+02-9.28671E+02 1.85512E+03
 -1      1292 7.28913E+02-9.52371E+02 3.40143E+02
 -1      1293 7.29162E+02-9.59773E+02-1.18802E+03
 -1      1294 7.23861E+02-9.51594E+02-2.71379E+03
 -1      1295 7.12163E+02-9.27129E+02-4.21704E+03
 -1      1296 7.02104E+02-8.88399E+02-5.69101E+03
 -1      1297 7.01587E+02-8.45242E+02-7.13242E+03
 -1      1298 7.11567E+02-8.42848E+02-8.58563E+03
 -1      1299 6.84512E+02-7.87299E+02 7.94198E+03
 -1      1300 6.71046E+02-8.47862E+02 5.17915E+03
 -1      1301 7.05796E+02-9.32496E+02 2.31743E+03
 -1      1302 7.34070E+02-9.58087E+02-7.09369E+02
 -1      1303 7.39235E+02-9.23780E+02-3.79147E+03
 -1      1304 7.50147E+02-8.89748E+02-6.85822E+03
 -1      1305 6.14292E+02-7.04723E+02 9.35021E+03
 -1      1306 5.99089E+02-7.07422E+02 8.11080E+03
 -1      1307 6.04104E+02-7.82690E+02 6.88829E+03
 -1      1308 6.31200E+02-8.52252E+02 5.60555E+03
 -1      1309 6.68919E+02-9.05358E+02 4.24784E+03
 -1      1310 7.03711E+02-9.39974E+02 2.80544E+03
 -1      1311 7.32833E+02-9.56994E+02 1.29882E+03
 -1      1312 7.51610E+02-9.55545E+02-2.56010E+02
 -1      1313 7.62420E+02-9.41801E+02-1.83599E+03
 -1      1314 7.69712E+02-9.24094E+02-3.42894E+03
 -1      1315 7.76678E+02-9.19551E+02-5.01952E+03
 -1      1316 5.19763E+02-5.96674E+02 1.04774E+04
 -1      1317 5.08180E+02-7.12937E+02 8.44371E+03
 -1      1318 6.17847E+02-8.72872E+02 6.10584E+03
 -1      1319 7.19533E+02-9.47698E+02 3.28811E+03
 -1      1320 7.79501E+02-9.48327E+02 1.37911E+02
 -1      1321 7.92316E+02-9.30422E+02-3.13249E+03
 -1      1322 3.70549E+02-5.02109E+02 1.13016E+04
 -1      1323 3.47594E+02-4.95707E+02 1.05856E+04
 -1      1324 3.88401E+02-6.39663E+02 9.84167E+03
 -1      1325 4.71773E+02-7.57685E+02 8.95926E+03
 -1      1326 5.53244E+02-8.49091E+02 7.89620E+03
 -1      1327 6.33915E+02-9.07810E+02 6.65144E+03
 -1      1328 7.01125E+02-9.39609E+02 5.25103E+03
 -1      1329 7.54477E+02-9.50751E+02 3.72483E+03
 -1      1330 7.92926E+02-9.44730E+02 2.10707E+03
 -1      1331 8.11760E+02-9.26911E+02 4.36219E+02
 -1      1332 8.11715E+02-9.28896E+02-1.24539E+03
 -1      1333 7.17907E+01-2.53688E+02 1.15839E+04
 -1      1334 2.43066E+02-6.06457E+02 1.11188E+04
 -1      1335 4.84340E+02-8.47973E+02 9.63161E+03
 -1      1336 6.82740E+02-9.44443E+02 7.19377E+03
 -1      1337 8.07957E+02-9.44800E+02 4.06016E+03
 -1      1338 8.59427E+02-8.89554E+02 5.59774E+02
 -1      1339-2.52753E+02-9.67052E+01 1.15173E+04
 -1      1340-3.70446E+01-3.39290E+02 1.21345E+04
 -1      1341 2.55914E+02-6.32395E+02 1.23733E+04
 -1      1342 3.58749E+02-7.79905E+02 1.20473E+04
 -1      1343 4.82602E+02-8.68502E+02 1.13895E+04
 -1      1344 5.85306E+02-9.28599E+02 1.04031E+04
 -1      1345 6.75429E+02-9.62954E+02 9.14732E+03
 -1      1346 7.51703E+02-9.70428E+02 7.66619E+03
 -1      1347 8.03560E+02-9.55326E+02 6.01421E+03
 -1      1348 8.71533E+02-9.07649E+02 4.19823E+03
 -1      1349 9.11909E+02-8.60622E+02 2.29590E+03
 -1      1350 1.05945E+03-1.20423E+03-1.09061E+03
 -1      1351 1.04214E+03-1.26992E+03-4.46431E+03
 -1      1352 9.68691E+02-1.29216E+03-7.66572E+03
 -1      1353 8.20130E+02-1.23419E+03-1.04167E+04
 -1      1354 5.97396E+02-1.02729E+03-1.23601E+04
 -1      1355 2.94249E+02-4.92806E+02-1.30152E+04
 -1      1356 1.03204E+03-1.22473E+03 2.68512E+03
 -1      1357 1.01822E+03-1.25403E+03-5.16056E+02
 -1      1358 9.78386E+02-1.27581E+03-3.66679E+03
 -1      1359 8.83331E+02-1.22035E+03-6.62094E+03
 -1      1360 7.51480E+02-1.04741E+03-9.18626E+03
 -1      1361 7.36020E+02-8.95868E+02-1.14512E+04
 -1      1362 9.68048E+02-1.12607E+03 6.31829E+03
 -1      1363 9.48679E+02-1.18796E+03 3.34794E+03
 -1      1364 9.65544E+02-1.26200E+03 3.38864E+02
 -1      1365 9.59377E+02-1.26105E+03-2.71216E+03
 -1      1366 9.28584E+02-1.17775E+03-5.68786E+03
 -1      1367 9.43047E+02-1.10605E+03-8.58216E+03
 -1      1368 8.14449E+02-9.16385E+02 9.34475E+03
 -1      1369 7.98027E+02-1.03722E+03 6.88227E+03
 -1      1370 8.86406E+02-1.19972E+03 4.24271E+03
 -1      1371 9.71087E+02-1.26781E+03 1.29661E+03
 -1      1372 1.01015E+03-1.24863E+03-1.83576E+03
 -1      1373 1.02573E+03-1.21476E+03-5.01828E+03
 -1      1374 4.81664E+02-6.13868E+02 1.12892E+04
 -1      1375 5.13261E+02-8.46343E+02 9.83132E+03
 -1      1376 7.33167E+02-1.12253E+03 7.88953E+03
 -1      1377 9.29870E+02-1.24361E+03 5.24653E+03
 -1      1378 1.05033E+03-1.25060E+03 2.10448E+03
 -1      1379 1.07586E+03-1.22139E+03-1.24712E+03
 -1      1380-2.38792E+02-1.87336E+02 1.15266E+04
 -1      1381 2.84682E+02-8.27936E+02 1.23601E+04
 -1      1382 6.23061E+02-1.15023E+03 1.13829E+04
 -1      1383 8.93742E+02-1.27209E+03 9.14243E+03
 -1      1384 1.07281E+03-1.26236E+03 6.01055E+03
 -1      1385 1.19062E+03-1.15089E+03 2.29764E+03
 -1      1386 1.32287E+03-1.50480E+03-1.09077E+03
 -1      1387 1.32051E+03-1.54306E+03-2.78240E+03
 -1      1388 1.30129E+03-1.58034E+03-4.46292E+03
 -1      1389 1.26461E+03-1.60132E+03-6.09868E+03
 -1      1390 1.20748E+03-1.60661E+03-7.66251E+03
 -1      1391 1.12201E+03-1.58669E+03-9.11681E+03
 -1      1392 1.00990E+03-1.53391E+03-1.04111E+04
 -1      1393 8.77031E+02-1.43643E+03-1.15002E+04
 -1      1394 7.10830E+02-1.28027E+03-1.23495E+04
 -1      1395 4.76139E+02-9.32482E+02-1.27986E+04
 -1      1396 3.60813E+02-6.36451E+02-1.30176E+04
 -1      1397 1.31627E+03-1.51846E+03 7.95356E+02
 -1      1398 1.29437E+03-1.57375E+03-2.48848E+03
 -1      1399 1.21298E+03-1.59401E+03-5.66347E+03
 -1      1400 1.03224E+03-1.51519E+03-8.50742E+03
 -1      1401 7.66237E+02-1.26364E+03-1.07800E+04
 -1      1402 5.80983E+02-8.03488E+02-1.23532E+04
 -1      1403 1.28369E+03-1.52158E+03 2.68438E+03
 -1      1404 1.27730E+03-1.53227E+03 1.08062E+03
 -1      1405 1.26763E+03-1.56239E+03-5.16255E+02
 -1      1406 1.25019E+03-1.58428E+03-2.10386E+03
 -1      1407 1.22012E+03-1.58939E+03-3.66470E+03
 -1      1408 1.16926E+03-1.56947E+03-5.17733E+03
 -1      1409 1.10213E+03-1.51843E+03-6.61592E+03
 -1      1410 1.01869E+03-1.43017E+03-7.95032E+03
 -1      1411 9.37496E+02-1.30517E+03-9.17673E+03
 -1      1412 8.98671E+02-1.13378E+03-1.03242E+04
 -1      1413 9.17148E+02-1.08164E+03-1.14401E+04
 -1      1414 1.25145E+03-1.47724E+03 4.54586E+03
 -1      1415 1.23381E+03-1.53316E+03 1.43711E+03
 -1      1416 1.21922E+03-1.58569E+03-1.66163E+03
 -1      1417 1.15897E+03-1.54597E+03-4.68241E+03
 -1      1418 1.06219E+03-1.38958E+03-7.48500E+03
 -1      1419 1.07357E+03-1.24509E+03-1.01205E+04
 -1      1420 1.20312E+03-1.39729E+03 6.31388E+03
 -1      1421 1.18498E+03-1.42028E+03 4.82662E+03
 -1      1422 1.18159E+03-1.48221E+03 3.34386E+03
 -1      1423 1.19210E+03-1.53568E+03 1.84974E+03
 -1      1424 1.20360E+03-1.57350E+03 3.37233E+02
 -1      1425 1.20454E+03-1.58586E+03-1.18779E+03
 -1      1426 1.19642E+03-1.57242E+03-2.70995E+03
 -1      1427 1.17633E+03-1.53236E+03-4.21139E+03
 -1      1428 1.15502E+03-1.46969E+03-5.68364E+03
 -1      1429 1.15482E+03-1.39190E+03-7.12211E+03
 -1      1430 1.17219E+03-1.36554E+03-8.57726E+03
 -1      1431 1.12631E+03-1.27732E+03 7.93350E+03
 -1      1432 1.10338E+03-1.39916E+03 5.16830E+03
 -1      1433 1.16583E+03-1.54068E+03 2.31030E+03
 -1      1434 1.21313E+03-1.58271E+03-7.10162E+02
 -1      1435 1.21810E+03-1.52454E+03-3.78717E+03
 -1      1436 1.23502E+03-1.45646E+03-6.85410E+03
 -1      1437 1.01128E+03-1.12120E+03 9.33713E+03
 -1      1438 9.84925E+02-1.16290E+03 8.09454E+03
 -1      1439 9.91311E+02-1.29458E+03 6.87442E+03
 -1      1440 1.04296E+03-1.40824E+03 5.59270E+03
 -1      1441 1.10515E+03-1.49586E+03 4.23599E+03
 -1      1442 1.16269E+03-1.55290E+03 2.79733E+03
 -1      1443 1.21080E+03-1.58054E+03 1.29376E+03
 -1      1444 1.24032E+03-1.57924E+03-2.57865E+02
 -1      1445 1.25919E+03-1.55739E+03-1.83536E+03
 -1      1446 1.26766E+03-1.52383E+03-3.42727E+03
 -1      1447 1.27563E+03-1.50992E+03-5.01664E+03
 -1      1448 8.43551E+02-9.40193E+02 1.04646E+04
 -1      1449 8.36917E+02-1.17193E+03 8.42389E+03
 -1      1450 1.02092E+03-1.44169E+03 6.09209E+03
 -1      1451 1.19011E+03-1.56398E+03 3.28001E+03
 -1      1452 1.28661E+03-1.56362E+03 1.35025E+02
 -1      1453 1.30562E+03-1.52753E+03-3.13214E+03
 -1      1454 6.02121E+02-7.17109E+02 1.12750E+04
 -1      1455 5.79722E+02-7.99372E+02 1.05666E+04
 -1      1456 6.40058E+02-1.05579E+03 9.81776E+03
 -1      1457 7.72926E+02-1.24923E+03 8.93850E+03
 -1      1458 9.15577E+02-1.39559E+03 7.88078E+03
 -1      1459 1.04619E+03-1.49326E+03 6.63798E+03
 -1      1460 1.16010E+03-1.54847E+03 5.24060E+03
 -1      1461 1.24598E+03-1.56740E+03 3.71645E+03
 -1      1462 1.30863E+03-1.55763E+03 2.10111E+03
 -1      1463 1.33588E+03-1.52599E+03 4.32965E+02
 -1      1464 1.33819E+03-1.51372E+03-1.24900E+03
 -1      1465 1.12819E+02-3.94176E+02 1.15586E+04
 -1      1466 3.84377E+02-1.00427E+03 1.10990E+04
 -1      1467 7.94483E+02-1.39508E+03 9.61296E+03
 -1      1468 1.12639E+03-1.55426E+03 7.18193E+03
 -1      1469 1.33702E+03-1.55685E+03 4.05389E+03
 -1      1470 1.41606E+03-1.46253E+03 5.55229E+02
 -1      1471-2.77985E+02-2.27360E+02 1.15301E+04
 -1      1472-6.36998E+01-5.52817E+02 1.21037E+04
 -1      1473 3.06298E+02-1.03225E+03 1.23448E+04
 -1      1474 5.49380E+02-1.27122E+03 1.20329E+04
 -1      1475 7.56455E+02-1.42891E+03 1.13739E+04
 -1      1476 9.48995E+02-1.52836E+03 1.03924E+04
 -1      1477 1.11251E+03-1.58094E+03 9.13588E+03
 -1      1478 1.24093E+03-1.59336E+03 7.65840E+03
 -1      1479 1.34381E+03-1.57070E+03 6.00606E+03
 -1      1480 1.43512E+03-1.49240E+03 4.19173E+03
 -1      1481 1.47933E+03-1.43204E+03 2.29831E+03
 -3
    1PSTEP                        26           1           1          
    1PGM                1.000000E+00                                  
    1PGK                1.579256E+12                                  
    1PHID                         -1                                  
    1PSUBC                         0                                  
    1PMODE                         7                                  
  100CL  107 200007.5647        1481                     2    7MODAL      1
 -4  STRESS      6    1
 -5  SXX         1    4    1    1
 -5  SYY         1    4    2    2
 -5  SZZ         1    4    3    3
 -5  SXY         1    4    1    2
 -5  SYZ         1    4    2    3
 -5  SZX         1    4    3    1
 -1         1 1.49141E+06 1.80962E+07 5.64458E+06 1.07506E+07-7.17128E+06-3.23811E+06
 -1         2 1.09475E+07 5.28457E+06 1.04573E+06 1.21135E+07 2.88971E+06-2.62714E+06
 -1         3 2.34734E+07 2.72287E+06-9.94269E+05 9.89613E+06-1.55913E+06-5.10339E+06
 -1         4 4.08197E+07 2.95028E+06 4.44282E+05 3.73897E+06-1.13728E+06 3.83048E+05
 -1         5 5.89391E+07 1.59905E+06-2.85688E+06-2.55610E+06-1.83634E+06-1.79373E+06
 -1         6 8.60251E+07 4.76625E+06 2.56272E+06-1.17474E+07-3.12441E+05 3.32738E+06
 -1         7 1.01367E+08 1.42205E+06-6.16132E+06-2.23186E+07 2.36900E+06-4.36113E+06
 -1         8 1.27265E+08-7.20840E+05 1.27297E+06-3.84993E+07-9.70499E+06 1.70354E+07
 -1         9 2.09166E+08 2.03574E+07 2.29373E+06-9.19924E+07-2.73141E+07 1.96354E+07
 -1        10 1.65066E+08 5.94831E+07-1.25194E+06-1.38546E+08 1.34947E+07 3.11069E+07
 -1        11 1.08768E+08 1.45847E+08 7.37047E+07-1.43541E+08-8.22853E+07 6.68329E+07
 -1        12 2.37729E+06 7.36377E+06-1.54975E+06 1.26236E+07-3.42980E+06 3.12944E+05
 -1        13 1.87898E+07-2.16986E+06 7.14230E+05 1.60852E+07-1.47242E+06-9.72504E+04
 -1        14 5.59166E+07 8.30811E+06-9.20865E+04-4.34458E+06 2.63254E+04-2.76102E+06
 -1        15 1.01935E+08 2.06653E+07-4.64448E+06-4.01263E+07 3.36081E+06-6.75853E+06
 -1        16 1.60194E+08 5.90558E+07 1.29106E+07-1.18827E+08-1.18701E+07-4.95340E+06
 -1        17 5.89402E+07 2.03906E+08-6.44983E+06-1.40369E+08-3.07738E+07-1.11737E+07
 -1        18 1.53513E+06-1.11488E+07 2.19219E+06 1.19050E+07 1.87471E+06-1.78917E+06
 -1        19 2.70160E+06-1.60397E+07 1.31979E+06 1.89640E+07 2.55906E+06-9.45924E+05
 -1        20 5.95744E+06-1.21561E+07-6.19083E+05 2.18131E+07 1.36350E+06-2.02827E+06
 -1        21 1.95364E+07-1.59151E+06-7.55420E+05 9.26264E+06 7.85259E+05 1.50504E+05
 -1        22 3.65740E+07 1.02833E+07 2.85642E+05-3.66246E+06-2.51422E+05-1.14035E+06
 -1        23 5.70382E+07 2.42806E+07 3.25062E+05-2.55447E+07 5.70781E+04 1.06968E+06
 -1        24 8.05847E+07 4.15613E+07 3.65442E+06-4.92564E+07-4.43090E+05 1.99376E+06
 -1        25 8.56374E+07 6.10913E+07-5.14285E+06-7.80693E+07-3.29304E+06 1.81841E+06
 -1        26 8.45623E+07 8.77558E+07-9.70429E+06-1.23544E+08-6.73222E+06 8.22508E+06
 -1        27 5.82951E+07 1.63768E+08 1.35384E+07-1.20140E+08 3.33405E+06 9.67573E+06
 -1        28 2.62421E+07 2.29749E+08 7.04458E+06-9.37176E+07-1.69579E+07 2.49643E+07
 -1        29-2.65765E+06-5.35977E+07-9.52895E+04 1.29690E+07-6.52884E+06 8.73809E+05
 -1        30-8.18042E+06-3.63160E+07 1.75373E+05 3.08253E+07-1.77764E+06-2.51203E+05
 -1        31 1.19785E+07-3.44640E+06-1.77784E+05 5.83941E+06-2.13145E+05-1.17869E+06
 -1        32 5.01151E+07 3.75991E+07 2.21249E+06-3.17344E+07 7.12250E+05-4.75857E+05
 -1        33 5.59652E+07 8.41511E+07-5.14065E+06-8.01816E+07-1.11353E+06 3.82150E+06
 -1        34-2.79637E+06 1.20112E+08 8.32518E+05-3.79976E+07-1.89146E+07 9.37336E+06
 -1        35-1.11405E+06-8.43495E+07 2.90206E+06 2.01047E+07-1.31150E+05 3.47464E+06
 -1        36-1.42177E+07-8.26350E+07-8.36367E+05 3.52490E+07 6.06916E+06 3.43791E+05
 -1        37-2.36137E+07-6.34869E+07 4.01591E+05 4.40574E+07 2.38884E+05 1.55780E+06
 -1        38-2.11470E+07-4.25121E+07 4.05126E+05 3.03944E+07 1.71128E+06 1.41096E+05
 -1        39-1.37552E+07-2.23149E+07-3.02235E+05 1.73577E+07 1.70040E+06-6.77973E+05
 -1        40 3.12528E+06 4.62300E+05-1.95134E+05-2.85335E+05 1.84476E+06 3.24793E+05
 -1        41 1.97100E+07 2.31305E+07-1.49358E+06-1.81108E+07 1.27086E+06-8.13557E+05
 -1        42 3.15175E+07 4.73464E+07 2.36537E+06-3.46056E+07 6.60636E+05-8.92467E+05
 -1        43 3.44178E+07 7.19016E+07 4.09103E+06-5.45244E+07-2.23283E+06-2.11319E+05
 -1        44 1.59363E+07 8.84154E+07-5.43468E+06-4.41465E+07 8.77078E+06-3.26789E+06
 -1        45 5.34626E+05 8.71680E+07-5.84158E+06-2.40642E+07 6.08661E+06-3.40593E+06
 -1        46-4.27877E+06-1.19335E+08-2.84363E+06 3.06763E+07-8.08580E+06 9.75598E+05
 -1        47-4.17406E+07-9.15130E+07-2.82780E+05 6.76120E+07-2.62701E+06 9.81666E+05
 -1        48-4.21756E+07-4.47501E+07 2.06762E+05 3.27041E+07-2.32368E+05-8.79735E+05
 -1        49-9.51411E+06 7.58656E+05-9.04065E+04-4.72625E+06-3.91866E+05-1.42185E+06
 -1        50 1.30194E+07 4.09692E+07 1.74325E+05-3.72560E+07-1.66883E+06-4.47198E+05
 -1        51 4.01929E+06 6.32479E+07 2.71035E+06-1.66782E+07-4.62701E+06 3.07648E+04
 -1        52-7.48554E+05-1.40073E+08 7.68818E+06 4.29055E+07 2.33457E+06-3.22435E+06
 -1        53-2.98174E+07-1.43204E+08 6.40082E+06 7.53698E+07 1.01774E+07-4.72660E+06
 -1        54-6.49164E+07-1.22066E+08-4.85472E+06 9.38796E+07-4.12831E+06 1.16001E+06
 -1        55-7.52950E+07-9.30412E+07-3.06669E+06 6.76480E+07-7.01249E+04-1.61662E+06
 -1        56-7.32860E+07-6.64180E+07 1.58401E+06 4.85003E+07 8.29908E+05-5.95046E+05
 -1        57-5.67932E+07-4.26643E+07 1.99911E+05 2.81583E+07 1.20056E+06 1.48205E+05
 -1        58-3.93229E+07-2.18093E+07 1.11145E+05 8.26725E+06 9.90217E+05-1.53559E+06
 -1        59-2.18900E+07-3.87422E+06-8.59653E+05-7.44124E+06 1.40187E+06 6.30263E+05
 -1        60-6.14970E+06 1.25927E+07-7.57992E+05-2.25321E+07 5.64083E+05-4.98042E+04
 -1        61 5.54234E+05 2.56449E+07 1.28750E+06-1.94747E+07 5.01230E+06 1.08544E+06
 -1        62 1.01819E+06 2.87351E+07-1.66762E+06-1.10182E+07 2.84079E+06 2.49122E+06
 -1        63 3.67022E+06-1.71051E+08-1.19199E+06 6.25534E+07-2.55566E+07 1.32187E+07
 -1        64-9.09961E+07-1.25044E+08 6.88240E+06 1.27939E+08-3.01205E+06 5.85915E+06
 -1        65-1.06297E+08-7.32394E+07-3.06734E+06 6.39141E+07 1.66123E+06 7.21983E+05
 -1        66-6.73354E+07-3.25846E+07-3.70980E+05 1.66646E+07 1.11987E+05-1.87681E+06
 -1        67-2.43173E+07-6.46198E+06 8.69034E+05-1.85612E+07-8.87654E+05-2.05147E+06
 -1        68 3.46916E+06 2.59600E+06 3.58489E+04-9.90291E+06-6.17904E+06-2.09403E+06
 -1        69-2.62166E+07-2.82759E+08-4.45714E+06 1.34004E+08-2.83028E+07 3.63368E+07
 -1        70-8.12669E+07-2.14975E+08-1.76724E+07 1.75837E+08 7.12504E+06 1.56632E+07
 -1        71-1.27057E+08-1.18578E+08 1.34111E+07 1.86439E+08-1.20827E+07 1.15837E+07
 -1        72-1.39542E+08-8.72792E+07 7.12995E+06 1.24302E+08-6.07077E+06 1.80992E+06
 -1        73-1.41880E+08-6.65873E+07-5.26650E+06 8.63669E+07-9.91678E+05 4.80233E+06
 -1        74-1.17438E+08-4.79754E+07-2.86260E+05 5.41887E+07-7.77536E+05 2.18091E+06
 -1        75-9.65607E+07-3.56621E+07-9.85494E+05 2.41644E+07-1.57520E+06-1.43583E+06
 -1        76-6.98800E+07-2.59690E+07 1.86390E+06 2.54427E+06-1.09214E+06 1.45427E+06
 -1        77-4.34629E+07-2.00394E+07 2.54949E+06-2.05780E+07-7.71535E+05-3.87903E+06
 -1        78-2.21131E+07-3.06280E+07-3.47832E+06-2.39634E+07 2.06464E+06-2.47720E+06
 -1        79-2.96640E+06-3.99465E+07-1.48029E+06-2.06205E+07-1.41436E+06-7.43206E+06
 -1        80-7.71753E+07-2.28794E+08 3.44188E+06 1.92931E+08-4.37587E+07-1.73391E+07
 -1        81-2.28289E+08-7.89951E+07-1.81009E+07 1.76391E+08-1.36783E+07-4.79433E+06
 -1        82-1.68578E+08-3.10855E+07 6.97838E+06 6.88313E+07 4.55076E+06-9.74033E+06
 -1        83-1.21232E+08-1.98731E+07 9.73555E+05 1.92084E+07 7.14453E+05-3.48528E+06
 -1        84-7.16406E+07-1.53455E+07-3.00666E+06-2.18449E+07-2.04157E+06-1.74487E+06
 -1        85-1.32921E+07-3.80886E+07 1.23536E+06-3.28967E+07-7.62571E+06 1.46221E+06
 -1        86-1.87602E+08-1.55945E+08-9.99170E+07 1.95900E+08-9.23981E+07 1.06414E+08
 -1        87-2.67837E+08-7.74719E+07 7.78805E+06 1.94613E+08 1.57934E+07 4.32268E+07
 -1        88-3.12637E+08-3.22799E+07-8.22560E+06 1.35230E+08-3.39638E+07 2.76547E+07
 -1        89-1.90412E+08 4.15720E+06-8.98811E+05 5.96932E+07-1.34071E+07 2.54999E+07
 -1        90-1.65961E+08-5.72025E+05 9.09674E+06 3.86655E+07 2.82635E+06-3.46492E+06
 -1        91-1.54345E+08-6.12276E+06-4.65296E+06 2.42949E+07-1.02409E+06 6.34204E+06
 -1        92-1.22067E+08-1.05848E+06 5.55135E+06 1.11288E+07-2.52818E+06 1.29306E+06
 -1        93-9.88259E+07-1.60530E+06-2.48232E+05-5.65322E+05-3.89355E+06 4.63200E+05
 -1        94-8.91957E+07-7.07722E+06-3.50787E+05-1.98283E+07-5.93372E+06-8.03056E+06
 -1        95-6.19351E+07-1.63574E+07 8.60671E+05-3.34880E+07 3.19366E+06-6.68885E+06
 -1        96-3.12808E+07-3.09370E+07-1.80947E+07-3.56455E+07-1.68188E+07-2.01843E+07
 -1        97 2.80228E+06 2.13583E+07 8.35173E+06 1.00807E+07-1.43437E+07-8.88504E+06
 -1        98 1.83198E+07 1.38917E+06-1.11449E+06 6.59128E+06-3.52167E+05-9.29737E+06
 -1        99 4.55438E+07-3.43600E+05-2.36816E+06-2.42442E+06-1.72765E+06-4.34686E+06
 -1       100 8.18936E+07 1.49180E+06-2.60181E+06-1.37775E+07-3.55984E+06 3.08608E+06
 -1       101 1.56627E+08 6.01843E+06-7.91886E+06-6.01123E+07-1.09018E+07 2.87245E+07
 -1       102 1.24957E+08 1.68085E+08 1.06250E+08-1.34948E+08-1.75356E+08 1.52247E+08
 -1       103 1.08297E+06-9.03498E+06 8.87931E+05 8.08948E+06 3.59589E+06-1.02209E+05
 -1       104 5.45783E+06-9.57076E+06-1.15753E+05 1.76460E+07 4.59154E+06-3.20558E+06
 -1       105 2.93377E+07 7.72837E+06 5.95498E+05-2.49599E+06 2.71492E+06-4.40338E+06
 -1       106 6.34160E+07 3.14442E+07 2.67134E+06-3.98402E+07 8.07131E+05-2.85507E+06
 -1       107 7.36913E+07 7.68361E+07-3.21455E+06-1.00309E+08-3.29350E+06 4.07334E+06
 -1       108 1.15506E+07 1.73907E+08-4.20617E+06-6.24077E+07-2.06355E+07 9.42727E+06
 -1       109 1.45331E+06-6.48744E+07 3.17152E+06 1.46127E+07-2.53159E+06 2.48800E+06
 -1       110-1.88100E+07-5.11912E+07-1.73917E+05 3.49257E+07 5.63347E+06-4.69680E+05
 -1       111-1.08259E+07-1.81876E+07-2.39777E+05 1.39717E+07 6.41568E+06-4.23438E+06
 -1       112 1.61742E+07 1.88933E+07-5.78902E+05-1.45398E+07 6.04750E+06-4.58462E+06
 -1       113 2.59384E+07 5.62019E+07 3.04877E+06-4.39178E+07 4.11041E+06-7.35941E+05
 -1       114 1.31571E+06 7.15414E+07-2.27732E+06-1.51618E+07-1.69990E+06 2.23563E+06
 -1       115-1.31825E+06-1.13351E+08 3.32928E+06 2.77361E+07-1.21838E+07 4.77513E+06
 -1       116-4.99954E+07-9.64010E+07-3.41713E+06 7.57630E+07 2.74117E+06 1.97461E+06
 -1       117-5.94510E+07-5.38369E+07 3.89656E+05 3.89738E+07 5.24152E+06-3.72970E+06
 -1       118-3.19536E+07-1.74238E+07-1.13518E+05 6.66786E+06 5.73403E+06-5.22394E+06
 -1       119-4.96207E+06 1.04268E+07-1.71141E+05-1.77294E+07 5.35618E+06-3.11632E+06
 -1       120-8.56825E+05 2.14080E+07-2.06600E+06-7.83003E+06 2.93176E+06 4.86863E+05
 -1       121-7.99940E+06-2.13031E+08 1.00686E+07 8.88464E+07-4.30382E+07 1.43898E+07
 -1       122-1.10226E+08-1.02723E+08 5.14338E+06 1.51272E+08-6.83141E+06 8.24939E+06
 -1       123-1.12118E+08-5.13597E+07-3.99603E+06 6.98262E+07-1.10779E+06-1.18620E+06
 -1       124-7.72530E+07-2.79266E+07-1.20541E+06 1.88628E+07 6.58385E+05-5.07530E+06
 -1       125-3.67413E+07-1.71579E+07 1.04433E+06-1.67579E+07 1.91123E+06-6.39861E+06
 -1       126 1.35934E+05-2.89790E+07 1.70871E+06-1.33773E+07-9.18466E+05-3.34563E+06
 -1       127-2.12891E+08-1.75857E+08-1.43496E+08 1.79943E+08-2.08579E+08 2.29660E+08
 -1       128-2.37664E+08-1.34969E+07 6.98413E+06 9.07478E+07-1.29872E+07 3.87573E+07
 -1       129-1.33977E+08-6.52876E+05 4.62105E+06 2.45991E+07-4.61378E+06 1.15726E+07
 -1       130-9.57177E+07 1.27474E+06 4.54849E+06 8.93476E+06-3.32795E+06 8.98394E+04
 -1       131-6.86159E+07-2.98386E+06 2.03284E+06-1.33097E+07-2.70985E+06-1.14076E+07
 -1       132-3.49956E+07-3.37587E+07-2.57860E+07-3.28414E+07-3.78418E+07-4.33891E+07
 -1       133 1.04437E+07 3.18860E+07 2.53695E+07 1.05388E+07-4.09392E+07-2.50283E+07
 -1       134 8.55558E+06 6.05114E+06 3.68371E+06 7.82082E+06-1.67698E+06-1.24307E+07
 -1       135 1.45065E+07 1.43418E+06 1.06402E+06 3.79322E+06-1.14172E+06-1.58910E+07
 -1       136 2.19337E+07-1.03747E+06-2.41700E+06 1.69153E+06 1.13988E+06-6.78477E+06
 -1       137 3.30068E+07-1.94806E+06-3.24372E+06-2.57133E+06-3.34415E+06-7.86147E+06
 -1       138 4.72989E+07 3.04210E+06 7.74650E+06-5.14146E+06-6.17709E+06 9.51734E+06
 -1       139 7.38715E+07 1.28659E+07 2.56670E+07-5.56644E+06-1.60386E+07 1.98905E+07
 -1       140 4.83186E+07-2.40251E+07-2.84474E+07-1.35777E+07 4.96357E+06 3.36745E+07
 -1       141 1.17283E+08-2.46816E+06-2.47198E+06-3.25882E+07-2.25527E+07 6.90941E+07
 -1       142 1.41524E+08 5.62130E+07 1.17283E+07-9.52387E+07-4.37409E+07 1.18741E+08
 -1       143 2.35566E+08 2.86338E+08 3.31537E+08-1.41427E+08-4.81770E+08 4.22002E+08
 -1       144 2.42610E+06 1.16357E+07-2.94892E+06 8.19957E+06-8.03376E+06-1.88019E+06
 -1       145 1.23035E+07-1.53778E+06 1.90958E+06 8.55308E+06-4.73975E+05-6.84031E+06
 -1       146 3.48537E+07 4.37782E+06 2.54206E+06-2.49655E+06 1.29018E+06-7.21400E+06
 -1       147 6.50589E+07 1.33208E+07-3.15890E+06-2.14010E+07 3.51656E+06-8.83905E+06
 -1       148 1.04917E+08 4.51441E+07 4.09615E+07-6.16847E+07-2.80086E+07 2.42436E+07
 -1       149 5.26114E+07 1.83149E+08-2.16740E+06-9.74942E+07-1.15502E+08 3.86212E+07
 -1       150 2.48596E+05-6.63606E+06-3.79249E+05 4.58863E+06 1.98256E+06-2.56397E+05
 -1       151 3.03779E+06-9.53970E+06 4.48497E+06 1.08352E+07 5.57991E+06-2.56624E+06
 -1       152 3.21052E+06-8.10174E+06-3.18793E+06 1.36237E+07 9.59826E+06-2.87317E+06
 -1       153 1.26533E+07-1.28178E+06-9.44478E+05 5.87564E+06 7.83917E+06-4.42451E+06
 -1       154 2.06691E+07 4.30720E+06-2.13188E+06-1.44086E+06 6.91705E+06-9.67786E+06
 -1       155 3.55561E+07 1.47105E+07 3.79392E+06-1.53362E+07 1.84098E+06-4.28396E+06
 -1       156 4.80418E+07 2.39976E+07 6.08817E+06-3.07899E+07-1.24536E+06-3.59815E+06
 -1       157 5.02970E+07 3.66596E+07-7.13270E+06-4.95547E+07 5.26002E+06-1.06427E+07
 -1       158 4.39089E+07 4.70220E+07-4.19151E+07-7.78053E+07 2.49486E+07-2.07200E+07
 -1       159 4.39994E+07 1.04030E+08 4.36404E+07-6.42876E+07-2.67216E+07 2.13007E+07
 -1       160 6.23862E+06 1.34912E+08 7.79677E+06-3.48344E+07-5.92801E+07 2.01375E+07
 -1       161-1.02519E+06-3.23472E+07-1.03770E+06 5.02721E+06-7.83028E+06 1.28871E+06
 -1       162-4.66526E+06-2.29136E+07 3.60144E+05 1.89852E+07 7.08498E+06-3.79291E+06
 -1       163 7.10248E+06-2.73827E+06-9.31616E+04 3.37838E+06 7.49943E+06-8.32197E+06
 -1       164 2.89890E+07 2.05032E+07 1.45510E+05-1.91484E+07 6.98741E+06-8.70126E+06
 -1       165 3.31193E+07 4.87321E+07-6.27345E+06-5.14433E+07 1.32180E+07-3.63049E+06
 -1       166-2.58230E+07 4.17095E+07-3.17526E+07-1.21797E+07-2.99490E+07-2.09880E+06
 -1       167 5.74216E+06-4.47502E+07 9.54355E+06 9.90824E+06-6.63535E+06 2.99486E+06
 -1       168-8.31136E+06-5.10137E+07-4.17894E+06 1.98203E+07 8.87210E+06 3.87104E+05
 -1       169-1.22869E+07-3.67594E+07 3.98227E+06 2.61344E+07 1.24373E+07-4.28278E+06
 -1       170-1.24543E+07-2.58650E+07 2.28260E+04 1.86261E+07 1.21426E+07-5.44571E+06
 -1       171-7.96231E+06-1.39163E+07-5.12218E+04 1.05638E+07 1.08976E+07-7.22513E+06
 -1       172 2.32389E+06 3.63396E+05 2.67626E+05-7.81911E+04 1.14314E+07-6.96431E+06
 -1       173 1.36876E+07 1.57300E+07 1.89788E+06-1.08653E+07 1.07918E+07-8.37708E+06
 -1       174 1.69029E+07 2.71183E+07 2.23400E+05-2.10722E+07 1.13729E+07-5.43666E+06
 -1       175 2.02369E+07 4.26576E+07 6.84108E+06-3.37045E+07 6.22629E+06 1.91064E+06
 -1       176 1.10463E+07 5.76628E+07-3.84736E+06-2.35272E+07 1.22155E+07-3.49549E+06
 -1       177 1.47995E+07 6.83901E+07 3.06979E+07-6.83185E+06-2.03856E+07 1.18662E+07
 -1       178-2.34159E+06-6.62626E+07-8.33124E+06 1.34135E+07-2.83471E+07 8.09656E+06
 -1       179-2.55613E+07-5.64396E+07-4.14570E+06 4.10654E+07 4.93408E+06 2.64496E+06
 -1       180-2.59268E+07-2.73862E+07-5.18136E+05 1.97464E+07 9.08536E+06-7.64829E+06
 -1       181-5.83738E+06 6.95115E+05 1.23506E+05-2.76227E+06 9.15493E+06-8.91033E+06
 -1       182 8.07773E+06 2.57397E+07 2.78860E+06-2.23680E+07 5.38722E+06-2.63646E+06
 -1       183 2.70182E+06 3.51722E+07 6.48275E+06-7.50720E+06-1.41905E+07 3.37047E+06
 -1       184-1.65651E+07-1.01606E+08-3.43921E+07 1.34255E+07-4.05621E+07 2.05151E+07
 -1       185-1.97886E+07-9.11140E+07 4.97618E+06 4.08844E+07 9.06056E+06-2.75108E+06
 -1       186-3.85674E+07-7.33692E+07-8.35374E+06 5.82631E+07 3.86615E+06 7.13929E+06
 -1       187-4.29496E+07-5.47245E+07-2.81844E+05 4.09980E+07 1.04578E+07-4.57315E+06
 -1       188-4.69539E+07-4.26203E+07-2.64805E+06 2.92766E+07 9.49894E+06-6.86547E+06
 -1       189-3.46542E+07-2.61690E+07-5.78187E+05 1.70243E+07 1.04031E+07-6.87848E+06
 -1       190-2.47871E+07-1.34114E+07-6.69296E+05 5.08390E+06 9.89031E+06-8.68742E+06
 -1       191-1.32426E+07-2.15751E+06-2.25978E+05-4.65493E+06 1.12218E+07-5.95835E+06
 -1       192-5.53512E+06 6.15483E+06-4.24926E+06-1.31651E+07 1.11832E+07-8.34380E+06
 -1       193-5.18727E+05 1.57928E+07 3.99669E+06-1.06733E+07 9.71610E+06-7.67853E+05
 -1       194-5.84294E+06 1.13989E+07-1.16139E+07-5.01044E+06 1.15746E+06-1.76729E+06
 -1       195 3.29527E+07-6.60549E+07 3.86917E+07 2.27601E+07-5.61425E+07-5.04134E+06
 -1       196-5.46480E+07-7.33618E+07 9.74733E+06 8.08197E+07 1.33517E+07-9.51402E+05
 -1       197-6.25430E+07-4.15124E+07-3.05063E+05 3.88127E+07 6.57985E+06-7.43029E+06
 -1       198-4.03799E+07-1.86931E+07 7.43082E+03 1.02779E+07 7.14014E+06-9.82378E+06
 -1       199-1.50164E+07-2.56922E+06 1.39541E+06-1.16806E+07 7.73765E+06-7.23431E+06
 -1       200 6.52777E+06 7.50941E+06 6.10669E+06-3.31652E+06-5.29007E+06 5.69775E+05
 -1       201 2.11789E+06-1.61120E+08 2.20688E+06 4.96774E+07-9.99577E+07 2.91412E+07
 -1       202-6.25111E+07-1.41046E+08-5.51030E+07 9.31546E+07-3.38328E+07 3.58968E+07
 -1       203-6.84694E+07-6.20957E+07 5.58725E+07 1.17304E+08 2.48070E+07-2.54498E+07
 -1       204-8.19695E+07-5.17971E+07 9.27007E+06 7.91958E+07 2.59938E+06-1.26951E+07
 -1       205-8.43680E+07-3.90298E+07-7.41098E+06 5.38098E+07-4.68501E+06-3.14238E+05
 -1       206-7.26464E+07-2.96501E+07-5.32704E+06 3.28990E+07-1.87483E+06-3.55315E+06
 -1       207-5.63132E+07-1.91958E+07 2.16154E+06 1.37698E+07 3.68849E+06-1.19637E+07
 -1       208-4.25580E+07-1.50917E+07 2.44563E+06 8.76367E+05 4.85212E+06-3.59585E+06
 -1       209-2.51704E+07-1.00794E+07 1.01446E+07-1.30594E+07 8.99231E+06-2.78063E+06
 -1       210-1.68297E+07-2.05237E+07-1.10610E+07-1.23069E+07-2.40708E+05-8.98298E+06
 -1       211 3.22686E+06-2.04276E+07 3.15708E+06-7.11054E+06-7.68105E+06-6.45763E+06
 -1       212-7.09473E+07-1.95507E+08-1.19292E+07 1.28700E+08-1.66615E+08 5.78841E+07
 -1       213-1.46337E+08-6.00215E+07-5.69875E+07 9.51040E+07-2.87750E+07 3.97387E+07
 -1       214-1.07834E+08-2.08948E+07 3.74455E+06 3.70573E+07 3.07727E+06-7.91716E+06
 -1       215-7.60157E+07-1.23315E+07-3.46154E+06 1.12315E+07 8.04357E+05-6.18146E+06
 -1       216-4.46773E+07-1.06370E+07-9.39464E+06-1.13186E+07-3.41652E+06-1.54140E+07
 -1       217-1.14841E+07-3.24948E+07-9.35829E+05-2.24109E+07-2.67484E+07-1.29096E+07
 -1       218-3.65559E+08-3.21851E+08-4.46157E+08 1.84193E+08-5.67940E+08 6.21967E+08
 -1       219-2.35407E+08-6.84495E+07-1.87270E+05 1.30815E+08-5.27911E+07 1.64718E+08
 -1       220-1.84367E+08-6.75475E+06-8.27818E+06 5.17012E+07-2.69262E+07 9.53701E+07
 -1       221-7.47781E+07 3.46961E+07 4.23361E+07 2.05523E+07 2.19837E+06 5.24380E+07
 -1       222-1.18014E+08-1.63955E+07-3.57159E+07 1.13571E+07-1.82169E+07 4.18254E+07
 -1       223-8.62124E+07-3.55338E+06-1.16499E+07 1.07626E+07-8.99689E+06 2.28382E+07
 -1       224-7.26603E+07 1.38504E+06 6.53432E+05 7.27057E+06-6.93119E+06-3.27991E+06
 -1       225-4.96907E+07 7.40145E+06 9.62605E+06 5.81295E+05-1.08971E+06-3.62597E+06
 -1       226-5.34818E+07-2.70666E+06-4.00706E+06-7.66433E+06-5.59244E+06-2.27102E+07
 -1       227-5.02675E+07-1.37594E+07-1.30464E+06-2.32127E+07-9.94843E+06-3.02546E+07
 -1       228-6.20867E+07-6.01943E+07-8.08667E+07-3.37228E+07-1.03264E+08-1.15708E+08
 -1       229 4.58929E+07 8.00698E+07 5.10566E+07 2.86369E+07-7.03215E+07-4.47843E+07
 -1       230 7.06376E+06-3.36789E+06 2.00314E+06-1.88602E+05-1.18342E+06-1.79503E+07
 -1       231 2.04150E+07-4.71924E+06-4.25357E+06-1.08770E+06-2.89860E+06-1.22248E+07
 -1       232 5.85807E+07 3.77813E+07 4.43360E+07-2.21417E+06-3.48047E+07 3.59464E+07
 -1       233 3.04149E+07-6.17162E+07 1.69823E+06 1.63921E+07-1.55555E+07 7.56367E+07
 -1       234 7.72911E+08 8.66774E+08 6.75220E+08-3.81099E+08-8.28383E+08 7.31361E+08
 -1       235-4.22423E+06-9.20815E+06-8.06663E+05-7.79820E+04 1.76785E+06 1.72326E+06
 -1       236 3.32024E+06-3.40694E+06-5.28335E+06 1.05087E+07 1.27004E+07-3.61369E+06
 -1       237 1.41925E+07 3.08168E+06-4.27115E+06-1.70220E+06 8.85055E+06-1.22803E+07
 -1       238 3.15888E+07 1.26648E+07 9.38733E+06-1.95847E+07-5.34062E+05-4.03781E+06
 -1       239 4.91930E+07 5.56014E+07-6.66932E+07-7.02790E+07 3.90617E+07-3.08917E+07
 -1       240-4.42583E+07 4.22758E+07 1.82843E+07 1.55339E+07-6.42291E+07 1.23090E+07
 -1       241 1.29456E+07-2.64423E+07 1.40514E+07 5.39592E+06-7.23804E+06-2.40825E+05
 -1       242-9.01443E+06-2.51875E+07 7.42900E+06 1.83716E+07 1.55178E+07-5.43499E+06
 -1       243-5.42860E+06-9.43583E+06 6.26756E+04 7.11380E+06 1.37356E+07-9.15549E+06
 -1       244 8.63500E+06 1.00561E+07 1.75325E+06-6.76431E+06 1.28247E+07-9.73883E+06
 -1       245 1.06603E+07 2.74722E+07 1.05895E+07-2.14055E+07 6.88021E+06 1.07505E+06
 -1       246 3.72069E+07 5.33979E+07 5.11800E+07-5.28493E+06-3.71056E+07 2.92932E+07
 -1       247-4.89914E+07-7.98906E+07-5.99859E+07 7.14027E+06-6.47277E+07 4.48406E+07
 -1       248-2.18192E+07-4.85018E+07-1.30888E+07 3.78654E+07 3.88737E+06 7.37994E+06
 -1       249-3.09359E+07-2.79824E+07-2.16197E+06 1.90903E+07 1.11022E+07-7.81419E+06
 -1       250-1.65537E+07-8.95052E+06-4.63530E+05 3.58193E+06 1.22657E+07-1.11559E+07
 -1       251-2.83385E+06 4.58961E+06-7.70873E+06-9.32619E+06 1.41939E+07-1.01344E+07
 -1       252-1.59877E+07 3.28058E+06-1.84338E+07-1.71829E+06 6.39570E+05-8.22963E+06
 -1       253 7.51213E+07-4.77885E+07-3.90643E+06-1.62384E+07-1.11561E+08 2.06841E+07
 -1       254-7.50960E+07-6.68623E+07 8.81804E+07 1.01986E+08 3.78034E+07-4.12265E+07
 -1       255-5.56140E+07-2.27790E+07-1.10287E+07 3.43169E+07-4.00505E+06 1.07133E+06
 -1       256-3.79814E+07-1.25105E+07 4.82304E+06 1.05483E+07 4.99158E+06-1.54580E+07
 -1       257-2.24197E+07-1.12604E+07 1.58293E+07-1.30023E+07 1.25377E+07-1.52325E+06
 -1       258 1.70375E+07-1.65580E+06 3.58661E+06 4.23920E+06-8.28266E+06-4.53733E+06
 -1       259-1.10434E+09-1.02206E+09-9.04984E+08 4.90222E+08-9.75854E+08 1.06363E+09
 -1       260-6.39834E+07 5.78837E+07-2.09550E+07-1.54302E+07-1.81573E+07 1.05934E+08
 -1       261-8.81276E+07-4.39309E+07-6.16125E+07 8.49839E+06-4.02621E+07 6.77769E+07
 -1       262-4.75291E+07 1.49954E+06-1.35744E+06 2.89339E+06-8.87320E+06-9.01908E+06
 -1       263-2.61165E+07 7.66463E+06-8.41032E+06 3.95105E+06-5.14966E+06-2.45042E+07
 -1       264-1.97417E+08-1.88083E+08-1.64611E+08-8.95840E+07-1.76853E+08-1.97403E+08
 -1       265 7.57194E+07 1.94707E+08 7.57195E+07-3.03299E+06 5.04295E+07-6.41984E+01
 -1       266 5.28754E+07 1.35965E+08 5.28755E+07-3.44481E+06 2.57860E+07 5.09544E+01
 -1       267 3.32185E+07 8.54190E+07 3.32185E+07-3.18729E+06 1.97562E+07-2.31430E+01
 -1       268 2.05992E+07 5.29694E+07 2.05992E+07-1.21490E+06 1.50944E+06 4.24206E+01
 -1       269 1.25648E+07 3.23095E+07 1.25649E+07 1.06083E+06 6.62512E+06-2.96839E+01
 -1       270 1.40764E+07 3.61965E+07 1.40764E+07 6.12665E+05 6.65675E+06 1.72958E+01
 -1       271 1.84484E+07 4.74392E+07 1.84487E+07 8.59865E+05 2.63307E+07-6.27116E+01
 -1       272 4.09802E+07 1.05378E+08 4.09805E+07 3.45556E+06-1.35408E+07-6.21790E+01
 -1       273 8.10085E+07 2.08308E+08 8.10088E+07 8.25162E+06 3.52084E+07 1.56916E+02
 -1       274 1.67313E+08 4.30234E+08 1.67313E+08 1.24842E+07 3.88390E+07-3.28814E+02
 -1       275 2.72636E+08 7.01065E+08 2.72637E+08 1.62891E+07 1.44745E+08 3.67168E+02
 -1       276 4.29532E+08 1.10451E+09 4.29533E+08 2.24928E+07 1.57243E+08-4.31193E+02
 -1       277 6.13588E+08 1.57780E+09 6.13588E+08 3.80208E+07 3.33999E+08 2.71266E+02
 -1       278 8.69120E+08 2.23488E+09 8.69120E+08 3.69331E+07 4.21981E+08-5.62338E+02
 -1       279 1.14084E+09 2.93358E+09 1.14084E+09 2.20624E+07 6.89585E+08 6.41968E+02
 -1       280 5.35025E+07 1.39661E+08 4.20857E+07-3.42878E+07-8.76935E+05-8.37951E+06
 -1       281 2.96797E+07 6.55481E+07 1.69585E+07-2.17043E+07-2.55722E+06 1.91639E+06
 -1       282 1.70654E+07 3.12687E+07 8.24942E+06-4.71251E+06 1.34235E+06-1.09093E+06
 -1       283 2.58576E+07 3.24382E+07 4.98049E+06 1.30991E+07-8.91806E+05-1.16276E+07
 -1       284 9.46014E+07 1.90471E+08 2.56877E+07 8.92416E+07 6.26045E+05-1.33781E+07
 -1       285 2.25821E+08 5.49695E+08 1.51390E+08 1.73867E+08-6.60278E+06-3.12672E+07
 -1       286 4.93369E+08 1.17749E+09 3.31741E+08 2.97762E+08-3.07860E+07-4.40513E+07
 -1       287 7.68737E+08 2.11711E+09 6.46055E+08 4.01113E+08-2.06078E+06 1.24837E+08
 -1       288 1.00199E+07 4.68184E+06-1.98836E+07-6.08276E+07 4.06085E+07-7.80006E+05
 -1       289 1.39816E+07 3.51336E+06-1.68067E+07-4.94109E+07 2.47977E+07 2.40667E+05
 -1       290 1.49620E+07-2.53931E+06-1.59322E+07-3.68858E+07 1.00096E+07-2.63901E+06
 -1       291 2.05093E+07 6.71990E+06-7.36523E+06-2.17636E+07 9.91422E+06 2.85384E+06
 -1       292 2.44630E+07 1.58470E+07 7.18464E+05-8.71584E+06-1.48606E+06 9.27913E+05
 -1       293 2.21689E+07 1.14930E+07-7.20120E+06-1.02027E+06 5.03115E+06-3.27579E+06
 -1       294 4.97960E+07 1.84740E+07-3.56920E+06 1.58939E+07-4.14901E+06 6.93114E+06
 -1       295 1.25417E+08 9.72099E+07-3.13950E+06 9.62976E+07 2.63780E+07 1.74373E+07
 -1       296 1.48205E+08 1.59717E+08-2.20474E+07 1.78328E+08-3.21498E+07 9.62912E+06
 -1       297 1.25248E+08 1.16829E+08-5.21059E+07 2.30512E+08 7.55012E+07-4.84320E+06
 -1       298 1.04529E+08 7.87626E+07-8.01876E+07 2.88528E+08 1.09058E+08-2.36079E+07
 -1       299 1.08292E+08 1.02112E+07-1.68674E+08 4.01517E+08 1.66913E+08 3.00668E+07
 -1       300 1.51800E+08-1.32548E+06-2.30067E+08 5.18701E+08 2.26697E+08 7.58010E+06
 -1       301 1.04087E+08 4.79471E+07-2.55512E+08 6.28821E+08 3.85973E+08-3.16151E+07
 -1       302 1.74631E+07 4.23264E+07-3.07222E+08 7.25351E+08 6.23892E+08 4.02688E+07
 -1       303-7.24788E+06-1.06206E+08-2.25147E+07-4.28036E+07 1.24241E+07-5.81356E+06
 -1       304 2.90553E+07-4.83656E+07-4.62460E+06-2.34461E+07 4.04614E+06-1.19581E+06
 -1       305 2.29452E+07-2.07537E+06-4.56374E+06 2.00516E+06 4.65159E+05 2.28650E+06
 -1       306 1.30295E+07-1.04774E+06-3.62403E+06-2.47815E+06-3.53951E+06 1.87882E+06
 -1       307 1.08037E+08 1.25676E+08-1.08611E+07 6.44268E+07 1.87289E+07-3.57158E+07
 -1       308 1.42884E+08-3.36890E+08-5.19710E+07 1.16792E+08-3.96148E+07 2.14373E+07
 -1       309 5.65733E+07-7.66225E+08-1.07801E+08 3.56399E+08 4.95352E+06 3.98945E+07
 -1       310-2.83856E+08-1.71768E+09-3.68017E+08 4.43523E+08 6.45477E+07-2.03537E+07
 -1       311-1.41177E+07-3.93220E+06-7.63959E+06 8.29766E+07-1.36769E+07-1.89619E+07
 -1       312-2.82793E+07-4.71604E+07-1.16359E+06 5.80108E+07 8.05398E+06-1.89758E+07
 -1       313 7.84298E+05-9.56088E+07 1.59539E+07 9.28789E+06 2.58387E+06-8.97538E+06
 -1       314 3.63479E+07-8.09579E+07 1.92492E+07-1.74826E+07 5.32829E+06 1.40622E+06
 -1       315 4.88508E+07-7.16673E+07 1.45865E+07-1.95281E+07-4.07368E+06-7.99995E+05
 -1       316 5.25905E+07-1.49955E+07 1.58910E+07 1.04049E+07-1.58677E+06 4.86992E+06
 -1       317 2.50044E+07-3.09928E+06-4.11283E+06 1.23484E+07 6.34607E+06 1.07015E+07
 -1       318 1.26437E+07 4.34553E+06 3.99731E+06 5.25482E+06-2.91766E+06-6.45785E+06
 -1       319 7.17734E+06 2.23512E+06 1.13624E+07-2.47073E+06 7.75228E+06 7.18069E+06
 -1       320 1.49064E+08 1.80165E+08 4.78488E+07-1.21145E+08 3.37035E+07-7.25554E+07
 -1       321 1.67612E+08-1.08890E+08 6.23800E+07-1.14431E+08 1.08917E+07-1.14162E+06
 -1       322 2.77453E+08-6.10601E+08 4.29295E+07-1.22171E+07-1.07063E+07-2.55553E+07
 -1       323 2.27164E+08-8.25759E+08 1.27500E+08 8.56069E+07 5.71399E+07-3.15047E+07
 -1       324 1.03616E+08-1.03714E+09 1.92617E+08 1.49060E+08 1.10501E+08 3.62993E+07
 -1       325 9.39860E+07-1.35024E+09 2.29646E+08 1.83682E+07 6.86348E+07 2.38417E+06
 -1       326-1.28290E+08-1.66092E+09 2.07811E+08-2.61973E+08 7.41270E+07 5.06836E+07
 -1       327-2.74184E+08-7.50663E+08 4.44124E+07-8.36331E+08 1.41561E+08 3.00225E+08
 -1       328-1.23347E+08-1.12743E+08-1.12154E+08-1.10538E+09-1.95153E+08 2.51209E+08
 -1       329-6.46325E+07-1.60469E+07 8.42880E+06 6.89122E+07-2.66132E+07 1.48760E+07
 -1       330-5.15060E+07-8.26188E+07-9.69340E+05 5.23440E+06-7.25820E+06-6.87300E+06
 -1       331-4.25650E+07-1.28617E+08-3.29469E+07-6.56964E+07-1.43375E+07-2.09757E+06
 -1       332 1.47233E+08-7.13182E+08-4.81219E+07-1.39723E+08 1.20385E+08-1.20514E+08
 -1       333-4.25461E+07-1.50077E+09-1.34328E+08 4.08486E+07-2.02586E+07-1.42936E+07
 -1       334-5.49397E+08-1.33023E+09 2.49424E+07-1.28681E+08-1.82435E+07 8.33797E+07
 -1       335-7.41202E+08-3.14214E+08 5.02552E+07-8.70767E+08-3.02524E+08-1.60627E+08
 -1       336 2.41049E+08 9.37414E+07 9.37414E+07-6.85097E+05-2.81839E+01 5.13619E+07
 -1       337 1.75296E+08 6.36847E+07 5.45008E+07-2.68614E+07-8.38156E+06-1.31667E+06
 -1       338-6.10545E+05-2.48929E+06-2.56959E+07-4.82246E+07-1.62925E+06 5.13073E+07
 -1       339-1.53599E+08-3.71542E+07-3.35129E+07-2.25470E+07 2.45485E+06 8.80837E+05
 -1       340-1.47955E+08-2.12010E+07 1.72600E+07 3.24135E+07-2.89867E+06 1.04157E+07
 -1       341-1.21564E+08-3.60741E+07 3.50630E+06 1.74241E+07-1.37103E+06-4.19275E+06
 -1       342-7.70742E+07-2.59844E+07 1.81005E+06-8.12656E+06 8.79231E+06 4.47677E+05
 -1       343-5.38055E+07-2.73270E+07-2.88733E+06-4.75233E+07-4.04238E+07-1.35305E+06
 -1       344-4.98632E+07-1.71008E+06-5.44749E+06-8.29702E+07-3.24671E+07-2.06096E+07
 -1       345 2.83226E+08-3.40087E+08 6.85559E+07-4.31326E+08-9.59842E+07-1.86711E+08
 -1       346 4.94132E+08-7.78897E+08 3.33052E+07-4.03587E+08-2.21109E+08-6.82333E+07
 -1       347 2.22337E+08-1.12142E+09-1.10141E+08 1.14417E+08-1.95721E+08 1.42566E+08
 -1       348-5.69202E+07-9.32313E+08-9.34237E+06 2.63480E+08-3.83967E+08 4.43095E+07
 -1       349-6.73971E+08-6.46495E+08 2.39543E+07 1.43014E+08 5.52115E+07-1.54029E+07
 -1       350-1.39743E+09-5.62113E+08 1.69671E+07-1.70283E+08-3.61089E+07 9.68112E+07
 -1       351-1.67346E+09-1.49571E+08 2.27145E+08-3.62479E+08-1.07758E+08-7.63297E+07
 -1       352-1.82273E+09-3.17801E+08-4.04087E+08 4.15652E+08-4.68236E+07-9.89467E+07
 -1       353 4.02567E+07 4.96426E+07-3.21896E+08 7.59182E+08-2.73299E+04-6.40567E+08
 -1       354 2.19588E+09 8.19644E+08 6.70812E+08 4.18848E+08-9.93981E+07 3.31474E+07
 -1       355 3.01696E+09 1.17326E+09 1.17326E+09 2.60897E+07-5.66376E+02-6.84902E+08
 -1       356 1.93038E+08 7.50702E+07 7.50703E+07-1.82645E+06 1.49373E+01 3.61389E+07
 -1       357 4.04411E+06 3.44345E+06-2.10649E+07-4.40938E+07 2.33955E+06 3.32567E+07
 -1       358-1.25396E+08-9.60146E+06 1.69157E+07 1.29476E+07 7.35835E+05 3.92240E+06
 -1       359-1.07378E+08 8.85249E+05 9.63069E+05 6.30898E+06-1.35169E+07-1.94297E+07
 -1       360 4.13695E+07 2.39746E+08 4.58268E+07 2.11403E+07-1.36078E+07-1.18921E+07
 -1       361 1.21243E+09 1.43374E+09 3.17716E+08-5.13026E+08-4.79921E+07-1.38991E+07
 -1       362-8.50553E+08-4.43824E+08-2.04558E+07 3.67223E+08-1.55047E+08 4.39640E+08
 -1       363-1.46541E+09 2.32545E+08 2.64807E+08-7.45607E+07 2.30618E+07-7.57330E+07
 -1       364 8.18058E+07 9.65760E+07-2.74132E+08 6.42028E+08 1.02196E+07-3.96085E+08
 -1       365 2.27771E+09 8.85775E+08 8.85776E+08 3.57875E+07 3.25406E+02-4.16400E+08
 -1       366 1.45833E+08 5.67130E+07 5.67130E+07-2.31689E+06-2.17222E+01 3.03064E+07
 -1       367 1.08190E+08 4.05306E+07 3.08944E+07-2.19145E+07 4.58909E+06-1.76555E+06
 -1       368 3.16348E+06 2.99620E+06-1.97701E+07-3.89237E+07 1.93008E+06 2.21805E+07
 -1       369-6.88165E+07-1.49225E+07-1.17912E+07-1.99080E+07-2.83024E+06-1.80950E+06
 -1       370-9.10983E+07-1.19586E+07 1.59503E+07 4.22558E+06-1.14715E+06 1.31910E+07
 -1       371-1.24747E+08-2.97359E+07-5.40438E+06 2.43495E+07 8.02067E+06-2.74136E+06
 -1       372-1.22839E+08-1.81920E+07-8.59322E+06 3.72742E+07-8.29838E+06-7.32488E+06
 -1       373-1.43378E+06 1.30835E+08 1.42978E+07 7.90792E+07 4.13124E+06 1.43545E+07
 -1       374 8.78670E+07 1.97933E+08 3.26991E+07 8.18040E+07-5.52739E+07-4.43578E+07
 -1       375 1.61368E+07 2.07252E+07-8.03009E+06 1.62158E+07-6.48657E+05-1.74975E+07
 -1       376 1.58873E+06-6.58692E+06 7.01843E+06-3.99464E+06 3.01436E+06-2.03396E+07
 -1       377 4.00998E+06-9.87489E+06 2.04275E+06 1.07013E+06-1.27067E+06-1.06557E+07
 -1       378 1.27668E+07-3.37184E+06 5.03588E+06 2.57535E+05-2.00513E+06-9.95656E+06
 -1       379 2.52990E+07 1.56677E+07-3.89856E+06-9.37966E+06-5.62874E+06 1.26910E+07
 -1       380 1.25700E+07 3.48508E+07-1.32114E+07 1.09239E+06-5.60638E+06 2.02863E+07
 -1       381-1.09436E+07-6.87213E+07 6.30228E+06 1.65906E+07-1.54870E+07 5.69865E+07
 -1       382-9.62919E+06-8.59286E+07 1.08507E+08 6.38932E+07 1.76982E+07 9.63701E+07
 -1       383 3.29675E+08 2.35198E+08-9.62155E+07-2.12340E+08-4.15650E+07 1.08709E+08
 -1       384 1.77626E+09 1.95178E+09 4.20971E+08-1.03781E+09-7.26913E+08 6.19993E+08
 -1       385 1.73876E+09 1.20893E+09 4.76466E+08-6.16606E+08-1.19039E+08 4.47402E+07
 -1       386-6.98516E+08-6.15194E+08-7.75844E+07 4.92890E+08-2.38317E+08 2.21435E+08
 -1       387-2.05902E+09-6.36653E+08-3.68447E+08 3.70678E+08 7.33093E+07 1.34134E+08
 -1       388-1.10366E+09 3.28505E+08 2.65384E+08-5.12083E+07-1.23400E+07-5.67677E+07
 -1       389-6.81999E+08 1.18989E+08-6.69737E+07 1.97143E+08-3.37492E+07-4.31581E+07
 -1       390 6.18522E+07 9.44000E+07-2.57338E+08 5.19464E+08-8.09969E+06-1.92119E+08
 -1       391 1.22349E+09 4.75366E+08 3.25135E+08 3.11066E+08 4.84047E+07 4.37374E+07
 -1       392 1.61532E+09 6.28179E+08 6.28180E+08 4.12035E+07-2.78629E+02-3.10907E+08
 -1       393 1.09456E+08 4.25661E+07 4.25662E+07-3.07606E+06 4.73644E+01 1.95346E+07
 -1       394 2.58201E+06-4.28763E+06-1.60405E+07-3.94070E+07-4.44114E+06 1.37838E+07
 -1       395-6.42407E+07-1.67275E+07 1.13535E+07 6.52814E+06-1.77095E+06 3.65686E+06
 -1       396-7.35929E+07-7.41130E+06-1.01300E+06 5.66653E+07 1.28953E+07-1.64224E+07
 -1       397 1.36157E+07 3.77933E+07-6.71901E+06 1.60221E+07-3.83176E+05-1.42653E+06
 -1       398 5.11693E+06 3.21041E+06 5.73830E+06-2.41997E+04 6.28140E+06-7.50666E+06
 -1       399 1.29282E+07 3.44563E+06 5.76118E+06 2.68142E+05 4.37526E+06-1.21948E+07
 -1       400 2.39081E+07 9.87684E+06-1.62310E+07-8.15315E+06-2.82054E+06-3.15514E+06
 -1       401 1.01963E+07 5.04348E+07 8.93930E+07 5.71525E+06 2.85769E+07-1.82357E+07
 -1       402 2.20789E+08 4.05457E+08-9.70187E+07-2.08386E+08-7.62158E+07 3.35130E+07
 -1       403-1.41352E+08 2.58707E+08 2.03299E+08-2.64682E+08 1.48532E+07 1.27075E+07
 -1       404 2.46413E+08 1.48276E+08-1.61372E+08 4.45183E+08-1.13466E+07-1.51267E+08
 -1       405 1.06454E+09 4.13989E+08 4.13989E+08 3.10909E+07 7.15558E+02-1.23656E+08
 -1       406 7.04539E+07 2.73988E+07 2.73987E+07-4.66901E+06 1.24567E+01 5.82085E+06
 -1       407 4.49244E+07 1.18320E+07 1.10763E+07-2.42294E+07 1.31545E+07-5.44703E+06
 -1       408-2.17952E+06-2.44988E+07-1.71008E+07-3.98429E+07-4.55234E+05 1.38913E+07
 -1       409-1.15170E+07-2.50158E+07-3.42322E+06-1.79767E+07 2.44221E+06 2.59465E+06
 -1       410-2.87399E+07-2.58761E+07 7.95035E+06 6.91669E+06-1.32975E+06-4.65453E+06
 -1       411-4.82711E+07-1.52695E+07 5.04369E+04 3.12881E+07-6.58149E+05 1.30877E+07
 -1       412-2.31865E+07 7.69306E+05 6.16400E+06 5.88005E+07 1.01566E+07-3.42129E+06
 -1       413-5.04628E+06-6.88448E+06 9.93720E+06-4.64606E+06 1.73698E+05 2.09083E+06
 -1       414 1.44823E+06-9.72840E+06 7.33057E+06 3.20543E+06 1.42021E+07-9.81954E+05
 -1       415 4.87326E+06 2.98056E+06-2.74674E+06 7.33749E+06 9.01276E+06-8.99942E+06
 -1       416 2.19490E+06 2.17217E+05-3.48678E+06 1.81041E+06 8.90796E+06-6.66784E+06
 -1       417 8.97688E+06 3.41269E+06-2.51705E+06-1.84769E+06 7.25359E+06-1.07295E+07
 -1       418 1.64584E+07 3.20295E+06 7.40609E+06-5.19386E+06 7.97945E+06-8.92246E+06
 -1       419 1.55817E+07 1.97269E+06 1.13026E+07-9.06436E+06 7.29138E+06-1.42046E+07
 -1       420-3.91823E+06 1.51834E+07-2.28309E+07-1.53224E+07-2.93763E+06-5.22667E+06
 -1       421 7.33056E+07 8.29620E+07-3.50767E+07-6.13214E+07-2.99784E+07 2.76832E+07
 -1       422 3.78928E+07-1.03529E+07 8.20490E+07-1.86927E+06 2.83984E+07-2.29295E+07
 -1       423-6.52578E+07-9.00903E+06 1.15880E+08 6.49264E+07-8.93062E+07-1.64749E+07
 -1       424 2.31017E+08 1.62968E+08-3.12314E+07-2.18325E+08 1.44234E+08-1.73668E+08
 -1       425 2.66347E+08 1.59913E+08-7.27626E+07 1.01932E+08 3.27285E+07-2.91020E+07
 -1       426 4.24241E+08 2.40263E+08-5.66208E+07 3.84789E+08-1.43325E+07 1.45511E+07
 -1       427 5.21528E+08 2.18885E+08 8.59750E+07 2.12046E+08 2.38170E+07 8.21035E+05
 -1       428 5.85487E+08 2.27689E+08 2.27690E+08 2.12622E+07-3.45157E+02-6.59785E+07
 -1       429-6.67990E+06-2.59760E+06-2.59772E+06-3.03436E+06-2.06794E+01-3.80874E+06
 -1       430 2.10069E+07-4.48689E+07 4.76051E+06-5.44590E+07 5.19749E+06-6.01822E+06
 -1       431-6.83684E+05-3.92186E+07-1.38677E+07 3.68322E+06 1.12440E+07 1.58685E+07
 -1       432 2.04855E+06-1.09465E+07-5.14367E+05-2.96763E+06-1.17190E+07 1.81513E+06
 -1       433-2.46210E+06-9.26381E+06 2.90358E+05 6.86455E+06 8.75842E+06-4.51890E+06
 -1       434 1.80266E+06-2.32452E+06-1.39176E+06 1.39785E+06 1.11173E+07-1.21456E+07
 -1       435 1.27861E+07 1.00337E+07 4.34031E+06-7.91106E+06 1.11719E+07-1.17451E+07
 -1       436 8.86166E+06-9.79537E+06-2.42265E+07-1.86282E+07 5.29055E+06 2.59022E+06
 -1       437-5.87648E+07-1.42409E+07 3.85006E+06 2.16999E+07-5.67926E+07 1.32543E+07
 -1       438 2.40299E+08 2.12670E+08-2.00312E+07 2.91118E+08-5.61381E+07-5.61797E+07
 -1       439 2.87230E+08 1.11700E+08 1.11701E+08 1.26268E+07 1.92670E+02 1.68467E+07
 -1       440-1.00089E+08-3.89235E+07-3.89238E+07-5.04629E+06 8.97129E+01-6.09418E+07
 -1       441-5.03107E+07-5.33090E+07-1.27563E+07-6.57019E+07 1.43872E+07 5.35348E+06
 -1       442 2.57048E+07-8.26934E+07 1.65578E+07-9.74117E+07-1.25144E+07-2.68761E+06
 -1       443 8.19730E+07-9.12969E+06 2.23369E+07-1.38393E+07-7.74452E+06 3.96857E+06
 -1       444 4.38541E+07-1.33453E+07-2.00904E+07 1.10343E+07-2.16913E+06 5.53804E+06
 -1       445 1.05154E+07-1.95199E+07-6.78478E+06 1.24930E+06-9.82445E+06 3.32398E+06
 -1       446-4.41901E+06-1.83710E+07-9.65389E+06 5.54954E+06 1.33143E+07-3.61444E+06
 -1       447-7.80783E+06-1.54168E+07 5.00370E+06 1.06356E+07 1.52013E+07-1.24157E+06
 -1       448-2.27153E+06-7.92351E+06 2.30113E+06 6.55867E+06 1.73765E+07-7.69904E+06
 -1       449-3.18137E+06-5.12810E+06-3.00213E+05 3.66143E+06 1.61710E+07-1.08593E+07
 -1       450 7.16784E+05-4.08267E+05-1.48270E+06-3.33446E+04 1.63649E+07-1.06107E+07
 -1       451 1.90882E+06 2.71970E+06-2.51711E+06-2.51195E+06 1.61035E+07-1.26430E+07
 -1       452 8.82877E+06 1.21881E+07 4.78805E+06-8.77108E+06 1.59628E+07-8.62012E+06
 -1       453 1.63893E+06 1.28101E+07 1.26291E+07-9.74890E+06 1.85681E+07-6.61525E+06
 -1       454 7.08941E+06 2.13509E+07-1.80971E+07-9.05272E+06 6.61164E+06 3.26800E+06
 -1       455 2.70933E+07 2.45767E+06-1.62373E+07-3.92758E+06-1.60570E+07 6.72508E+06
 -1       456 4.82046E+07 1.07292E+08-7.50432E+06 1.78894E+08-4.25390E+07 9.26892E+06
 -1       457 4.73429E+07 3.90860E+07-1.32155E+06 9.41659E+07 2.55563E+07 2.91633E+06
 -1       458 6.81055E+07 2.64852E+07 2.64856E+07 6.91546E+06 9.34050E+01-4.08111E+07
 -1       459-2.59117E+08-1.00767E+08-1.00768E+08-1.31152E+07 2.26883E+02 6.59236E+06
 -1       460-1.94943E+08-1.68971E+08 1.72551E+07-2.32700E+08-6.34341E+07-5.28166E+07
 -1       461-1.78318E+07-3.41099E+07 1.83770E+06 1.55676E+07-3.89759E+07 8.27571E+06
 -1       462-6.88064E+06-2.42968E+07-7.73083E+06 1.41295E+07 1.10553E+07-2.30604E+06
 -1       463-8.67679E+06-9.71557E+06 1.13384E+06 7.00075E+06 1.39164E+07-1.08844E+07
 -1       464-2.55117E+06 6.45062E+04-1.20941E+06-1.00679E+06 1.38814E+07-1.29358E+07
 -1       465 2.98922E+06 1.32391E+07 6.27329E+06-7.15335E+06 1.20262E+07-6.90379E+06
 -1       466 9.31972E+06 1.99621E+07-2.66524E+06-1.29249E+07-1.79366E+07 3.64718E+06
 -1       467-5.33717E+07 4.23636E+07 4.36136E+06 1.33081E+08-2.37934E+07 1.13100E+06
 -1       468-6.89955E+07-2.68317E+07-2.68316E+07 7.65587E+06 3.34159E+01 5.64826E+05
 -1       469-4.77349E+08-1.85635E+08-1.85636E+08-1.67213E+07-2.08780E+02-3.74637E+07
 -1       470-4.30900E+08-1.57031E+08-6.17270E+07-1.58175E+08 1.09164E+07-1.43272E+06
 -1       471-3.53985E+08-1.45639E+08 6.58933E+07-2.87225E+08-1.73000E+07 1.31361E+07
 -1       472-2.65124E+08-8.68047E+07 1.98328E+07-7.21283E+07 2.19221E+07-2.29559E+07
 -1       473-2.90961E+08-1.31796E+08-8.74152E+07 1.83881E+08 7.09631E+07-7.10929E+07
 -1       474-4.59723E+07-1.89755E+07 1.10399E+07 1.11313E+06-4.66969E+07 8.98405E+06
 -1       475-1.39979E+07-3.40840E+07 1.97922E+07 1.48920E+07 5.50755E+05 6.53459E+06
 -1       476-4.77296E+06-2.32209E+07-1.33893E+07 1.83896E+07 1.68678E+07-1.97991E+06
 -1       477-1.86960E+07-2.25284E+07-5.18245E+06 1.59881E+07 1.41465E+07-7.60802E+06
 -1       478-1.32258E+07-1.16697E+07 2.55538E+06 8.67194E+06 1.47806E+07-1.07472E+07
 -1       479-1.21895E+07-8.53020E+06 1.56215E+06 6.04612E+06 1.50320E+07-1.04861E+07
 -1       480-8.05800E+06-4.32576E+06 3.71404E+05 2.12944E+06 1.48676E+07-1.27272E+07
 -1       481-6.74661E+06-2.15901E+06-2.68986E+06-1.69870E+06 1.59138E+07-8.80635E+06
 -1       482 1.52241E+06 4.42571E+06-6.11324E+06-5.58834E+06 1.52284E+07-6.57529E+06
 -1       483-2.22331E+05 5.39709E+06 1.06279E+07-2.84190E+06 1.34503E+07-5.64113E+06
 -1       484-1.35380E+07 9.46064E+06 8.19484E+06 1.42977E+06 1.47416E+06-3.40919E+05
 -1       485-8.18131E+07-2.49231E+06-3.02649E+07-5.09924E+07 6.53044E+06 2.60232E+07
 -1       486-9.21940E+07 4.92764E+06 5.20116E+06 8.10251E+06-5.73791E+06 6.06594E+06
 -1       487-1.18154E+08 1.56811E+07 3.72383E+07 7.86753E+07-1.08618E+07 1.58530E+07
 -1       488-1.62265E+08-3.90791E+07-2.34110E+07 5.10543E+07 1.24018E+07-2.83940E+06
 -1       489-1.90212E+08-7.39713E+07-7.39712E+07 8.33384E+06 3.66928E+01-1.95253E+06
 -1       490-8.09719E+08-3.14891E+08-3.14891E+08-1.79491E+07 4.79057E+02-9.29190E+07
 -1       491-2.60322E+08-1.04406E+08 1.07764E+08-2.99023E+08 6.14747E+06-1.14431E+08
 -1       492 1.25122E+08-9.37128E+07-1.00324E+08 1.95018E+08 2.56103E+07-4.01459E+07
 -1       493 8.95543E+07 1.61666E+07 3.12127E+06-2.07553E+07-9.33951E+07 2.02247E+07
 -1       494-2.19973E+07 1.81298E+06 2.71437E+07 2.62643E+07 5.59878E+06 1.13537E+07
 -1       495-2.48722E+07-1.73767E+07-4.64139E+06 1.54722E+07 1.03007E+07-1.01755E+07
 -1       496-1.38348E+07-5.33067E+06 1.08506E+06 3.09971E+06 1.05391E+07-1.39953E+07
 -1       497-6.18250E+06 2.63038E+06 2.77085E+06-3.62274E+06 8.47678E+06-1.15459E+07
 -1       498 1.31239E+07 7.78932E+06 1.60969E+06 5.77749E+06-9.18575E+06-4.09298E+06
 -1       499 2.30215E+07 3.20448E+07-2.75359E+07-6.23577E+07 1.49949E+07 1.71278E+07
 -1       500-9.32218E+07 3.64502E+06 3.83871E+07 5.92528E+07 6.10339E+05 3.16708E+07
 -1       501-2.72325E+08-1.05904E+08-1.05904E+08 5.26128E+06 1.22665E+02 3.55649E+07
 -1       502-1.17234E+09-4.55911E+08-4.55911E+08-2.16010E+07-4.15261E+02-2.05770E+08
 -1       503-9.10181E+08-3.45560E+08-2.44614E+08-2.06950E+08 4.59301E+07 1.54321E+07
 -1       504-1.77322E+08-9.25285E+07 1.38429E+08-3.34942E+08 2.97625E+07-1.75469E+08
 -1       505 4.14503E+08-9.26377E+07 7.25192E+07-8.68778E+07-2.64264E+07 5.50772E+07
 -1       506 8.20408E+08-2.31943E+08-8.44233E+07 1.14265E+08 2.76249E+07-1.73252E+04
 -1       507 1.01693E+09-1.05126E+08 6.91029E+07 2.74004E+08 1.41886E+08-1.94856E+08
 -1       508 5.14362E+08-3.18365E+08-6.83309E+07 6.25098E+08 2.47623E+08 1.11057E+08
 -1       509 1.13448E+08 1.57966E+07-1.15407E+08-8.01198E+07-1.41514E+08-2.25709E+07
 -1       510-6.15266E+07-9.24295E+06-1.05922E+08-1.03025E+06 2.23033E+07-3.26189E+07
 -1       511-1.09090E+08-9.91099E+07 3.96130E+07 8.49726E+07-3.91679E+07 4.64207E+07
 -1       512 4.31491E+06-1.63667E+07 2.95543E+07 2.81150E+07-7.21610E+06-1.44136E+06
 -1       513-2.73767E+07-7.15548E+06-1.26061E+07 1.57289E+07 3.81298E+06-1.39746E+07
 -1       514-3.27838E+07-9.65057E+06-1.08497E+07 1.10292E+07 4.15268E+06-8.56796E+06
 -1       515-2.16673E+07-8.12776E+06 1.92991E+06 7.14290E+06 3.23010E+06-1.09897E+07
 -1       516-7.24119E+06-4.70926E+06 7.89226E+06 2.11297E+05 3.84892E+06-8.12423E+06
 -1       517-2.43716E+07-1.74312E+07 7.16087E+06-1.25805E+07 7.81095E+05-2.03108E+07
 -1       518-1.35232E+07 6.11350E+05-2.13607E+07 1.60716E+06 1.25709E+07 2.35800E+06
 -1       519 2.25163E+07 5.49923E+06-2.14638E+07 1.52290E+07-1.19167E+07 2.54649E+06
 -1       520 1.28567E+08-4.66653E+07-2.00942E+07-1.67904E+08 5.11622E+07-2.26909E+07
 -1       521 2.47985E+08 1.27952E+07 1.18805E+07-9.81961E+07 2.18199E+07 5.31296E+07
 -1       522 1.88019E+08 4.30025E+06-2.54004E+07-6.50505E+07 6.00712E+06 3.91115E+06
 -1       523 8.28172E+07 1.80804E+07 1.91298E+07-1.04879E+07-3.71554E+06-1.05641E+07
 -1       524-6.36469E+07-3.73949E+06 4.21384E+07 5.14270E+07 6.79614E+06 4.84091E+07
 -1       525-2.66404E+08-9.26792E+07-7.00401E+07 3.37852E+07 1.10156E+07-5.84475E+06
 -1       526-3.47132E+08-1.34996E+08-1.34996E+08 4.20130E+06-7.34777E+01 5.31277E+07
 -1       527-1.63975E+09-6.37682E+08-6.37683E+08-2.61473E+07 3.82017E+02-2.43373E+08
 -1       528-6.74423E+07-1.07506E+08 2.42846E+08-4.52987E+08-3.78779E+07-2.30954E+08
 -1       529 1.12116E+09-1.91340E+08-1.68652E+08-1.04353E+07 4.08919E+07-7.99573E+07
 -1       530 1.05699E+09-5.99093E+08-5.61814E+07 5.90158E+08 1.12431E+08 3.09395E+08
 -1       531-3.09222E+08-4.52004E+08 8.86415E+07 2.73544E+08-1.51694E+08 5.75064E+07
 -1       532 6.69731E+06-4.96946E+07-9.83290E+07 5.49473E+06 2.91338E+07-2.61917E+07
 -1       533-4.01767E+07-1.33185E+07 1.75152E+07 1.43432E+07-4.82558E+06 3.21448E+06
 -1       534-2.73048E+07-6.86904E+06-5.00513E+06 2.31949E+06 2.53574E+06-1.35228E+07
 -1       535-5.57474E+06-8.74375E+06-1.58699E+07 1.34670E+06 7.65664E+06-6.39761E+06
 -1       536-5.50523E+07-8.21777E+07 1.55101E+07-5.01216E+07-2.13334E+07-1.40447E+07
 -1       537 2.55225E+08-8.73111E+07-9.15675E+06-1.62702E+08 3.67068E+07-7.28394E+07
 -1       538 2.57432E+08-6.25915E+06-3.99724E+07-4.20305E+07 9.10035E+06 2.01793E+07
 -1       539-3.26870E+07-1.10399E+07 5.96622E+07 6.64520E+07-7.09335E+06 5.51893E+07
 -1       540-4.20298E+08-1.63449E+08-1.63449E+08 4.17637E+06 2.02341E+01 6.63010E+07
 -1       541-2.17633E+09-8.46349E+08-8.46349E+08-4.38659E+07-2.11238E+02-4.46266E+08
 -1       542-1.62331E+09-6.62834E+08-4.55282E+08-3.32764E+08 5.86574E+07 4.50347E+07
 -1       543-3.18292E+07-1.71781E+08 3.12666E+08-5.77166E+08-4.38160E+06-3.13650E+08
 -1       544 9.96910E+08-2.91858E+07 1.51398E+08-3.59859E+08-5.09572E+07 5.30188E+06
 -1       545 1.38533E+09-8.03571E+07-2.43414E+08-9.14555E+07-3.94525E+07-1.29223E+08
 -1       546 2.00685E+09 1.21393E+08 1.68717E+08 1.53959E+07 4.15694E+07-4.83607E+06
 -1       547 1.51744E+09-1.84582E+08 1.27624E+08-1.26654E+08-1.12218E+08 2.42629E+08
 -1       548-1.70474E+09-1.45844E+09-4.46973E+08 4.51536E+08-1.18351E+08 1.88526E+08
 -1       549-2.40806E+09-2.20884E+09-6.03193E+08 1.18381E+09-8.73095E+08 9.51065E+08
 -1       550-5.20141E+08-2.97099E+08 8.97397E+07 2.69757E+08-4.93891E+07 1.24731E+08
 -1       551 1.28211E+07 9.38378E+07-1.21874E+08-8.09968E+07 2.16550E+07 1.40453E+08
 -1       552 1.52480E+07 8.29362E+07 4.93484E+06-2.46080E+07-1.87838E+07 9.31777E+07
 -1       553-1.83561E+07-3.51825E+07 1.08849E+07 5.90951E+06-1.13565E+07 4.29860E+07
 -1       554-4.57591E+07-2.02577E+07 1.80684E+06 1.22825E+07-1.00831E+07 3.07137E+07
 -1       555-2.35399E+07 1.25766E+06-3.56987E+06-1.21470E+06-5.52005E+06 1.15140E+06
 -1       556-6.92433E+06 2.00692E+07 4.59850E+05 3.65521E+06-5.68890E+06-9.50436E+06
 -1       557-4.12372E+06 1.50175E+07-2.21016E+07 1.53697E+07 3.02865E+06-3.18883E+07
 -1       558-9.65945E+07-5.56077E+07 1.72017E+07-4.84874E+07-8.99339E+06-2.42304E+07
 -1       559-4.21578E+08-4.21020E+08-1.09823E+08-2.15889E+08-1.53034E+08-1.81290E+08
 -1       560-2.33264E+08-2.95203E+08-7.99295E+07-9.29015E+07-6.85503E+06-2.74876E+07
 -1       561 3.69605E+08-3.75637E+07 2.36532E+07-1.82139E+07-1.39152E+07-4.94644E+07
 -1       562 4.48767E+08 3.86833E+07 3.11509E+07-4.84087E+07 1.21364E+07 1.77649E+06
 -1       563 3.12031E+08 2.62574E+06-5.32484E+07-2.61110E+07-2.13607E+06 3.11016E+07
 -1       564 2.19817E+08 1.34630E+07 3.60448E+07 3.43293E+07-8.69252E+06-5.32960E+06
 -1       565-1.48717E+07-2.51808E+07 7.15901E+07 8.31388E+07-4.37665E+05 7.35131E+07
 -1       566-3.73502E+08-1.46639E+08-1.04237E+08 4.83964E+07 1.17240E+07-1.17258E+07
 -1       567-5.01538E+08-1.95042E+08-1.95043E+08 6.97658E+06 9.57077E+00 9.80953E+07
 -1       568-2.91374E+09-1.13312E+09-1.13312E+09-3.99068E+07 5.41897E+02-5.36351E+08
 -1       569-7.70327E+07-1.20858E+08 3.36559E+08-7.18355E+08 3.70455E+07-5.01891E+08
 -1       570 1.73806E+09-1.16713E+08-3.15178E+08 6.70407E+07 1.14469E+06-1.10114E+08
 -1       571 1.16477E+09 7.46566E+07 2.05049E+07-3.05139E+08-1.24056E+08 5.10568E+08
 -1       572-1.51280E+09-1.59778E+09-4.19213E+08 5.59951E+08-1.56137E+08 1.78005E+08
 -1       573-2.49732E+08-3.72926E+08-7.88543E+07-8.95856E+07-3.60139E+07-4.63477E+07
 -1       574 2.76535E+08-1.57874E+07 1.61078E+06 3.82929E+07-2.24824E+07-9.55691E+07
 -1       575 3.79653E+08-1.48429E+07-6.41909E+07-4.71355E+07-1.95222E+06 2.47932E+07
 -1       576-1.68248E+07-1.79835E+07 7.10361E+07 1.10275E+08 7.27584E+06 1.05816E+08
 -1       577-6.10365E+08-2.37364E+08-2.37364E+08 5.28262E+06 4.43034E+01 1.08248E+08
 -1       578-3.70758E+09-1.44184E+09-1.44184E+09-1.96900E+07-6.94844E+02-8.38477E+08
 -1       579-2.69694E+09-9.76425E+08-8.21412E+08-4.59323E+08-1.57792E+08 1.30871E+07
 -1       580-6.17735E+07-1.78280E+07 3.91971E+08-8.41836E+08-4.31095E+07-7.78536E+08
 -1       581 2.20878E+09 3.78086E+08 4.66699E+08-4.86834E+08 2.23173E+07-6.02008E+07
 -1       582 2.14360E+09 1.92835E+08-2.75304E+08 3.92162E+08-7.97726E+07-8.19729E+07
 -1       583 1.70892E+09 6.38613E+08-1.11874E+07 2.32799E+08-8.61081E+07 1.61542E+07
 -1       584 6.90340E+08 6.23368E+08-3.96546E+07-9.29136E+07-4.31122E+05-1.59028E+07
 -1       585 1.88732E+08 1.00978E+09 2.20808E+07-2.85602E+08-4.68419E+08 1.83790E+08
 -1       586-1.52042E+06 1.22979E+09 1.24404E+08-1.30728E+08-1.89214E+08 1.31283E+08
 -1       587-4.87545E+08 8.32569E+08-2.57824E+07 4.36893E+08-2.22484E+08-8.50474E+07
 -1       588-2.83513E+08 3.22034E+08-1.44787E+07 4.91806E+08-8.19665E+07-1.90913E+08
 -1       589-6.89360E+07 2.06210E+07 2.53132E+06-4.43635E+07-1.51506E+07 2.59496E+07
 -1       590-1.07239E+08 9.27675E+07-3.23306E+06-2.46108E+07-2.35370E+07 2.31160E+06
 -1       591 5.59783E+06 1.30102E+08 2.35744E+07 6.84530E+07-3.08853E+07-3.20709E+07
 -1       592 6.11641E+07 1.17390E+08 6.04494E+06 7.24609E+07-8.35724E+07-3.41381E+07
 -1       593 1.63492E+08 7.39527E+07-6.99424E+06 1.88434E+07 3.67776E+06-3.21942E+05
 -1       594 3.64434E+08 1.01805E+08-1.85385E+06-5.78948E+07-1.33971E+07-2.40570E+06
 -1       595 4.51919E+08 3.52394E+07-5.49187E+07-1.01136E+08-1.44807E+07 1.75320E+07
 -1       596 4.58462E+08 8.27270E+07 9.52514E+07 6.72932E+07 6.08182E+06 3.02321E+06
 -1       597-9.69612E+06 1.43022E+06 7.64456E+07 1.35089E+08-6.44629E+06 1.50431E+08
 -1       598-5.38888E+08-1.93461E+08-1.65678E+08 7.13234E+07-3.18421E+07-7.12275E+06
 -1       599-7.31717E+08-2.84557E+08-2.84557E+08 4.82700E+05-9.02276E+01 1.53802E+08
 -1       600 9.78352E+08 3.67001E+08-6.60859E+07 1.05345E+09-3.73263E+08-1.55829E+08
 -1       601 6.83687E+08 1.55488E+09-1.47130E+07 1.83955E+08-3.17536E+07 7.87774E+07
 -1       602 1.72010E+08 1.68435E+09 1.49232E+08-9.56962E+07 8.59945E+05-5.61260E+07
 -1       603-1.34384E+08 6.44048E+08 3.27900E+07 1.25070E+08 1.29689E+08-1.20575E+08
 -1       604-4.42138E+07 5.67407E+07 4.23463E+06 1.78896E+07 9.60348E+06 2.62345E+07
 -1       605 1.70180E+07 2.24339E+08 2.57785E+07 6.55341E+07 8.68692E+05 8.27901E+06
 -1       606 1.37822E+08 2.29989E+08-2.06699E+06-1.47187E+07-6.48523E+06-1.68516E+07
 -1       607 2.02859E+08 6.17715E+07-1.72513E+07-2.10412E+08-6.99630E+07 3.35035E+07
 -1       608 9.65206E+07 1.16327E+08 1.03530E+08 1.36077E+09-2.22748E+08 1.89660E+08
 -1       609 3.61312E+08 8.89246E+08-6.56416E+07 9.88381E+08 1.52491E+08 3.85305E+08
 -1       610 2.43764E+08 1.95764E+09-2.59139E+08 3.05272E+08 9.45151E+07 7.49209E+07
 -1       611-8.28213E+07 1.55034E+09-2.87655E+08-4.10386E+07 7.67423E+07-1.62206E+07
 -1       612-8.51400E+07 1.17177E+09-2.17332E+08-2.41700E+08 1.01410E+08 5.32182E+07
 -1       613-1.28411E+08 9.51270E+08-1.27677E+08-2.00798E+08 6.78565E+07-1.79051E+07
 -1       614-2.22626E+08 7.65560E+08-4.25458E+07-1.52500E+08-2.63704E+07-1.10751E+07
 -1       615-4.54635E+07 8.85560E+07-2.53950E+06 7.31831E+07-1.78109E+07 3.38471E+06
 -1       616-3.34483E+07 1.24852E+08-1.63001E+07 8.04304E+07 2.67466E+06-2.59211E+06
 -1       617-2.79935E+07 1.64343E+08-3.10032E+07 8.81357E+07 1.24832E+07-9.58654E+06
 -1       618-2.13756E+07 2.23103E+08-4.64218E+07 4.48044E+07 9.55402E+06 5.22446E+06
 -1       619 4.27548E+07 2.94033E+08-4.23288E+07-2.35383E+07 1.32833E+07-1.33655E+07
 -1       620 6.81780E+07 1.35706E+08-6.91366E+06-1.59938E+08 2.22811E+07-6.77930E+07
 -1       621 1.92661E+07 1.75395E+07 1.89322E+07-2.47315E+08-4.12656E+07-3.45749E+07
 -1       622 3.82139E+08 2.05781E+09 4.49203E+08-5.47549E+08 7.83686E+07-2.13974E+07
 -1       623-3.87834E+07 8.80349E+08 1.16294E+08-4.68831E+08 1.41267E+07 4.91630E+07
 -1       624-1.88580E+08 4.04027E+08 6.32496E+07-2.69131E+08-1.34319E+08 4.99110E+07
 -1       625-4.24238E+07 8.24980E+07 8.70569E+06 9.01276E+07-3.26845E+07-6.32797E+06
 -1       626-1.99217E+07 1.32188E+08 1.59724E+07 1.17109E+08 5.18300E+05-1.03849E+07
 -1       627 5.52869E+07 3.20654E+08 7.13804E+07 1.19997E+08 2.38367E+07 2.34110E+06
 -1       628-1.67382E+07-4.89683E+07 3.89170E+08-8.98029E+08 7.60149E+08 4.31590E+07
 -1       629-1.06203E+08-5.39690E+07 3.00385E+08-7.94736E+08 4.54409E+08-3.63485E+07
 -1       630-1.47663E+08 1.43762E+07 2.45578E+08-6.75096E+08 2.44001E+08 6.13394E+06
 -1       631-1.28877E+08-2.17857E+07 1.99472E+08-5.53980E+08 2.01695E+08 4.53107E+07
 -1       632-2.46575E+08-2.34392E+08 6.57453E+07-4.37644E+08 7.57762E+07-4.92307E+06
 -1       633-3.15989E+08-2.37994E+08-1.47395E+07-2.69805E+08 7.06688E+07 4.24585E+07
 -1       634-1.48888E+08-6.31234E+07 2.09723E+07-1.07795E+08-1.70916E+07 3.14514E+07
 -1       635-5.32845E+07-4.69044E+06 1.70544E+07-5.27856E+07 3.08855E+06 2.28996E+06
 -1       636-4.74051E+07-2.74551E+06-2.78027E+07-1.66803E+07-1.59041E+07 6.02920E+06
 -1       637-6.86115E+07-2.42879E+05-2.13720E+07 1.72131E+07 2.06550E+06 5.91293E+06
 -1       638-6.69502E+07 1.58473E+07-4.73366E+06 8.11384E+07-7.76051E+06 3.74835E+06
 -1       639-4.34979E+07 2.33967E+07 1.82876E+07 1.17810E+08 2.38679E+07-8.79562E+06
 -1       640-3.62733E+07 7.89869E+06 3.03119E+07 1.43479E+08 2.95124E+07-7.32997E+05
 -1       641-2.32687E+07-5.76978E+06 4.54296E+07 1.63575E+08 6.97557E+07 6.09238E+06
 -1       642-7.70199E+06-5.60672E+06 6.51374E+07 1.80591E+08 1.27908E+08-9.83658E+06
 -1       643-9.30582E+08-2.54868E+09-7.70409E+08-5.00884E+08-1.48511E+06 1.36872E+08
 -1       644-5.60852E+08-1.36460E+09-3.97678E+08-3.93212E+08-3.46120E+07-5.33066E+07
 -1       645-2.40727E+08-4.97594E+08-1.06522E+08-2.45602E+08 4.27269E+06-3.64169E+07
 -1       646-5.02383E+07-5.22053E+07 1.14834E+07-5.97886E+07 3.73328E+05-3.68751E+07
 -1       647-1.86589E+05 2.49092E+07 4.19835E+04-9.73396E+06 2.45122E+06 4.45559E+05
 -1       648-2.60825E+07 2.50985E+06-1.81282E+06 3.74917E+07 3.77516E+06 7.29406E+06
 -1       649-7.65483E+07-1.71474E+08-5.03179E+07 8.28586E+07-9.91595E+05 6.76788E+06
 -1       650-1.55245E+08-4.16257E+08-1.25589E+08 1.04053E+08 3.14853E+06-2.12852E+07
 -1       651-1.38070E+09-3.55037E+09-1.38070E+09-3.14836E+07 8.43977E+08 7.96605E+02
 -1       652-1.03716E+09-2.66699E+09-1.03716E+09-4.62175E+07 5.10481E+08-6.90713E+02
 -1       653-7.09577E+08-1.82463E+09-7.09577E+08-4.86074E+07 3.79297E+08 3.90780E+02
 -1       654-4.53206E+08-1.16539E+09-4.53206E+08-3.55007E+07 1.57891E+08-6.43251E+02
 -1       655-2.26714E+08-5.82981E+08-2.26715E+08-2.70558E+07 1.22081E+08 4.40951E+02
 -1       656-1.06934E+08-2.74976E+08-1.06935E+08-1.21476E+07-2.51275E+07-1.82820E+02
 -1       657-2.75426E+07-7.08248E+07-2.75430E+07-5.69944E+06 4.96466E+07-1.01004E+02
 -1       658-9.72180E+05-2.50024E+06-9.72339E+05-2.30065E+06 2.22858E+06 3.73703E+01
 -1       659 1.57038E+07 4.03808E+07 1.57036E+07-1.93229E+06 5.77723E+06-3.57671E+01
 -1       660 1.30764E+07 3.36246E+07 1.30763E+07-2.20664E+06-1.46648E+07-1.31966E+01
 -1       661 2.50220E+06 6.43401E+06 2.50211E+06 2.61374E+06 1.83874E+07-1.25045E+02
 -1       662-3.85232E+07-9.90601E+07-3.85234E+07 6.57505E+06 7.71769E+06 1.50381E+02
 -1       663-8.71981E+07-2.24224E+08-8.71982E+07 9.44242E+06 5.23613E+07-1.13026E+02
 -1       664-1.57460E+08-4.04897E+08-1.57460E+08 1.03695E+07 8.23475E+07 1.75292E+02
 -1       665-2.30130E+08-5.91764E+08-2.30130E+08 9.34294E+06 1.53550E+08-1.74426E+02
 -1       666 4.40837E-05 1.12767E-04 4.46062E-05 1.32080E-05 5.00260E+07 9.89123E-01
 -1       667 1.62271E-05 4.16155E-05 1.63355E-05-2.29903E-06 1.94297E+07 4.72817E+01
 -1       668 3.22470E-06 7.80320E-06 3.70637E-06-2.32429E-06 6.44724E+06 2.22780E+00
 -1       669-1.76323E-06-3.80934E-06-2.51853E-06 1.53627E-06 2.59486E+07-1.41234E+02
 -1       670 1.81794E-06 5.23403E-06 1.29634E-06 5.04684E-06 3.33854E+07-2.13278E+02
 -1       671-4.38280E-06 6.02379E-06-2.16905E-05 6.56024E-06 1.42533E+08-4.62245E+02
 -1       672-8.61660E-06-1.30385E-06-2.99327E-05 7.45058E-07 3.29423E+08-5.42878E+02
 -1       673 4.30867E-05 9.76920E-05 5.54174E-05-1.39326E-05 6.84141E+08 7.73254E+01
 -1       674-4.03821E-06 9.08740E-05-1.26536E-05-3.10724E-06 4.09673E+07-7.02776E+05
 -1       675-9.62138E-06 3.39892E-05-2.63155E-05 2.43570E-07 1.01867E+07-2.52587E+06
 -1       676 3.06210E-06 1.36062E-05 1.21951E-05 1.07811E-05-1.57224E+06 9.00380E+05
 -1       677-1.54487E-05-1.76173E-05-1.10277E-05 9.94563E-06-4.22730E+06 6.31446E+06
 -1       678-2.42957E-05-1.95143E-05-4.96617E-05-1.14463E-05-3.30059E+07 8.88715E+06
 -1       679-1.44145E-05-2.33036E-05-3.67605E-05 3.14205E-06 1.10208E+08-2.49891E+07
 -1       680-2.50782E-05 1.23866E-06-8.07609E-05 1.02236E-05 2.30529E+08 5.95922E+06
 -1       681 7.92202E-05 1.23769E-04 2.59554E-04 1.71140E-05 6.29874E+08 3.93974E+07
 -1       682 3.71188E-05 3.16594E-05 1.41038E-04 2.85615E-06-1.25449E+07-1.82025E+07
 -1       683-3.18484E-05 2.14769E-05-1.50067E-05 2.35720E-05 2.82434E+06-8.96415E+06
 -1       684-1.68711E-05 8.94988E-05-1.15389E-05-8.61908E-06-3.68733E+06-1.21715E+06
 -1       685-2.54496E-05-2.95640E-06 2.37220E-05 9.93002E-06 6.35157E+06 1.05984E+07
 -1       686-4.68362E-06-3.93216E-06-2.61050E-05-5.24626E-07 8.28148E+06 7.50032E+06
 -1       687-5.16549E-05-3.33749E-05-1.11425E-04 1.48406E-05 3.47814E+07-6.95144E+07
 -1       688 9.21388E-07-6.20633E-06 4.38460E-05-2.46118E-06-7.98956E+06-2.09734E+07
 -1       689-8.06362E-05-3.95291E-05-1.79196E-04 1.51759E-05 1.13989E+08 4.11225E+07
 -1       690-2.24125E-04-1.72285E-04-5.42879E-04-2.25889E-05 7.63892E+07 4.93087E+07
 -1       691 1.36256E-04 1.15797E-04 4.70039E-04-3.76403E-05-1.81955E+08 2.38496E+08
 -1       692 7.69738E-05 3.01716E-05 3.07178E-05 8.88528E-06-1.90643E+01 5.09447E+07
 -1       693 4.92679E-05-2.52908E-06-2.69809E-05-1.10804E-06-1.57315E+06 5.18526E+07
 -1       694 2.11146E-05-3.61515E-05 1.04685E-05-1.97186E-06-2.74397E+06 1.05368E+07
 -1       695 3.87512E-05 1.69125E-05-3.05338E-05 1.67631E-05 8.69404E+06-2.12198E+04
 -1       696 3.68990E-06 2.23467E-04 6.52159E-06 7.99634E-06-3.32743E+07-2.09752E+07
 -1       697-1.22786E-05-5.70416E-05-1.18004E-04-1.18725E-05-9.68588E+07-1.85751E+08
 -1       698-5.51548E-05 1.37399E-04-1.70951E-04 3.58764E-05-2.05579E+08 1.45722E+08
 -1       699 2.09678E-05-2.83158E-05-2.35509E-04-6.61737E-05 5.16810E+07-1.03770E+07
 -1       700 1.60336E-04 1.28499E-04 2.64988E-04-1.63025E-05-1.06225E+08-7.85586E+07
 -1       701 2.78428E-05 3.76087E-05 5.68740E-05 1.40080E-05 7.46220E+05-6.46792E+08
 -1       702-1.51277E-04-1.60366E-04-4.24847E-04-5.15208E-06-1.15042E+02-6.79068E+08
 -1       703 1.52541E-05 5.47734E-06 4.24606E-06 1.32318E-06 3.48925E+01 2.99451E+07
 -1       704 9.92024E-06-9.28917E-06-2.60298E-05 3.97387E-06 2.05810E+06 2.25586E+07
 -1       705 2.77143E-05 7.21983E-06 4.50740E-05 7.13876E-06-1.49572E+06 1.36326E+07
 -1       706-3.68183E-05-4.23386E-05-6.36080E-06-1.79497E-05-8.39982E+06-8.07481E+06
 -1       707 6.91916E-05 2.98678E-04 2.68760E-05 1.25551E-04-4.27599E+07-3.98402E+07
 -1       708-9.97208E-06-2.50993E-05-2.17335E-06-1.69215E-05 5.13348E+06-2.26246E+07
 -1       709 6.17203E-05 6.47948E-05 2.25447E-04-1.74773E-06-3.38102E+06-5.00306E+06
 -1       710-9.25385E-07 8.87143E-07 9.75327E-05 6.96591E-06 3.68413E+07-7.58879E+05
 -1       711-6.05476E-05-9.29891E-05-1.67553E-04 1.64588E-05 1.17104E+07 1.35532E+08
 -1       712 1.10667E-04 4.89709E-04-1.70448E-04-2.40825E-04-6.10889E+08 5.04354E+08
 -1       713-1.04517E-04-1.64009E-04-3.24054E-04 5.20451E-05-2.40068E+08 2.33829E+08
 -1       714 1.62912E-04 1.91885E-04 4.16088E-04 9.43616E-06-1.87104E+07-6.44904E+07
 -1       715-3.62759E-05-3.73437E-05-1.39096E-04-2.02809E-05-7.22059E+06-1.96190E+08
 -1       716-1.04651E-04-9.39425E-05-2.31270E-04-2.50433E-06 5.78056E+02-3.05843E+08
 -1       717-6.24612E-06-2.46605E-06-2.52113E-06 4.10783E-06 1.34262E+02 5.65880E+06
 -1       718-4.95720E-06-2.63289E-06 1.19555E-05 1.37723E-05-2.52273E+02 1.40874E+07
 -1       719-3.12761E-05-2.73172E-05 4.20634E-06 2.25928E-05-1.86317E+06-4.34585E+06
 -1       720-2.61664E-05-2.10237E-05-7.23217E-05-8.26456E-06 9.84575E+06-3.60341E+06
 -1       721-8.75822E-06 3.51168E-05 8.15280E-06-6.42549E-06-3.95328E+06-1.78899E+06
 -1       722 3.89734E-06 2.07165E-06-4.76517E-05 1.60858E-05 4.19943E+06-1.24557E+07
 -1       723 4.40228E-06 7.39299E-06 9.96260E-06 4.87787E-07 5.11387E+06-8.72579E+06
 -1       724-7.71054E-06-1.40406E-06-4.85038E-05-1.24006E-05 1.16514E+07-2.05522E+07
 -1       725 5.21010E-05 5.05270E-05-4.30801E-06-2.73385E-05-8.96791E+07 7.71389E+07
 -1       726 3.70456E-05 1.08288E-04 2.25958E-04 2.04355E-05-1.38071E+08-7.08975E+06
 -1       727 8.31932E-05 9.42443E-05 1.88245E-04 1.10455E-05 1.33723E+08-1.75375E+08
 -1       728-2.97635E-05-2.85503E-05-1.71210E-05-1.55556E-05-1.25998E+07 1.67062E+07
 -1       729-4.20148E-05-3.27709E-05-7.53358E-05-6.21611E-06 4.21647E+02-6.18924E+07
 -1       730-1.94422E-05-8.61986E-06-1.13815E-05 1.36718E-06 1.56803E+02-6.03944E+07
 -1       731-2.82858E-05-3.04889E-05-4.18866E-06 1.64687E-05-1.10681E+07-2.66594E+06
 -1       732 2.53003E-05 2.48654E-05 4.74700E-05-6.16128E-06-3.04303E+06 4.50823E+06
 -1       733-1.70385E-05-1.61428E-05-6.55522E-05-1.97050E-06-1.28872E+07 1.19704E+07
 -1       734 4.91575E-05 4.59337E-05 1.51723E-04 5.06437E-06 1.35194E+07 2.33139E+06
 -1       735 1.77976E-05 1.38746E-06 3.89705E-05 4.20545E-06 1.60053E+07-1.04337E+07
 -1       736 4.04356E-05 2.30836E-05 9.33508E-05-6.13527E-06 1.76164E+07-1.43984E+07
 -1       737 9.63637E-05 9.23852E-05 2.88635E-04-1.03283E-05 2.61594E+07-1.08276E+07
 -1       738 5.59988E-05 3.01641E-05 7.60867E-05-5.13889E-06 9.73289E+06-3.03621E+07
 -1       739-7.49342E-06-2.17906E-05-8.21194E-06 1.46567E-07-3.99395E+07 1.01286E+07
 -1       740-9.82545E-06-7.53021E-06-1.69072E-05-4.58932E-06 2.18024E+02-3.99514E+07
 -1       741-1.15540E-05-4.07360E-06-3.33088E-06 1.30571E-06 2.82626E+02-3.39987E+07
 -1       742-1.92399E-05-1.38545E-05-1.03189E-05-2.57293E-06-1.62346E+07 1.44637E+07
 -1       743 7.39098E-06 7.70008E-05 9.01851E-05 4.39584E-06 6.62439E+07-7.40402E+07
 -1       744-7.41241E-05-8.42731E-05-2.65918E-04-9.18459E-07-1.97002E+07-4.45214E+07
 -1       745 2.97520E-05 4.48151E-05 1.31664E-04 1.45901E-05 2.49130E+07-7.70697E+06
 -1       746-1.82072E-05-2.01970E-05-7.56862E-05 3.22445E-06 1.69698E+07-1.28791E+07
 -1       747-1.32451E-05-9.04649E-07-3.57942E-05-3.95843E-06 1.49413E+07-1.20168E+07
 -1       748-8.11595E-06-4.77335E-06-1.68313E-05-1.26131E-05 1.46404E+07-3.41547E+06
 -1       749-6.96106E-05-6.61602E-05-2.05869E-04-8.65281E-06 1.32298E+06 1.41223E+07
 -1       750-4.63566E-06-1.48900E-05-2.21208E-05 7.92602E-06 5.30747E+06 2.72468E+07
 -1       751-4.38653E-07-1.02893E-05-1.35778E-05-5.27323E-07-1.02603E+07 1.55208E+07
 -1       752 1.69370E-05 1.45808E-05 3.52133E-05-8.07631E-07 1.78853E+02-3.06266E+06
 -1       753-6.16163E-06-1.36532E-06 1.11014E-06-7.12089E-06 6.32348E+02-2.02171E+08
 -1       754 1.66316E-05-6.69854E-06-2.23225E-05-5.74160E-06 3.11434E+07-1.77572E+08
 -1       755 1.03459E-04 1.41132E-04 3.26831E-04 2.02718E-06 2.20143E+07-4.51305E+06
 -1       756 1.81109E-04 2.77050E-04 5.76965E-04-1.13100E-05 2.45565E+08 1.13183E+08
 -1       757-9.72743E-06-8.54605E-05 3.12928E-05-1.15652E-05-1.94965E+08-1.59754E+07
 -1       758-1.49454E-05 2.41786E-06 7.64576E-05 2.08064E-05-1.04228E+08 1.21100E+08
 -1       759-6.76417E-05-7.68152E-05-2.99565E-04 7.42509E-06 7.99166E+06-2.43083E+07
 -1       760-1.19778E-05 8.20370E-06 6.22334E-05-5.61903E-06 1.09570E+06-6.38059E+06
 -1       761 1.79780E-05 1.38140E-05 8.75039E-05-2.11120E-05-1.01611E+07-3.48197E+07
 -1       762-1.61338E-05-7.33177E-05-6.07865E-05 3.46874E-06-2.08691E+07-5.54005E+05
 -1       763 5.30891E-05 6.24498E-05 1.61982E-04 1.46497E-06 5.07201E+07-2.33018E+07
 -1       764 4.16279E-05 3.89602E-05 6.26968E-05-1.56673E-05 4.90231E+06 5.28338E+06
 -1       765-1.69622E-05-3.96450E-05-1.04267E-04-1.11797E-06 6.93836E+06 4.90779E+07
 -1       766 2.03513E-05 2.20640E-05 5.84852E-05 5.91401E-06 1.44432E+02 5.21014E+07
 -1       767 6.36280E-06 2.27988E-05 7.45561E-05-9.44361E-06 5.64719E+02-4.40050E+08
 -1       768-3.87989E-05-3.33251E-05-1.05936E-04 8.95793E-06-2.69496E+06-3.18788E+08
 -1       769-1.72075E-04-1.55944E-04-4.51934E-04-1.53420E-05-4.51831E+07-1.34408E+08
 -1       770 1.93771E-05 1.43856E-04 1.54412E-04-3.82052E-05-1.14729E+08 2.54402E+08
 -1       771-4.49709E-04-6.42173E-04-4.00213E-04 2.62831E-04-7.41491E+08 8.10924E+08
 -1       772 1.68921E-04 2.11393E-04 4.99290E-04-2.44073E-05 1.32557E+07 2.02861E+08
 -1       773 8.42926E-05 4.32659E-05 2.26309E-04-1.03526E-05 3.44302E+07 8.92474E+06
 -1       774 1.67142E-05 7.15276E-06-2.04421E-05 5.29497E-06-3.09591E+06 1.39445E+07
 -1       775 2.66908E-05 2.08949E-05-1.72397E-05 1.44688E-05 3.96411E+06-4.42280E+07
 -1       776-1.63803E-05-4.24126E-04 1.42879E-05-1.57076E-04-1.26640E+08-1.57702E+08
 -1       777 1.08498E-04 1.05364E-04 7.31308E-05 1.09930E-05-1.41104E+07-5.18178E+07
 -1       778-2.33753E-05-5.21101E-05-9.45073E-05 7.80914E-07-3.08001E+06 3.23836E+07
 -1       779-5.29075E-05-6.54729E-05-1.43706E-04 1.09136E-05-2.88173E+05 7.47060E+07
 -1       780 1.91554E-05 2.93162E-05 8.55681E-05 9.14210E-06 6.30721E+01 9.67029E+07
 -1       781 1.95801E-05 1.17421E-05 2.19345E-05-8.06898E-06-2.50016E+02-8.31515E+08
 -1       782-1.25170E-06 1.53892E-05 1.38122E-04-1.53501E-05-4.23593E+07-7.86380E+08
 -1       783-2.34788E-04-1.66764E-04-6.80353E-04 2.80454E-05-7.79108E+07-8.36583E+07
 -1       784-7.33742E-06 5.29964E-05 2.58011E-04 8.74856E-05-5.74390E+06-9.91522E+06
 -1       785-1.23062E-04-3.75985E-04-6.28041E-04 6.83777E-06-2.00153E+08 1.34492E+08
 -1       786-1.44640E-04-1.69396E-04-5.53112E-04-1.28448E-05-8.48215E+07-1.87643E+08
 -1       787-1.52825E-05 2.35680E-05-2.69354E-05-2.26190E-05-1.56678E+07 2.54363E+07
 -1       788-4.86470E-05-2.31528E-04-2.15820E-05 3.10281E-05-3.27360E+07-3.29069E+07
 -1       789-8.38775E-05-3.77803E-06-3.62842E-06-4.06886E-05 3.10970E+06-1.81343E+06
 -1       790-6.57172E-05-3.56917E-05-3.08242E-05 3.84512E-06-1.39195E+07 1.77256E+07
 -1       791-7.17342E-05-5.78221E-05-1.14974E-04 6.91507E-08-6.51462E+06 1.52045E+08
 -1       792 3.54648E-05 2.29776E-05 4.67002E-05 3.37511E-06-1.12390E+02 1.52478E+08
 -1       793-6.36719E-04-5.80937E-04-1.98176E-03-6.99088E-05-2.06353E+08 1.74174E+08
 -1       794 2.95912E-04 2.16017E-04 8.22943E-04 3.52307E-05 9.64656E+07 7.37355E+07
 -1       795 9.22838E-05 1.03096E-04 3.33475E-04-3.34578E-05 1.05644E+08 5.89546E+07
 -1       796 3.63691E-05 2.12770E-05 1.45264E-04 5.47431E-06-2.44688E+07-5.56714E+06
 -1       797 8.16278E-06-3.06778E-06 5.93329E-05 1.84258E-05-1.78657E+07 2.46544E+06
 -1       798 4.67254E-05-4.51775E-05 4.65652E-05 1.82496E-06 1.29271E+07-1.06145E+07
 -1       799 5.54381E-05 1.28554E-06-1.90033E-05-2.68845E-05 1.37282E+07-1.33079E+07
 -1       800-1.30199E-05-4.78458E-05-7.92143E-05-1.77175E-05-3.78978E+07-3.21285E+07
 -1       801 1.18557E-05 6.91414E-06-1.28549E-04 1.32564E-05 7.67537E+08 4.10595E+07
 -1       802-1.12024E-05-1.18995E-05-2.85860E-05-1.11801E-05 2.48403E+08 4.38922E+06
 -1       803-7.98997E-06 1.06913E-05 2.84075E-05-4.92584E-06 7.57467E+07-6.52416E+06
 -1       804-1.01322E-06-4.00236E-06-1.18720E-05 1.47513E-06-1.84446E+07 2.96472E+07
 -1       805 1.00677E-05 4.38432E-06 7.55012E-06-1.30731E-06-1.56724E+07 5.43327E+06
 -1       806 2.08756E-05-5.57645E-06 1.61873E-05-5.25025E-06-7.73210E+06 4.20162E+06
 -1       807 5.52912E-06-3.94578E-05 6.55768E-06-1.72713E-05 3.00963E+07-2.33622E+05
 -1       808-2.04705E-05-8.51564E-05-5.51669E-05 1.97906E-06 1.29061E+08-9.32106E+06
 -1       809 4.97177E-05 1.54078E-05 1.59167E-04-3.40678E-06 8.37127E+08-8.50888E+01
 -1       810-2.94950E-05-5.10812E-05-5.43706E-05 6.70645E-06 3.74541E+08-6.42901E+02
 -1       811-1.41696E-05-1.13407E-05-3.92091E-05-4.93135E-07 1.18708E+08-4.17084E+02
 -1       812-5.20964E-06-8.98400E-06-9.73395E-06-7.51141E-07 4.82936E+07-3.96294E+02
 -1       813-1.42623E-06-4.25638E-06-6.98259E-07-1.72184E-06 6.00897E+06 4.12480E+01
 -1       814 1.09637E-06-5.34183E-06 9.45607E-06 7.65896E-07 1.82262E+07 7.90466E+01
 -1       815-7.97771E-06-3.32259E-05 4.90621E-06-3.10596E-06 5.17183E+07 1.14335E+02
 -1       816-7.53105E-05-1.46016E-04-1.23262E-04-1.69752E-05 1.52392E+08 8.63230E+01
 -1       817-7.57194E+07-1.94707E+08-7.57195E+07 3.03299E+06 5.04295E+07-6.41984E+01
 -1       818-5.28754E+07-1.35965E+08-5.28755E+07 3.44481E+06 2.57860E+07 5.09544E+01
 -1       819-3.32185E+07-8.54190E+07-3.32185E+07 3.18729E+06 1.97562E+07-2.31430E+01
 -1       820-2.05992E+07-5.29694E+07-2.05992E+07 1.21490E+06 1.50944E+06 4.24206E+01
 -1       821-1.25648E+07-3.23095E+07-1.25649E+07-1.06083E+06 6.62512E+06-2.96839E+01
 -1       822-1.40764E+07-3.61965E+07-1.40764E+07-6.12665E+05 6.65675E+06 1.72958E+01
 -1       823-1.84484E+07-4.74392E+07-1.84487E+07-8.59865E+05 2.63307E+07-6.27116E+01
 -1       824-4.09802E+07-1.05378E+08-4.09805E+07-3.45556E+06-1.35408E+07-6.21790E+01
 -1       825-8.10085E+07-2.08308E+08-8.10088E+07-8.25162E+06 3.52084E+07 1.56916E+02
 -1       826-1.67313E+08-4.30234E+08-1.67313E+08-1.24842E+07 3.88390E+07-3.28814E+02
 -1       827-2.72636E+08-7.01065E+08-2.72637E+08-1.62891E+07 1.44745E+08 3.67168E+02
 -1       828-4.29532E+08-1.10451E+09-4.29533E+08-2.24928E+07 1.57243E+08-4.31193E+02
 -1       829-6.13588E+08-1.57780E+09-6.13588E+08-3.80208E+07 3.33999E+08 2.71266E+02
 -1       830-8.69120E+08-2.23488E+09-8.69120E+08-3.69331E+07 4.21981E+08-5.62338E+02
 -1       831-1.14084E+09-2.93358E+09-1.14084E+09-2.20624E+07 6.89585E+08 6.41968E+02
 -1       832-5.35025E+07-1.39661E+08-4.20857E+07 3.42878E+07-8.76935E+05-8.37951E+06
 -1       833-2.96797E+07-6.55481E+07-1.69585E+07 2.17043E+07-2.55722E+06 1.91639E+06
 -1       834-1.70654E+07-3.12687E+07-8.24942E+06 4.71251E+06 1.34235E+06-1.09093E+06
 -1       835-2.58576E+07-3.24382E+07-4.98049E+06-1.30991E+07-8.91806E+05-1.16276E+07
 -1       836-9.46014E+07-1.90471E+08-2.56877E+07-8.92416E+07 6.26045E+05-1.33781E+07
 -1       837-2.25821E+08-5.49695E+08-1.51390E+08-1.73867E+08-6.60278E+06-3.12672E+07
 -1       838-4.93369E+08-1.17749E+09-3.31741E+08-2.97762E+08-3.07860E+07-4.40513E+07
 -1       839-7.68737E+08-2.11711E+09-6.46055E+08-4.01113E+08-2.06078E+06 1.24837E+08
 -1       840-1.00199E+07-4.68184E+06 1.98836E+07 6.08276E+07 4.06085E+07-7.80006E+05
 -1       841-1.39816E+07-3.51336E+06 1.68067E+07 4.94109E+07 2.47977E+07 2.40667E+05
 -1       842-1.49620E+07 2.53931E+06 1.59322E+07 3.68858E+07 1.00096E+07-2.63901E+06
 -1       843-2.05093E+07-6.71990E+06 7.36523E+06 2.17636E+07 9.91422E+06 2.85384E+06
 -1       844-2.44630E+07-1.58470E+07-7.18464E+05 8.71584E+06-1.48606E+06 9.27913E+05
 -1       845-2.21689E+07-1.14930E+07 7.20120E+06 1.02027E+06 5.03115E+06-3.27579E+06
 -1       846-4.97960E+07-1.84740E+07 3.56920E+06-1.58939E+07-4.14901E+06 6.93114E+06
 -1       847-1.25417E+08-9.72099E+07 3.13950E+06-9.62976E+07 2.63780E+07 1.74373E+07
 -1       848-1.48205E+08-1.59717E+08 2.20474E+07-1.78328E+08-3.21498E+07 9.62912E+06
 -1       849-1.25248E+08-1.16829E+08 5.21059E+07-2.30512E+08 7.55012E+07-4.84320E+06
 -1       850-1.04529E+08-7.87626E+07 8.01876E+07-2.88528E+08 1.09058E+08-2.36079E+07
 -1       851-1.08292E+08-1.02112E+07 1.68674E+08-4.01517E+08 1.66913E+08 3.00668E+07
 -1       852-1.51800E+08 1.32548E+06 2.30067E+08-5.18701E+08 2.26697E+08 7.58010E+06
 -1       853-1.04087E+08-4.79471E+07 2.55512E+08-6.28821E+08 3.85973E+08-3.16151E+07
 -1       854-1.74631E+07-4.23264E+07 3.07222E+08-7.25351E+08 6.23892E+08 4.02688E+07
 -1       855 7.24788E+06 1.06206E+08 2.25147E+07 4.28036E+07 1.24241E+07-5.81356E+06
 -1       856-2.90553E+07 4.83656E+07 4.62460E+06 2.34461E+07 4.04614E+06-1.19581E+06
 -1       857-2.29452E+07 2.07537E+06 4.56374E+06-2.00516E+06 4.65159E+05 2.28650E+06
 -1       858-1.30295E+07 1.04774E+06 3.62403E+06 2.47815E+06-3.53951E+06 1.87882E+06
 -1       859-1.08037E+08-1.25676E+08 1.08611E+07-6.44268E+07 1.87289E+07-3.57158E+07
 -1       860-1.42884E+08 3.36890E+08 5.19710E+07-1.16792E+08-3.96148E+07 2.14373E+07
 -1       861-5.65733E+07 7.66225E+08 1.07801E+08-3.56399E+08 4.95352E+06 3.98945E+07
 -1       862 2.83856E+08 1.71768E+09 3.68017E+08-4.43523E+08 6.45477E+07-2.03537E+07
 -1       863 1.41177E+07 3.93220E+06 7.63959E+06-8.29766E+07-1.36769E+07-1.89619E+07
 -1       864 2.82793E+07 4.71604E+07 1.16359E+06-5.80108E+07 8.05398E+06-1.89758E+07
 -1       865-7.84298E+05 9.56088E+07-1.59539E+07-9.28789E+06 2.58387E+06-8.97538E+06
 -1       866-3.63479E+07 8.09579E+07-1.92492E+07 1.74826E+07 5.32829E+06 1.40622E+06
 -1       867-4.88508E+07 7.16673E+07-1.45865E+07 1.95281E+07-4.07368E+06-7.99995E+05
 -1       868-5.25905E+07 1.49955E+07-1.58910E+07-1.04049E+07-1.58677E+06 4.86992E+06
 -1       869-2.50044E+07 3.09928E+06 4.11283E+06-1.23484E+07 6.34607E+06 1.07015E+07
 -1       870-1.26437E+07-4.34553E+06-3.99731E+06-5.25482E+06-2.91766E+06-6.45785E+06
 -1       871-7.17734E+06-2.23512E+06-1.13624E+07 2.47073E+06 7.75228E+06 7.18069E+06
 -1       872-1.49064E+08-1.80165E+08-4.78488E+07 1.21145E+08 3.37035E+07-7.25554E+07
 -1       873-1.67612E+08 1.08890E+08-6.23800E+07 1.14431E+08 1.08917E+07-1.14162E+06
 -1       874-2.77453E+08 6.10601E+08-4.29295E+07 1.22171E+07-1.07063E+07-2.55553E+07
 -1       875-2.27164E+08 8.25759E+08-1.27500E+08-8.56069E+07 5.71399E+07-3.15047E+07
 -1       876-1.03616E+08 1.03714E+09-1.92617E+08-1.49060E+08 1.10501E+08 3.62993E+07
 -1       877-9.39860E+07 1.35024E+09-2.29646E+08-1.83682E+07 6.86348E+07 2.38417E+06
 -1       878 1.28290E+08 1.66092E+09-2.07811E+08 2.61973E+08 7.41270E+07 5.06836E+07
 -1       879 2.74184E+08 7.50663E+08-4.44124E+07 8.36331E+08 1.41561E+08 3.00225E+08
 -1       880 1.23347E+08 1.12743E+08 1.12154E+08 1.10538E+09-1.95153E+08 2.51209E+08
 -1       881 6.46325E+07 1.60469E+07-8.42880E+06-6.89122E+07-2.66132E+07 1.48760E+07
 -1       882 5.15060E+07 8.26188E+07 9.69340E+05-5.23440E+06-7.25820E+06-6.87300E+06
 -1       883 4.25650E+07 1.28617E+08 3.29469E+07 6.56964E+07-1.43375E+07-2.09757E+06
 -1       884-1.47233E+08 7.13182E+08 4.81219E+07 1.39723E+08 1.20385E+08-1.20514E+08
 -1       885 4.25461E+07 1.50077E+09 1.34328E+08-4.08486E+07-2.02586E+07-1.42936E+07
 -1       886 5.49397E+08 1.33023E+09-2.49424E+07 1.28681E+08-1.82435E+07 8.33797E+07
 -1       887 7.41202E+08 3.14214E+08-5.02552E+07 8.70767E+08-3.02524E+08-1.60627E+08
 -1       888-2.41049E+08-9.37414E+07-9.37414E+07 6.85097E+05-2.81839E+01 5.13619E+07
 -1       889-1.75296E+08-6.36847E+07-5.45008E+07 2.68614E+07-8.38156E+06-1.31667E+06
 -1       890 6.10545E+05 2.48929E+06 2.56959E+07 4.82246E+07-1.62925E+06 5.13073E+07
 -1       891 1.53599E+08 3.71542E+07 3.35129E+07 2.25470E+07 2.45485E+06 8.80837E+05
 -1       892 1.47955E+08 2.12010E+07-1.72600E+07-3.24135E+07-2.89867E+06 1.04157E+07
 -1       893 1.21564E+08 3.60741E+07-3.50630E+06-1.74241E+07-1.37103E+06-4.19275E+06
 -1       894 7.70742E+07 2.59844E+07-1.81005E+06 8.12656E+06 8.79231E+06 4.47677E+05
 -1       895 5.38055E+07 2.73270E+07 2.88733E+06 4.75233E+07-4.04238E+07-1.35305E+06
 -1       896 4.98632E+07 1.71008E+06 5.44749E+06 8.29702E+07-3.24671E+07-2.06096E+07
 -1       897-2.83226E+08 3.40087E+08-6.85559E+07 4.31326E+08-9.59842E+07-1.86711E+08
 -1       898-4.94132E+08 7.78897E+08-3.33052E+07 4.03587E+08-2.21109E+08-6.82333E+07
 -1       899-2.22337E+08 1.12142E+09 1.10141E+08-1.14417E+08-1.95721E+08 1.42566E+08
 -1       900 5.69202E+07 9.32313E+08 9.34237E+06-2.63480E+08-3.83967E+08 4.43095E+07
 -1       901 6.73971E+08 6.46495E+08-2.39543E+07-1.43014E+08 5.52115E+07-1.54029E+07
 -1       902 1.39743E+09 5.62113E+08-1.69671E+07 1.70283E+08-3.61089E+07 9.68112E+07
 -1       903 1.67346E+09 1.49571E+08-2.27145E+08 3.62479E+08-1.07758E+08-7.63297E+07
 -1       904 1.82273E+09 3.17801E+08 4.04087E+08-4.15652E+08-4.68236E+07-9.89467E+07
 -1       905-4.02567E+07-4.96426E+07 3.21896E+08-7.59182E+08-2.73299E+04-6.40567E+08
 -1       906-2.19588E+09-8.19644E+08-6.70812E+08-4.18848E+08-9.93981E+07 3.31474E+07
 -1       907-3.01696E+09-1.17326E+09-1.17326E+09-2.60897E+07-5.66376E+02-6.84902E+08
 -1       908-1.93038E+08-7.50702E+07-7.50703E+07 1.82645E+06 1.49373E+01 3.61389E+07
 -1       909-4.04411E+06-3.44345E+06 2.10649E+07 4.40938E+07 2.33955E+06 3.32567E+07
 -1       910 1.25396E+08 9.60146E+06-1.69157E+07-1.29476E+07 7.35835E+05 3.92240E+06
 -1       911 1.07378E+08-8.85249E+05-9.63069E+05-6.30898E+06-1.35169E+07-1.94297E+07
 -1       912-4.13695E+07-2.39746E+08-4.58268E+07-2.11403E+07-1.36078E+07-1.18921E+07
 -1       913-1.21243E+09-1.43374E+09-3.17716E+08 5.13026E+08-4.79921E+07-1.38991E+07
 -1       914 8.50553E+08 4.43824E+08 2.04558E+07-3.67223E+08-1.55047E+08 4.39640E+08
 -1       915 1.46541E+09-2.32545E+08-2.64807E+08 7.45607E+07 2.30618E+07-7.57330E+07
 -1       916-8.18058E+07-9.65760E+07 2.74132E+08-6.42028E+08 1.02196E+07-3.96085E+08
 -1       917-2.27771E+09-8.85775E+08-8.85776E+08-3.57875E+07 3.25406E+02-4.16400E+08
 -1       918-1.45833E+08-5.67130E+07-5.67130E+07 2.31689E+06-2.17222E+01 3.03064E+07
 -1       919-1.08190E+08-4.05306E+07-3.08944E+07 2.19145E+07 4.58909E+06-1.76555E+06
 -1       920-3.16348E+06-2.99620E+06 1.97701E+07 3.89237E+07 1.93008E+06 2.21805E+07
 -1       921 6.88165E+07 1.49225E+07 1.17912E+07 1.99080E+07-2.83024E+06-1.80950E+06
 -1       922 9.10983E+07 1.19586E+07-1.59503E+07-4.22558E+06-1.14715E+06 1.31910E+07
 -1       923 1.24747E+08 2.97359E+07 5.40438E+06-2.43495E+07 8.02067E+06-2.74136E+06
 -1       924 1.22839E+08 1.81920E+07 8.59322E+06-3.72742E+07-8.29838E+06-7.32488E+06
 -1       925 1.43378E+06-1.30835E+08-1.42978E+07-7.90792E+07 4.13124E+06 1.43545E+07
 -1       926-8.78670E+07-1.97933E+08-3.26991E+07-8.18040E+07-5.52739E+07-4.43578E+07
 -1       927-1.61368E+07-2.07252E+07 8.03009E+06-1.62158E+07-6.48657E+05-1.74975E+07
 -1       928-1.58873E+06 6.58692E+06-7.01843E+06 3.99464E+06 3.01436E+06-2.03396E+07
 -1       929-4.00998E+06 9.87489E+06-2.04275E+06-1.07013E+06-1.27067E+06-1.06557E+07
 -1       930-1.27668E+07 3.37184E+06-5.03588E+06-2.57535E+05-2.00513E+06-9.95656E+06
 -1       931-2.52990E+07-1.56677E+07 3.89856E+06 9.37966E+06-5.62874E+06 1.26910E+07
 -1       932-1.25700E+07-3.48508E+07 1.32114E+07-1.09239E+06-5.60638E+06 2.02863E+07
 -1       933 1.09436E+07 6.87213E+07-6.30228E+06-1.65906E+07-1.54870E+07 5.69865E+07
 -1       934 9.62919E+06 8.59286E+07-1.08507E+08-6.38932E+07 1.76982E+07 9.63701E+07
 -1       935-3.29675E+08-2.35198E+08 9.62155E+07 2.12340E+08-4.15650E+07 1.08709E+08
 -1       936-1.77626E+09-1.95178E+09-4.20971E+08 1.03781E+09-7.26913E+08 6.19993E+08
 -1       937-1.73876E+09-1.20893E+09-4.76466E+08 6.16606E+08-1.19039E+08 4.47402E+07
 -1       938 6.98516E+08 6.15194E+08 7.75844E+07-4.92890E+08-2.38317E+08 2.21435E+08
 -1       939 2.05902E+09 6.36653E+08 3.68447E+08-3.70678E+08 7.33093E+07 1.34134E+08
 -1       940 1.10366E+09-3.28505E+08-2.65384E+08 5.12083E+07-1.23400E+07-5.67677E+07
 -1       941 6.81999E+08-1.18989E+08 6.69737E+07-1.97143E+08-3.37492E+07-4.31581E+07
 -1       942-6.18522E+07-9.44000E+07 2.57338E+08-5.19464E+08-8.09969E+06-1.92119E+08
 -1       943-1.22349E+09-4.75366E+08-3.25135E+08-3.11066E+08 4.84047E+07 4.37374E+07
 -1       944-1.61532E+09-6.28179E+08-6.28180E+08-4.12035E+07-2.78629E+02-3.10907E+08
 -1       945-1.09456E+08-4.25661E+07-4.25662E+07 3.07606E+06 4.73644E+01 1.95346E+07
 -1       946-2.58201E+06 4.28763E+06 1.60405E+07 3.94070E+07-4.44114E+06 1.37838E+07
 -1       947 6.42407E+07 1.67275E+07-1.13535E+07-6.52814E+06-1.77095E+06 3.65686E+06
 -1       948 7.35929E+07 7.41130E+06 1.01300E+06-5.66653E+07 1.28953E+07-1.64224E+07
 -1       949-1.36157E+07-3.77933E+07 6.71901E+06-1.60221E+07-3.83176E+05-1.42653E+06
 -1       950-5.11693E+06-3.21041E+06-5.73830E+06 2.41997E+04 6.28140E+06-7.50666E+06
 -1       951-1.29282E+07-3.44563E+06-5.76118E+06-2.68142E+05 4.37526E+06-1.21948E+07
 -1       952-2.39081E+07-9.87684E+06 1.62310E+07 8.15315E+06-2.82054E+06-3.15514E+06
 -1       953-1.01963E+07-5.04348E+07-8.93930E+07-5.71525E+06 2.85769E+07-1.82357E+07
 -1       954-2.20789E+08-4.05457E+08 9.70187E+07 2.08386E+08-7.62158E+07 3.35130E+07
 -1       955 1.41352E+08-2.58707E+08-2.03299E+08 2.64682E+08 1.48532E+07 1.27075E+07
 -1       956-2.46413E+08-1.48276E+08 1.61372E+08-4.45183E+08-1.13466E+07-1.51267E+08
 -1       957-1.06454E+09-4.13989E+08-4.13989E+08-3.10909E+07 7.15558E+02-1.23656E+08
 -1       958-7.04539E+07-2.73988E+07-2.73987E+07 4.66901E+06 1.24567E+01 5.82085E+06
 -1       959-4.49244E+07-1.18320E+07-1.10763E+07 2.42294E+07 1.31545E+07-5.44703E+06
 -1       960 2.17952E+06 2.44988E+07 1.71008E+07 3.98429E+07-4.55234E+05 1.38913E+07
 -1       961 1.15170E+07 2.50158E+07 3.42322E+06 1.79767E+07 2.44221E+06 2.59465E+06
 -1       962 2.87399E+07 2.58761E+07-7.95035E+06-6.91669E+06-1.32975E+06-4.65453E+06
 -1       963 4.82711E+07 1.52695E+07-5.04369E+04-3.12881E+07-6.58149E+05 1.30877E+07
 -1       964 2.31865E+07-7.69306E+05-6.16400E+06-5.88005E+07 1.01566E+07-3.42129E+06
 -1       965 5.04628E+06 6.88448E+06-9.93720E+06 4.64606E+06 1.73698E+05 2.09083E+06
 -1       966-1.44823E+06 9.72840E+06-7.33057E+06-3.20543E+06 1.42021E+07-9.81954E+05
 -1       967-4.87326E+06-2.98056E+06 2.74674E+06-7.33749E+06 9.01276E+06-8.99942E+06
 -1       968-2.19490E+06-2.17217E+05 3.48678E+06-1.81041E+06 8.90796E+06-6.66784E+06
 -1       969-8.97688E+06-3.41269E+06 2.51705E+06 1.84769E+06 7.25359E+06-1.07295E+07
 -1       970-1.64584E+07-3.20295E+06-7.40609E+06 5.19386E+06 7.97945E+06-8.92246E+06
 -1       971-1.55817E+07-1.97269E+06-1.13026E+07 9.06436E+06 7.29138E+06-1.42046E+07
 -1       972 3.91823E+06-1.51834E+07 2.28309E+07 1.53224E+07-2.93763E+06-5.22667E+06
 -1       973-7.33056E+07-8.29620E+07 3.50767E+07 6.13214E+07-2.99784E+07 2.76832E+07
 -1       974-3.78928E+07 1.03529E+07-8.20490E+07 1.86927E+06 2.83984E+07-2.29295E+07
 -1       975 6.52578E+07 9.00903E+06-1.15880E+08-6.49264E+07-8.93062E+07-1.64749E+07
 -1       976-2.31017E+08-1.62968E+08 3.12314E+07 2.18325E+08 1.44234E+08-1.73668E+08
 -1       977-2.66347E+08-1.59913E+08 7.27626E+07-1.01932E+08 3.27285E+07-2.91020E+07
 -1       978-4.24241E+08-2.40263E+08 5.66208E+07-3.84789E+08-1.43325E+07 1.45511E+07
 -1       979-5.21528E+08-2.18885E+08-8.59750E+07-2.12046E+08 2.38170E+07 8.21035E+05
 -1       980-5.85487E+08-2.27689E+08-2.27690E+08-2.12622E+07-3.45157E+02-6.59785E+07
 -1       981 6.67990E+06 2.59760E+06 2.59772E+06 3.03436E+06-2.06794E+01-3.80874E+06
 -1       982-2.10069E+07 4.48689E+07-4.76051E+06 5.44590E+07 5.19749E+06-6.01822E+06
 -1       983 6.83684E+05 3.92186E+07 1.38677E+07-3.68322E+06 1.12440E+07 1.58685E+07
 -1       984-2.04855E+06 1.09465E+07 5.14367E+05 2.96763E+06-1.17190E+07 1.81513E+06
 -1       985 2.46210E+06 9.26381E+06-2.90358E+05-6.86455E+06 8.75842E+06-4.51890E+06
 -1       986-1.80266E+06 2.32452E+06 1.39176E+06-1.39785E+06 1.11173E+07-1.21456E+07
 -1       987-1.27861E+07-1.00337E+07-4.34031E+06 7.91106E+06 1.11719E+07-1.17451E+07
 -1       988-8.86166E+06 9.79537E+06 2.42265E+07 1.86282E+07 5.29055E+06 2.59022E+06
 -1       989 5.87648E+07 1.42409E+07-3.85006E+06-2.16999E+07-5.67926E+07 1.32543E+07
 -1       990-2.40299E+08-2.12670E+08 2.00312E+07-2.91118E+08-5.61381E+07-5.61797E+07
 -1       991-2.87230E+08-1.11700E+08-1.11701E+08-1.26268E+07 1.92670E+02 1.68467E+07
 -1       992 1.00089E+08 3.89235E+07 3.89238E+07 5.04629E+06 8.97129E+01-6.09418E+07
 -1       993 5.03107E+07 5.33090E+07 1.27563E+07 6.57019E+07 1.43872E+07 5.35348E+06
 -1       994-2.57048E+07 8.26934E+07-1.65578E+07 9.74117E+07-1.25144E+07-2.68761E+06
 -1       995-8.19730E+07 9.12969E+06-2.23369E+07 1.38393E+07-7.74452E+06 3.96857E+06
 -1       996-4.38541E+07 1.33453E+07 2.00904E+07-1.10343E+07-2.16913E+06 5.53804E+06
 -1       997-1.05154E+07 1.95199E+07 6.78478E+06-1.24930E+06-9.82445E+06 3.32398E+06
 -1       998 4.41901E+06 1.83710E+07 9.65389E+06-5.54954E+06 1.33143E+07-3.61444E+06
 -1       999 7.80783E+06 1.54168E+07-5.00370E+06-1.06356E+07 1.52013E+07-1.24157E+06
 -1      1000 2.27153E+06 7.92351E+06-2.30113E+06-6.55867E+06 1.73765E+07-7.69904E+06
 -1      1001 3.18137E+06 5.12810E+06 3.00213E+05-3.66143E+06 1.61710E+07-1.08593E+07
 -1      1002-7.16784E+05 4.08267E+05 1.48270E+06 3.33446E+04 1.63649E+07-1.06107E+07
 -1      1003-1.90882E+06-2.71970E+06 2.51711E+06 2.51195E+06 1.61035E+07-1.26430E+07
 -1      1004-8.82877E+06-1.21881E+07-4.78805E+06 8.77108E+06 1.59628E+07-8.62012E+06
 -1      1005-1.63893E+06-1.28101E+07-1.26291E+07 9.74890E+06 1.85681E+07-6.61525E+06
 -1      1006-7.08941E+06-2.13509E+07 1.80971E+07 9.05272E+06 6.61164E+06 3.26800E+06
 -1      1007-2.70933E+07-2.45767E+06 1.62373E+07 3.92758E+06-1.60570E+07 6.72508E+06
 -1      1008-4.82046E+07-1.07292E+08 7.50432E+06-1.78894E+08-4.25390E+07 9.26892E+06
 -1      1009-4.73429E+07-3.90860E+07 1.32155E+06-9.41659E+07 2.55563E+07 2.91633E+06
 -1      1010-6.81055E+07-2.64852E+07-2.64856E+07-6.91546E+06 9.34050E+01-4.08111E+07
 -1      1011 2.59117E+08 1.00767E+08 1.00768E+08 1.31152E+07 2.26883E+02 6.59236E+06
 -1      1012 1.94943E+08 1.68971E+08-1.72551E+07 2.32700E+08-6.34341E+07-5.28166E+07
 -1      1013 1.78318E+07 3.41099E+07-1.83770E+06-1.55676E+07-3.89759E+07 8.27571E+06
 -1      1014 6.88064E+06 2.42968E+07 7.73083E+06-1.41295E+07 1.10553E+07-2.30604E+06
 -1      1015 8.67679E+06 9.71557E+06-1.13384E+06-7.00075E+06 1.39164E+07-1.08844E+07
 -1      1016 2.55117E+06-6.45062E+04 1.20941E+06 1.00679E+06 1.38814E+07-1.29358E+07
 -1      1017-2.98922E+06-1.32391E+07-6.27329E+06 7.15335E+06 1.20262E+07-6.90379E+06
 -1      1018-9.31972E+06-1.99621E+07 2.66524E+06 1.29249E+07-1.79366E+07 3.64718E+06
 -1      1019 5.33717E+07-4.23636E+07-4.36136E+06-1.33081E+08-2.37934E+07 1.13100E+06
 -1      1020 6.89955E+07 2.68317E+07 2.68316E+07-7.65587E+06 3.34159E+01 5.64826E+05
 -1      1021 4.77349E+08 1.85635E+08 1.85636E+08 1.67213E+07-2.08780E+02-3.74637E+07
 -1      1022 4.30900E+08 1.57031E+08 6.17270E+07 1.58175E+08 1.09164E+07-1.43272E+06
 -1      1023 3.53985E+08 1.45639E+08-6.58933E+07 2.87225E+08-1.73000E+07 1.31361E+07
 -1      1024 2.65124E+08 8.68047E+07-1.98328E+07 7.21283E+07 2.19221E+07-2.29559E+07
 -1      1025 2.90961E+08 1.31796E+08 8.74152E+07-1.83881E+08 7.09631E+07-7.10929E+07
 -1      1026 4.59723E+07 1.89755E+07-1.10399E+07-1.11313E+06-4.66969E+07 8.98405E+06
 -1      1027 1.39979E+07 3.40840E+07-1.97922E+07-1.48920E+07 5.50755E+05 6.53459E+06
 -1      1028 4.77296E+06 2.32209E+07 1.33893E+07-1.83896E+07 1.68678E+07-1.97991E+06
 -1      1029 1.86960E+07 2.25284E+07 5.18245E+06-1.59881E+07 1.41465E+07-7.60802E+06
 -1      1030 1.32258E+07 1.16697E+07-2.55538E+06-8.67194E+06 1.47806E+07-1.07472E+07
 -1      1031 1.21895E+07 8.53020E+06-1.56215E+06-6.04612E+06 1.50320E+07-1.04861E+07
 -1      1032 8.05800E+06 4.32576E+06-3.71404E+05-2.12944E+06 1.48676E+07-1.27272E+07
 -1      1033 6.74661E+06 2.15901E+06 2.68986E+06 1.69870E+06 1.59138E+07-8.80635E+06
 -1      1034-1.52241E+06-4.42571E+06 6.11324E+06 5.58834E+06 1.52284E+07-6.57529E+06
 -1      1035 2.22331E+05-5.39709E+06-1.06279E+07 2.84190E+06 1.34503E+07-5.64113E+06
 -1      1036 1.35380E+07-9.46064E+06-8.19484E+06-1.42977E+06 1.47416E+06-3.40919E+05
 -1      1037 8.18131E+07 2.49231E+06 3.02649E+07 5.09924E+07 6.53044E+06 2.60232E+07
 -1      1038 9.21940E+07-4.92764E+06-5.20116E+06-8.10251E+06-5.73791E+06 6.06594E+06
 -1      1039 1.18154E+08-1.56811E+07-3.72383E+07-7.86753E+07-1.08618E+07 1.58530E+07
 -1      1040 1.62265E+08 3.90791E+07 2.34110E+07-5.10543E+07 1.24018E+07-2.83940E+06
 -1      1041 1.90212E+08 7.39713E+07 7.39712E+07-8.33384E+06 3.66928E+01-1.95253E+06
 -1      1042 8.09719E+08 3.14891E+08 3.14891E+08 1.79491E+07 4.79057E+02-9.29190E+07
 -1      1043 2.60322E+08 1.04406E+08-1.07764E+08 2.99023E+08 6.14747E+06-1.14431E+08
 -1      1044-1.25122E+08 9.37128E+07 1.00324E+08-1.95018E+08 2.56103E+07-4.01459E+07
 -1      1045-8.95543E+07-1.61666E+07-3.12127E+06 2.07553E+07-9.33951E+07 2.02247E+07
 -1      1046 2.19973E+07-1.81298E+06-2.71437E+07-2.62643E+07 5.59878E+06 1.13537E+07
 -1      1047 2.48722E+07 1.73767E+07 4.64139E+06-1.54722E+07 1.03007E+07-1.01755E+07
 -1      1048 1.38348E+07 5.33067E+06-1.08506E+06-3.09971E+06 1.05391E+07-1.39953E+07
 -1      1049 6.18250E+06-2.63038E+06-2.77085E+06 3.62274E+06 8.47678E+06-1.15459E+07
 -1      1050-1.31239E+07-7.78932E+06-1.60969E+06-5.77749E+06-9.18575E+06-4.09298E+06
 -1      1051-2.30215E+07-3.20448E+07 2.75359E+07 6.23577E+07 1.49949E+07 1.71278E+07
 -1      1052 9.32218E+07-3.64502E+06-3.83871E+07-5.92528E+07 6.10339E+05 3.16708E+07
 -1      1053 2.72325E+08 1.05904E+08 1.05904E+08-5.26128E+06 1.22665E+02 3.55649E+07
 -1      1054 1.17234E+09 4.55911E+08 4.55911E+08 2.16010E+07-4.15261E+02-2.05770E+08
 -1      1055 9.10181E+08 3.45560E+08 2.44614E+08 2.06950E+08 4.59301E+07 1.54321E+07
 -1      1056 1.77322E+08 9.25285E+07-1.38429E+08 3.34942E+08 2.97625E+07-1.75469E+08
 -1      1057-4.14503E+08 9.26377E+07-7.25192E+07 8.68778E+07-2.64264E+07 5.50772E+07
 -1      1058-8.20408E+08 2.31943E+08 8.44233E+07-1.14265E+08 2.76249E+07-1.73252E+04
 -1      1059-1.01693E+09 1.05126E+08-6.91029E+07-2.74004E+08 1.41886E+08-1.94856E+08
 -1      1060-5.14362E+08 3.18365E+08 6.83309E+07-6.25098E+08 2.47623E+08 1.11057E+08
 -1      1061-1.13448E+08-1.57966E+07 1.15407E+08 8.01198E+07-1.41514E+08-2.25709E+07
 -1      1062 6.15266E+07 9.24295E+06 1.05922E+08 1.03025E+06 2.23033E+07-3.26189E+07
 -1      1063 1.09090E+08 9.91099E+07-3.96130E+07-8.49726E+07-3.91679E+07 4.64207E+07
 -1      1064-4.31491E+06 1.63667E+07-2.95543E+07-2.81150E+07-7.21610E+06-1.44136E+06
 -1      1065 2.73767E+07 7.15548E+06 1.26061E+07-1.57289E+07 3.81298E+06-1.39746E+07
 -1      1066 3.27838E+07 9.65057E+06 1.08497E+07-1.10292E+07 4.15268E+06-8.56796E+06
 -1      1067 2.16673E+07 8.12776E+06-1.92991E+06-7.14290E+06 3.23010E+06-1.09897E+07
 -1      1068 7.24119E+06 4.70926E+06-7.89226E+06-2.11297E+05 3.84892E+06-8.12423E+06
 -1      1069 2.43716E+07 1.74312E+07-7.16087E+06 1.25805E+07 7.81095E+05-2.03108E+07
 -1      1070 1.35232E+07-6.11350E+05 2.13607E+07-1.60716E+06 1.25709E+07 2.35800E+06
 -1      1071-2.25163E+07-5.49923E+06 2.14638E+07-1.52290E+07-1.19167E+07 2.54649E+06
 -1      1072-1.28567E+08 4.66653E+07 2.00942E+07 1.67904E+08 5.11622E+07-2.26909E+07
 -1      1073-2.47985E+08-1.27952E+07-1.18805E+07 9.81961E+07 2.18199E+07 5.31296E+07
 -1      1074-1.88019E+08-4.30025E+06 2.54004E+07 6.50505E+07 6.00712E+06 3.91115E+06
 -1      1075-8.28172E+07-1.80804E+07-1.91298E+07 1.04879E+07-3.71554E+06-1.05641E+07
 -1      1076 6.36469E+07 3.73949E+06-4.21384E+07-5.14270E+07 6.79614E+06 4.84091E+07
 -1      1077 2.66404E+08 9.26792E+07 7.00401E+07-3.37852E+07 1.10156E+07-5.84475E+06
 -1      1078 3.47132E+08 1.34996E+08 1.34996E+08-4.20130E+06-7.34777E+01 5.31277E+07
 -1      1079 1.63975E+09 6.37682E+08 6.37683E+08 2.61473E+07 3.82017E+02-2.43373E+08
 -1      1080 6.74423E+07 1.07506E+08-2.42846E+08 4.52987E+08-3.78779E+07-2.30954E+08
 -1      1081-1.12116E+09 1.91340E+08 1.68652E+08 1.04353E+07 4.08919E+07-7.99573E+07
 -1      1082-1.05699E+09 5.99093E+08 5.61814E+07-5.90158E+08 1.12431E+08 3.09395E+08
 -1      1083 3.09222E+08 4.52004E+08-8.86415E+07-2.73544E+08-1.51694E+08 5.75064E+07
 -1      1084-6.69731E+06 4.96946E+07 9.83290E+07-5.49473E+06 2.91338E+07-2.61917E+07
 -1      1085 4.01767E+07 1.33185E+07-1.75152E+07-1.43432E+07-4.82558E+06 3.21448E+06
 -1      1086 2.73048E+07 6.86904E+06 5.00513E+06-2.31949E+06 2.53574E+06-1.35228E+07
 -1      1087 5.57474E+06 8.74375E+06 1.58699E+07-1.34670E+06 7.65664E+06-6.39761E+06
 -1      1088 5.50523E+07 8.21777E+07-1.55101E+07 5.01216E+07-2.13334E+07-1.40447E+07
 -1      1089-2.55225E+08 8.73111E+07 9.15675E+06 1.62702E+08 3.67068E+07-7.28394E+07
 -1      1090-2.57432E+08 6.25915E+06 3.99724E+07 4.20305E+07 9.10035E+06 2.01793E+07
 -1      1091 3.26870E+07 1.10399E+07-5.96622E+07-6.64520E+07-7.09335E+06 5.51893E+07
 -1      1092 4.20298E+08 1.63449E+08 1.63449E+08-4.17637E+06 2.02341E+01 6.63010E+07
 -1      1093 2.17633E+09 8.46349E+08 8.46349E+08 4.38659E+07-2.11238E+02-4.46266E+08
 -1      1094 1.62331E+09 6.62834E+08 4.55282E+08 3.32764E+08 5.86574E+07 4.50347E+07
 -1      1095 3.18292E+07 1.71781E+08-3.12666E+08 5.77166E+08-4.38160E+06-3.13650E+08
 -1      1096-9.96910E+08 2.91858E+07-1.51398E+08 3.59859E+08-5.09572E+07 5.30188E+06
 -1      1097-1.38533E+09 8.03571E+07 2.43414E+08 9.14555E+07-3.94525E+07-1.29223E+08
 -1      1098-2.00685E+09-1.21393E+08-1.68717E+08-1.53959E+07 4.15694E+07-4.83607E+06
 -1      1099-1.51744E+09 1.84582E+08-1.27624E+08 1.26654E+08-1.12218E+08 2.42629E+08
 -1      1100 1.70474E+09 1.45844E+09 4.46973E+08-4.51536E+08-1.18351E+08 1.88526E+08
 -1      1101 2.40806E+09 2.20884E+09 6.03193E+08-1.18381E+09-8.73095E+08 9.51065E+08
 -1      1102 5.20141E+08 2.97099E+08-8.97397E+07-2.69757E+08-4.93891E+07 1.24731E+08
 -1      1103-1.28211E+07-9.38378E+07 1.21874E+08 8.09968E+07 2.16550E+07 1.40453E+08
 -1      1104-1.52480E+07-8.29362E+07-4.93484E+06 2.46080E+07-1.87838E+07 9.31777E+07
 -1      1105 1.83561E+07 3.51825E+07-1.08849E+07-5.90951E+06-1.13565E+07 4.29860E+07
 -1      1106 4.57591E+07 2.02577E+07-1.80684E+06-1.22825E+07-1.00831E+07 3.07137E+07
 -1      1107 2.35399E+07-1.25766E+06 3.56987E+06 1.21470E+06-5.52005E+06 1.15140E+06
 -1      1108 6.92433E+06-2.00692E+07-4.59850E+05-3.65521E+06-5.68890E+06-9.50436E+06
 -1      1109 4.12372E+06-1.50175E+07 2.21016E+07-1.53697E+07 3.02865E+06-3.18883E+07
 -1      1110 9.65945E+07 5.56077E+07-1.72017E+07 4.84874E+07-8.99339E+06-2.42304E+07
 -1      1111 4.21578E+08 4.21020E+08 1.09823E+08 2.15889E+08-1.53034E+08-1.81290E+08
 -1      1112 2.33264E+08 2.95203E+08 7.99295E+07 9.29015E+07-6.85503E+06-2.74876E+07
 -1      1113-3.69605E+08 3.75637E+07-2.36532E+07 1.82139E+07-1.39152E+07-4.94644E+07
 -1      1114-4.48767E+08-3.86833E+07-3.11509E+07 4.84087E+07 1.21364E+07 1.77649E+06
 -1      1115-3.12031E+08-2.62574E+06 5.32484E+07 2.61110E+07-2.13607E+06 3.11016E+07
 -1      1116-2.19817E+08-1.34630E+07-3.60448E+07-3.43293E+07-8.69252E+06-5.32960E+06
 -1      1117 1.48717E+07 2.51808E+07-7.15901E+07-8.31388E+07-4.37665E+05 7.35131E+07
 -1      1118 3.73502E+08 1.46639E+08 1.04237E+08-4.83964E+07 1.17240E+07-1.17258E+07
 -1      1119 5.01538E+08 1.95042E+08 1.95043E+08-6.97658E+06 9.57077E+00 9.80953E+07
 -1      1120 2.91374E+09 1.13312E+09 1.13312E+09 3.99068E+07 5.41897E+02-5.36351E+08
 -1      1121 7.70327E+07 1.20858E+08-3.36559E+08 7.18355E+08 3.70455E+07-5.01891E+08
 -1      1122-1.73806E+09 1.16713E+08 3.15178E+08-6.70407E+07 1.14469E+06-1.10114E+08
 -1      1123-1.16477E+09-7.46566E+07-2.05049E+07 3.05139E+08-1.24056E+08 5.10568E+08
 -1      1124 1.51280E+09 1.59778E+09 4.19213E+08-5.59951E+08-1.56137E+08 1.78005E+08
 -1      1125 2.49732E+08 3.72926E+08 7.88543E+07 8.95856E+07-3.60139E+07-4.63477E+07
 -1      1126-2.76535E+08 1.57874E+07-1.61078E+06-3.82929E+07-2.24824E+07-9.55691E+07
 -1      1127-3.79653E+08 1.48429E+07 6.41909E+07 4.71355E+07-1.95222E+06 2.47932E+07
 -1      1128 1.68248E+07 1.79835E+07-7.10361E+07-1.10275E+08 7.27584E+06 1.05816E+08
 -1      1129 6.10365E+08 2.37364E+08 2.37364E+08-5.28262E+06 4.43034E+01 1.08248E+08
 -1      1130 3.70758E+09 1.44184E+09 1.44184E+09 1.96900E+07-6.94844E+02-8.38477E+08
 -1      1131 2.69694E+09 9.76425E+08 8.21412E+08 4.59323E+08-1.57792E+08 1.30871E+07
 -1      1132 6.17735E+07 1.78280E+07-3.91971E+08 8.41836E+08-4.31095E+07-7.78536E+08
 -1      1133-2.20878E+09-3.78086E+08-4.66699E+08 4.86834E+08 2.23173E+07-6.02008E+07
 -1      1134-2.14360E+09-1.92835E+08 2.75304E+08-3.92162E+08-7.97726E+07-8.19729E+07
 -1      1135-1.70892E+09-6.38613E+08 1.11874E+07-2.32799E+08-8.61081E+07 1.61542E+07
 -1      1136-6.90340E+08-6.23368E+08 3.96546E+07 9.29136E+07-4.31122E+05-1.59028E+07
 -1      1137-1.88732E+08-1.00978E+09-2.20808E+07 2.85602E+08-4.68419E+08 1.83790E+08
 -1      1138 1.52042E+06-1.22979E+09-1.24404E+08 1.30728E+08-1.89214E+08 1.31283E+08
 -1      1139 4.87545E+08-8.32569E+08 2.57824E+07-4.36893E+08-2.22484E+08-8.50474E+07
 -1      1140 2.83513E+08-3.22034E+08 1.44787E+07-4.91806E+08-8.19665E+07-1.90913E+08
 -1      1141 6.89360E+07-2.06210E+07-2.53132E+06 4.43635E+07-1.51506E+07 2.59496E+07
 -1      1142 1.07239E+08-9.27675E+07 3.23306E+06 2.46108E+07-2.35370E+07 2.31160E+06
 -1      1143-5.59783E+06-1.30102E+08-2.35744E+07-6.84530E+07-3.08853E+07-3.20709E+07
 -1      1144-6.11641E+07-1.17390E+08-6.04494E+06-7.24609E+07-8.35724E+07-3.41381E+07
 -1      1145-1.63492E+08-7.39527E+07 6.99424E+06-1.88434E+07 3.67776E+06-3.21942E+05
 -1      1146-3.64434E+08-1.01805E+08 1.85385E+06 5.78948E+07-1.33971E+07-2.40570E+06
 -1      1147-4.51919E+08-3.52394E+07 5.49187E+07 1.01136E+08-1.44807E+07 1.75320E+07
 -1      1148-4.58462E+08-8.27270E+07-9.52514E+07-6.72932E+07 6.08182E+06 3.02321E+06
 -1      1149 9.69612E+06-1.43022E+06-7.64456E+07-1.35089E+08-6.44629E+06 1.50431E+08
 -1      1150 5.38888E+08 1.93461E+08 1.65678E+08-7.13234E+07-3.18421E+07-7.12275E+06
 -1      1151 7.31717E+08 2.84557E+08 2.84557E+08-4.82700E+05-9.02276E+01 1.53802E+08
 -1      1152-9.78352E+08-3.67001E+08 6.60859E+07-1.05345E+09-3.73263E+08-1.55829E+08
 -1      1153-6.83687E+08-1.55488E+09 1.47130E+07-1.83955E+08-3.17536E+07 7.87774E+07
 -1      1154-1.72010E+08-1.68435E+09-1.49232E+08 9.56962E+07 8.59945E+05-5.61260E+07
 -1      1155 1.34384E+08-6.44048E+08-3.27900E+07-1.25070E+08 1.29689E+08-1.20575E+08
 -1      1156 4.42138E+07-5.67407E+07-4.23463E+06-1.78896E+07 9.60348E+06 2.62345E+07
 -1      1157-1.70180E+07-2.24339E+08-2.57785E+07-6.55341E+07 8.68692E+05 8.27901E+06
 -1      1158-1.37822E+08-2.29989E+08 2.06699E+06 1.47187E+07-6.48523E+06-1.68516E+07
 -1      1159-2.02859E+08-6.17715E+07 1.72513E+07 2.10412E+08-6.99630E+07 3.35035E+07
 -1      1160-9.65206E+07-1.16327E+08-1.03530E+08-1.36077E+09-2.22748E+08 1.89660E+08
 -1      1161-3.61312E+08-8.89246E+08 6.56416E+07-9.88381E+08 1.52491E+08 3.85305E+08
 -1      1162-2.43764E+08-1.95764E+09 2.59139E+08-3.05272E+08 9.45151E+07 7.49209E+07
 -1      1163 8.28213E+07-1.55034E+09 2.87655E+08 4.10386E+07 7.67423E+07-1.62206E+07
 -1      1164 8.51400E+07-1.17177E+09 2.17332E+08 2.41700E+08 1.01410E+08 5.32182E+07
 -1      1165 1.28411E+08-9.51270E+08 1.27677E+08 2.00798E+08 6.78565E+07-1.79051E+07
 -1      1166 2.22626E+08-7.65560E+08 4.25458E+07 1.52500E+08-2.63704E+07-1.10751E+07
 -1      1167 4.54635E+07-8.85560E+07 2.53950E+06-7.31831E+07-1.78109E+07 3.38471E+06
 -1      1168 3.34483E+07-1.24852E+08 1.63001E+07-8.04304E+07 2.67466E+06-2.59211E+06
 -1      1169 2.79935E+07-1.64343E+08 3.10032E+07-8.81357E+07 1.24832E+07-9.58654E+06
 -1      1170 2.13756E+07-2.23103E+08 4.64218E+07-4.48044E+07 9.55402E+06 5.22446E+06
 -1      1171-4.27548E+07-2.94033E+08 4.23288E+07 2.35383E+07 1.32833E+07-1.33655E+07
 -1      1172-6.81780E+07-1.35706E+08 6.91366E+06 1.59938E+08 2.22811E+07-6.77930E+07
 -1      1173-1.92661E+07-1.75395E+07-1.89322E+07 2.47315E+08-4.12656E+07-3.45749E+07
 -1      1174-3.82139E+08-2.05781E+09-4.49203E+08 5.47549E+08 7.83686E+07-2.13974E+07
 -1      1175 3.87834E+07-8.80349E+08-1.16294E+08 4.68831E+08 1.41267E+07 4.91630E+07
 -1      1176 1.88580E+08-4.04027E+08-6.32496E+07 2.69131E+08-1.34319E+08 4.99110E+07
 -1      1177 4.24238E+07-8.24980E+07-8.70569E+06-9.01276E+07-3.26845E+07-6.32797E+06
 -1      1178 1.99217E+07-1.32188E+08-1.59724E+07-1.17109E+08 5.18300E+05-1.03849E+07
 -1      1179-5.52869E+07-3.20654E+08-7.13804E+07-1.19997E+08 2.38367E+07 2.34110E+06
 -1      1180 1.67382E+07 4.89683E+07-3.89170E+08 8.98029E+08 7.60149E+08 4.31590E+07
 -1      1181 1.06203E+08 5.39690E+07-3.00385E+08 7.94736E+08 4.54409E+08-3.63485E+07
 -1      1182 1.47663E+08-1.43762E+07-2.45578E+08 6.75096E+08 2.44001E+08 6.13394E+06
 -1      1183 1.28877E+08 2.17857E+07-1.99472E+08 5.53980E+08 2.01695E+08 4.53107E+07
 -1      1184 2.46575E+08 2.34392E+08-6.57453E+07 4.37644E+08 7.57762E+07-4.92307E+06
 -1      1185 3.15989E+08 2.37994E+08 1.47395E+07 2.69805E+08 7.06688E+07 4.24585E+07
 -1      1186 1.48888E+08 6.31234E+07-2.09723E+07 1.07795E+08-1.70916E+07 3.14514E+07
 -1      1187 5.32845E+07 4.69044E+06-1.70544E+07 5.27856E+07 3.08855E+06 2.28996E+06
 -1      1188 4.74051E+07 2.74551E+06 2.78027E+07 1.66803E+07-1.59041E+07 6.02920E+06
 -1      1189 6.86115E+07 2.42879E+05 2.13720E+07-1.72131E+07 2.06550E+06 5.91293E+06
 -1      1190 6.69502E+07-1.58473E+07 4.73366E+06-8.11384E+07-7.76051E+06 3.74835E+06
 -1      1191 4.34979E+07-2.33967E+07-1.82876E+07-1.17810E+08 2.38679E+07-8.79562E+06
 -1      1192 3.62733E+07-7.89869E+06-3.03119E+07-1.43479E+08 2.95124E+07-7.32997E+05
 -1      1193 2.32687E+07 5.76978E+06-4.54296E+07-1.63575E+08 6.97557E+07 6.09238E+06
 -1      1194 7.70199E+06 5.60672E+06-6.51374E+07-1.80591E+08 1.27908E+08-9.83658E+06
 -1      1195 9.30582E+08 2.54868E+09 7.70409E+08 5.00884E+08-1.48511E+06 1.36872E+08
 -1      1196 5.60852E+08 1.36460E+09 3.97678E+08 3.93212E+08-3.46120E+07-5.33066E+07
 -1      1197 2.40727E+08 4.97594E+08 1.06522E+08 2.45602E+08 4.27269E+06-3.64169E+07
 -1      1198 5.02383E+07 5.22053E+07-1.14834E+07 5.97886E+07 3.73328E+05-3.68751E+07
 -1      1199 1.86589E+05-2.49092E+07-4.19835E+04 9.73396E+06 2.45122E+06 4.45559E+05
 -1      1200 2.60825E+07-2.50985E+06 1.81282E+06-3.74917E+07 3.77516E+06 7.29406E+06
 -1      1201 7.65483E+07 1.71474E+08 5.03179E+07-8.28586E+07-9.91595E+05 6.76788E+06
 -1      1202 1.55245E+08 4.16257E+08 1.25589E+08-1.04053E+08 3.14853E+06-2.12852E+07
 -1      1203 1.38070E+09 3.55037E+09 1.38070E+09 3.14836E+07 8.43977E+08 7.96605E+02
 -1      1204 1.03716E+09 2.66699E+09 1.03716E+09 4.62175E+07 5.10481E+08-6.90713E+02
 -1      1205 7.09577E+08 1.82463E+09 7.09577E+08 4.86074E+07 3.79297E+08 3.90780E+02
 -1      1206 4.53206E+08 1.16539E+09 4.53206E+08 3.55007E+07 1.57891E+08-6.43251E+02
 -1      1207 2.26714E+08 5.82981E+08 2.26715E+08 2.70558E+07 1.22081E+08 4.40951E+02
 -1      1208 1.06934E+08 2.74976E+08 1.06935E+08 1.21476E+07-2.51275E+07-1.82820E+02
 -1      1209 2.75426E+07 7.08248E+07 2.75430E+07 5.69944E+06 4.96466E+07-1.01004E+02
 -1      1210 9.72180E+05 2.50024E+06 9.72339E+05 2.30065E+06 2.22858E+06 3.73703E+01
 -1      1211-1.57038E+07-4.03808E+07-1.57036E+07 1.93229E+06 5.77723E+06-3.57671E+01
 -1      1212-1.30764E+07-3.36246E+07-1.30763E+07 2.20664E+06-1.46648E+07-1.31966E+01
 -1      1213-2.50220E+06-6.43401E+06-2.50211E+06-2.61374E+06 1.83874E+07-1.25045E+02
 -1      1214 3.85232E+07 9.90601E+07 3.85234E+07-6.57505E+06 7.71769E+06 1.50381E+02
 -1      1215 8.71981E+07 2.24224E+08 8.71982E+07-9.44242E+06 5.23613E+07-1.13026E+02
 -1      1216 1.57460E+08 4.04897E+08 1.57460E+08-1.03695E+07 8.23475E+07 1.75292E+02
 -1      1217 2.30130E+08 5.91764E+08 2.30130E+08-9.34294E+06 1.53550E+08-1.74426E+02
 -1      1218-4.58929E+07-8.00698E+07-5.10566E+07-2.86369E+07-7.03215E+07-4.47843E+07
 -1      1219-7.06376E+06 3.36789E+06-2.00314E+06 1.88602E+05-1.18342E+06-1.79503E+07
 -1      1220-2.04150E+07 4.71924E+06 4.25357E+06 1.08770E+06-2.89860E+06-1.22248E+07
 -1      1221-5.85807E+07-3.77813E+07-4.43360E+07 2.21417E+06-3.48047E+07 3.59464E+07
 -1      1222-3.04149E+07 6.17162E+07-1.69823E+06-1.63921E+07-1.55555E+07 7.56367E+07
 -1      1223-7.72911E+08-8.66774E+08-6.75220E+08 3.81099E+08-8.28383E+08 7.31361E+08
 -1      1224 4.22423E+06 9.20815E+06 8.06663E+05 7.79820E+04 1.76785E+06 1.72326E+06
 -1      1225-3.32024E+06 3.40694E+06 5.28335E+06-1.05087E+07 1.27004E+07-3.61369E+06
 -1      1226-1.41925E+07-3.08168E+06 4.27115E+06 1.70220E+06 8.85055E+06-1.22803E+07
 -1      1227-3.15888E+07-1.26648E+07-9.38733E+06 1.95847E+07-5.34062E+05-4.03781E+06
 -1      1228-4.91930E+07-5.56014E+07 6.66932E+07 7.02790E+07 3.90617E+07-3.08917E+07
 -1      1229 4.42583E+07-4.22758E+07-1.82843E+07-1.55339E+07-6.42291E+07 1.23090E+07
 -1      1230-1.29456E+07 2.64423E+07-1.40514E+07-5.39592E+06-7.23804E+06-2.40825E+05
 -1      1231 9.01443E+06 2.51875E+07-7.42900E+06-1.83716E+07 1.55178E+07-5.43499E+06
 -1      1232 5.42860E+06 9.43583E+06-6.26756E+04-7.11380E+06 1.37356E+07-9.15549E+06
 -1      1233-8.63500E+06-1.00561E+07-1.75325E+06 6.76431E+06 1.28247E+07-9.73883E+06
 -1      1234-1.06603E+07-2.74722E+07-1.05895E+07 2.14055E+07 6.88021E+06 1.07505E+06
 -1      1235-3.72069E+07-5.33979E+07-5.11800E+07 5.28493E+06-3.71056E+07 2.92932E+07
 -1      1236 4.89914E+07 7.98906E+07 5.99859E+07-7.14027E+06-6.47277E+07 4.48406E+07
 -1      1237 2.18192E+07 4.85018E+07 1.30888E+07-3.78654E+07 3.88737E+06 7.37994E+06
 -1      1238 3.09359E+07 2.79824E+07 2.16197E+06-1.90903E+07 1.11022E+07-7.81419E+06
 -1      1239 1.65537E+07 8.95052E+06 4.63530E+05-3.58193E+06 1.22657E+07-1.11559E+07
 -1      1240 2.83385E+06-4.58961E+06 7.70873E+06 9.32619E+06 1.41939E+07-1.01344E+07
 -1      1241 1.59877E+07-3.28058E+06 1.84338E+07 1.71829E+06 6.39570E+05-8.22963E+06
 -1      1242-7.51213E+07 4.77885E+07 3.90643E+06 1.62384E+07-1.11561E+08 2.06841E+07
 -1      1243 7.50960E+07 6.68623E+07-8.81804E+07-1.01986E+08 3.78034E+07-4.12265E+07
 -1      1244 5.56140E+07 2.27790E+07 1.10287E+07-3.43169E+07-4.00505E+06 1.07133E+06
 -1      1245 3.79814E+07 1.25105E+07-4.82304E+06-1.05483E+07 4.99158E+06-1.54580E+07
 -1      1246 2.24197E+07 1.12604E+07-1.58293E+07 1.30023E+07 1.25377E+07-1.52325E+06
 -1      1247-1.70375E+07 1.65580E+06-3.58661E+06-4.23920E+06-8.28266E+06-4.53733E+06
 -1      1248 1.10434E+09 1.02206E+09 9.04984E+08-4.90222E+08-9.75854E+08 1.06363E+09
 -1      1249 6.39834E+07-5.78837E+07 2.09550E+07 1.54302E+07-1.81573E+07 1.05934E+08
 -1      1250 8.81276E+07 4.39309E+07 6.16125E+07-8.49839E+06-4.02621E+07 6.77769E+07
 -1      1251 4.75291E+07-1.49954E+06 1.35744E+06-2.89339E+06-8.87320E+06-9.01908E+06
 -1      1252 2.61165E+07-7.66463E+06 8.41032E+06-3.95105E+06-5.14966E+06-2.45042E+07
 -1      1253 1.97417E+08 1.88083E+08 1.64611E+08 8.95840E+07-1.76853E+08-1.97403E+08
 -1      1254-1.04437E+07-3.18860E+07-2.53695E+07-1.05388E+07-4.09392E+07-2.50283E+07
 -1      1255-8.55558E+06-6.05114E+06-3.68371E+06-7.82082E+06-1.67698E+06-1.24307E+07
 -1      1256-1.45065E+07-1.43418E+06-1.06402E+06-3.79322E+06-1.14172E+06-1.58910E+07
 -1      1257-2.19337E+07 1.03747E+06 2.41700E+06-1.69153E+06 1.13988E+06-6.78477E+06
 -1      1258-3.30068E+07 1.94806E+06 3.24372E+06 2.57133E+06-3.34415E+06-7.86147E+06
 -1      1259-4.72989E+07-3.04210E+06-7.74650E+06 5.14146E+06-6.17709E+06 9.51734E+06
 -1      1260-7.38715E+07-1.28659E+07-2.56670E+07 5.56644E+06-1.60386E+07 1.98905E+07
 -1      1261-4.83186E+07 2.40251E+07 2.84474E+07 1.35777E+07 4.96357E+06 3.36745E+07
 -1      1262-1.17283E+08 2.46816E+06 2.47198E+06 3.25882E+07-2.25527E+07 6.90941E+07
 -1      1263-1.41524E+08-5.62130E+07-1.17283E+07 9.52387E+07-4.37409E+07 1.18741E+08
 -1      1264-2.35566E+08-2.86338E+08-3.31537E+08 1.41427E+08-4.81770E+08 4.22002E+08
 -1      1265-2.42610E+06-1.16357E+07 2.94892E+06-8.19957E+06-8.03376E+06-1.88019E+06
 -1      1266-1.23035E+07 1.53778E+06-1.90958E+06-8.55308E+06-4.73975E+05-6.84031E+06
 -1      1267-3.48537E+07-4.37782E+06-2.54206E+06 2.49655E+06 1.29018E+06-7.21400E+06
 -1      1268-6.50589E+07-1.33208E+07 3.15890E+06 2.14010E+07 3.51656E+06-8.83905E+06
 -1      1269-1.04917E+08-4.51441E+07-4.09615E+07 6.16847E+07-2.80086E+07 2.42436E+07
 -1      1270-5.26114E+07-1.83149E+08 2.16740E+06 9.74942E+07-1.15502E+08 3.86212E+07
 -1      1271-2.48596E+05 6.63606E+06 3.79249E+05-4.58863E+06 1.98256E+06-2.56397E+05
 -1      1272-3.03779E+06 9.53970E+06-4.48497E+06-1.08352E+07 5.57991E+06-2.56624E+06
 -1      1273-3.21052E+06 8.10174E+06 3.18793E+06-1.36237E+07 9.59826E+06-2.87317E+06
 -1      1274-1.26533E+07 1.28178E+06 9.44478E+05-5.87564E+06 7.83917E+06-4.42451E+06
 -1      1275-2.06691E+07-4.30720E+06 2.13188E+06 1.44086E+06 6.91705E+06-9.67786E+06
 -1      1276-3.55561E+07-1.47105E+07-3.79392E+06 1.53362E+07 1.84098E+06-4.28396E+06
 -1      1277-4.80418E+07-2.39976E+07-6.08817E+06 3.07899E+07-1.24536E+06-3.59815E+06
 -1      1278-5.02970E+07-3.66596E+07 7.13270E+06 4.95547E+07 5.26002E+06-1.06427E+07
 -1      1279-4.39089E+07-4.70220E+07 4.19151E+07 7.78053E+07 2.49486E+07-2.07200E+07
 -1      1280-4.39994E+07-1.04030E+08-4.36404E+07 6.42876E+07-2.67216E+07 2.13007E+07
 -1      1281-6.23862E+06-1.34912E+08-7.79677E+06 3.48344E+07-5.92801E+07 2.01375E+07
 -1      1282 1.02519E+06 3.23472E+07 1.03770E+06-5.02721E+06-7.83028E+06 1.28871E+06
 -1      1283 4.66526E+06 2.29136E+07-3.60144E+05-1.89852E+07 7.08498E+06-3.79291E+06
 -1      1284-7.10248E+06 2.73827E+06 9.31616E+04-3.37838E+06 7.49943E+06-8.32197E+06
 -1      1285-2.89890E+07-2.05032E+07-1.45510E+05 1.91484E+07 6.98741E+06-8.70126E+06
 -1      1286-3.31193E+07-4.87321E+07 6.27345E+06 5.14433E+07 1.32180E+07-3.63049E+06
 -1      1287 2.58230E+07-4.17095E+07 3.17526E+07 1.21797E+07-2.99490E+07-2.09880E+06
 -1      1288-5.74216E+06 4.47502E+07-9.54355E+06-9.90824E+06-6.63535E+06 2.99486E+06
 -1      1289 8.31136E+06 5.10137E+07 4.17894E+06-1.98203E+07 8.87210E+06 3.87104E+05
 -1      1290 1.22869E+07 3.67594E+07-3.98227E+06-2.61344E+07 1.24373E+07-4.28278E+06
 -1      1291 1.24543E+07 2.58650E+07-2.28260E+04-1.86261E+07 1.21426E+07-5.44571E+06
 -1      1292 7.96231E+06 1.39163E+07 5.12218E+04-1.05638E+07 1.08976E+07-7.22513E+06
 -1      1293-2.32389E+06-3.63396E+05-2.67626E+05 7.81911E+04 1.14314E+07-6.96431E+06
 -1      1294-1.36876E+07-1.57300E+07-1.89788E+06 1.08653E+07 1.07918E+07-8.37708E+06
 -1      1295-1.69029E+07-2.71183E+07-2.23400E+05 2.10722E+07 1.13729E+07-5.43666E+06
 -1      1296-2.02369E+07-4.26576E+07-6.84108E+06 3.37045E+07 6.22629E+06 1.91064E+06
 -1      1297-1.10463E+07-5.76628E+07 3.84736E+06 2.35272E+07 1.22155E+07-3.49549E+06
 -1      1298-1.47995E+07-6.83901E+07-3.06979E+07 6.83185E+06-2.03856E+07 1.18662E+07
 -1      1299 2.34159E+06 6.62626E+07 8.33124E+06-1.34135E+07-2.83471E+07 8.09656E+06
 -1      1300 2.55613E+07 5.64396E+07 4.14570E+06-4.10654E+07 4.93408E+06 2.64496E+06
 -1      1301 2.59268E+07 2.73862E+07 5.18136E+05-1.97464E+07 9.08536E+06-7.64829E+06
 -1      1302 5.83738E+06-6.95115E+05-1.23506E+05 2.76227E+06 9.15493E+06-8.91033E+06
 -1      1303-8.07773E+06-2.57397E+07-2.78860E+06 2.23680E+07 5.38722E+06-2.63646E+06
 -1      1304-2.70182E+06-3.51722E+07-6.48275E+06 7.50720E+06-1.41905E+07 3.37047E+06
 -1      1305 1.65651E+07 1.01606E+08 3.43921E+07-1.34255E+07-4.05621E+07 2.05151E+07
 -1      1306 1.97886E+07 9.11140E+07-4.97618E+06-4.08844E+07 9.06056E+06-2.75108E+06
 -1      1307 3.85674E+07 7.33692E+07 8.35374E+06-5.82631E+07 3.86615E+06 7.13929E+06
 -1      1308 4.29496E+07 5.47245E+07 2.81844E+05-4.09980E+07 1.04578E+07-4.57315E+06
 -1      1309 4.69539E+07 4.26203E+07 2.64805E+06-2.92766E+07 9.49894E+06-6.86547E+06
 -1      1310 3.46542E+07 2.61690E+07 5.78187E+05-1.70243E+07 1.04031E+07-6.87848E+06
 -1      1311 2.47871E+07 1.34114E+07 6.69296E+05-5.08390E+06 9.89031E+06-8.68742E+06
 -1      1312 1.32426E+07 2.15751E+06 2.25978E+05 4.65493E+06 1.12218E+07-5.95835E+06
 -1      1313 5.53512E+06-6.15483E+06 4.24926E+06 1.31651E+07 1.11832E+07-8.34380E+06
 -1      1314 5.18727E+05-1.57928E+07-3.99669E+06 1.06733E+07 9.71610E+06-7.67853E+05
 -1      1315 5.84294E+06-1.13989E+07 1.16139E+07 5.01044E+06 1.15746E+06-1.76729E+06
 -1      1316-3.29527E+07 6.60549E+07-3.86917E+07-2.27601E+07-5.61425E+07-5.04134E+06
 -1      1317 5.46480E+07 7.33618E+07-9.74733E+06-8.08197E+07 1.33517E+07-9.51402E+05
 -1      1318 6.25430E+07 4.15124E+07 3.05063E+05-3.88127E+07 6.57985E+06-7.43029E+06
 -1      1319 4.03799E+07 1.86931E+07-7.43082E+03-1.02779E+07 7.14014E+06-9.82378E+06
 -1      1320 1.50164E+07 2.56922E+06-1.39541E+06 1.16806E+07 7.73765E+06-7.23431E+06
 -1      1321-6.52777E+06-7.50941E+06-6.10669E+06 3.31652E+06-5.29007E+06 5.69775E+05
 -1      1322-2.11789E+06 1.61120E+08-2.20688E+06-4.96774E+07-9.99577E+07 2.91412E+07
 -1      1323 6.25111E+07 1.41046E+08 5.51030E+07-9.31546E+07-3.38328E+07 3.58968E+07
 -1      1324 6.84694E+07 6.20957E+07-5.58725E+07-1.17304E+08 2.48070E+07-2.54498E+07
 -1      1325 8.19695E+07 5.17971E+07-9.27007E+06-7.91958E+07 2.59938E+06-1.26951E+07
 -1      1326 8.43680E+07 3.90298E+07 7.41098E+06-5.38098E+07-4.68501E+06-3.14238E+05
 -1      1327 7.26464E+07 2.96501E+07 5.32704E+06-3.28990E+07-1.87483E+06-3.55315E+06
 -1      1328 5.63132E+07 1.91958E+07-2.16154E+06-1.37698E+07 3.68849E+06-1.19637E+07
 -1      1329 4.25580E+07 1.50917E+07-2.44563E+06-8.76367E+05 4.85212E+06-3.59585E+06
 -1      1330 2.51704E+07 1.00794E+07-1.01446E+07 1.30594E+07 8.99231E+06-2.78063E+06
 -1      1331 1.68297E+07 2.05237E+07 1.10610E+07 1.23069E+07-2.40708E+05-8.98298E+06
 -1      1332-3.22686E+06 2.04276E+07-3.15708E+06 7.11054E+06-7.68105E+06-6.45763E+06
 -1      1333 7.09473E+07 1.95507E+08 1.19292E+07-1.28700E+08-1.66615E+08 5.78841E+07
 -1      1334 1.46337E+08 6.00215E+07 5.69875E+07-9.51040E+07-2.87750E+07 3.97387E+07
 -1      1335 1.07834E+08 2.08948E+07-3.74455E+06-3.70573E+07 3.07727E+06-7.91716E+06
 -1      1336 7.60157E+07 1.23315E+07 3.46154E+06-1.12315E+07 8.04357E+05-6.18146E+06
 -1      1337 4.46773E+07 1.06370E+07 9.39464E+06 1.13186E+07-3.41652E+06-1.54140E+07
 -1      1338 1.14841E+07 3.24948E+07 9.35829E+05 2.24109E+07-2.67484E+07-1.29096E+07
 -1      1339 3.65559E+08 3.21851E+08 4.46157E+08-1.84193E+08-5.67940E+08 6.21967E+08
 -1      1340 2.35407E+08 6.84495E+07 1.87270E+05-1.30815E+08-5.27911E+07 1.64718E+08
 -1      1341 1.84367E+08 6.75475E+06 8.27818E+06-5.17012E+07-2.69262E+07 9.53701E+07
 -1      1342 7.47781E+07-3.46961E+07-4.23361E+07-2.05523E+07 2.19837E+06 5.24380E+07
 -1      1343 1.18014E+08 1.63955E+07 3.57159E+07-1.13571E+07-1.82169E+07 4.18254E+07
 -1      1344 8.62124E+07 3.55338E+06 1.16499E+07-1.07626E+07-8.99689E+06 2.28382E+07
 -1      1345 7.26603E+07-1.38504E+06-6.53432E+05-7.27057E+06-6.93119E+06-3.27991E+06
 -1      1346 4.96907E+07-7.40145E+06-9.62605E+06-5.81295E+05-1.08971E+06-3.62597E+06
 -1      1347 5.34818E+07 2.70666E+06 4.00706E+06 7.66433E+06-5.59244E+06-2.27102E+07
 -1      1348 5.02675E+07 1.37594E+07 1.30464E+06 2.32127E+07-9.94843E+06-3.02546E+07
 -1      1349 6.20867E+07 6.01943E+07 8.08667E+07 3.37228E+07-1.03264E+08-1.15708E+08
 -1      1350-2.80228E+06-2.13583E+07-8.35173E+06-1.00807E+07-1.43437E+07-8.88504E+06
 -1      1351-1.83198E+07-1.38917E+06 1.11449E+06-6.59128E+06-3.52167E+05-9.29737E+06
 -1      1352-4.55438E+07 3.43600E+05 2.36816E+06 2.42442E+06-1.72765E+06-4.34686E+06
 -1      1353-8.18936E+07-1.49180E+06 2.60181E+06 1.37775E+07-3.55984E+06 3.08608E+06
 -1      1354-1.56627E+08-6.01843E+06 7.91886E+06 6.01123E+07-1.09018E+07 2.87245E+07
 -1      1355-1.24957E+08-1.68085E+08-1.06250E+08 1.34948E+08-1.75356E+08 1.52247E+08
 -1      1356-1.08297E+06 9.03498E+06-8.87931E+05-8.08948E+06 3.59589E+06-1.02209E+05
 -1      1357-5.45783E+06 9.57076E+06 1.15753E+05-1.76460E+07 4.59154E+06-3.20558E+06
 -1      1358-2.93377E+07-7.72837E+06-5.95498E+05 2.49599E+06 2.71492E+06-4.40338E+06
 -1      1359-6.34160E+07-3.14442E+07-2.67134E+06 3.98402E+07 8.07131E+05-2.85507E+06
 -1      1360-7.36913E+07-7.68361E+07 3.21455E+06 1.00309E+08-3.29350E+06 4.07334E+06
 -1      1361-1.15506E+07-1.73907E+08 4.20617E+06 6.24077E+07-2.06355E+07 9.42727E+06
 -1      1362-1.45331E+06 6.48744E+07-3.17152E+06-1.46127E+07-2.53159E+06 2.48800E+06
 -1      1363 1.88100E+07 5.11912E+07 1.73917E+05-3.49257E+07 5.63347E+06-4.69680E+05
 -1      1364 1.08259E+07 1.81876E+07 2.39777E+05-1.39717E+07 6.41568E+06-4.23438E+06
 -1      1365-1.61742E+07-1.88933E+07 5.78902E+05 1.45398E+07 6.04750E+06-4.58462E+06
 -1      1366-2.59384E+07-5.62019E+07-3.04877E+06 4.39178E+07 4.11041E+06-7.35941E+05
 -1      1367-1.31571E+06-7.15414E+07 2.27732E+06 1.51618E+07-1.69990E+06 2.23563E+06
 -1      1368 1.31825E+06 1.13351E+08-3.32928E+06-2.77361E+07-1.21838E+07 4.77513E+06
 -1      1369 4.99954E+07 9.64010E+07 3.41713E+06-7.57630E+07 2.74117E+06 1.97461E+06
 -1      1370 5.94510E+07 5.38369E+07-3.89656E+05-3.89738E+07 5.24152E+06-3.72970E+06
 -1      1371 3.19536E+07 1.74238E+07 1.13518E+05-6.66786E+06 5.73403E+06-5.22394E+06
 -1      1372 4.96207E+06-1.04268E+07 1.71141E+05 1.77294E+07 5.35618E+06-3.11632E+06
 -1      1373 8.56825E+05-2.14080E+07 2.06600E+06 7.83003E+06 2.93176E+06 4.86863E+05
 -1      1374 7.99940E+06 2.13031E+08-1.00686E+07-8.88464E+07-4.30382E+07 1.43898E+07
 -1      1375 1.10226E+08 1.02723E+08-5.14338E+06-1.51272E+08-6.83141E+06 8.24939E+06
 -1      1376 1.12118E+08 5.13597E+07 3.99603E+06-6.98262E+07-1.10779E+06-1.18620E+06
 -1      1377 7.72530E+07 2.79266E+07 1.20541E+06-1.88628E+07 6.58385E+05-5.07530E+06
 -1      1378 3.67413E+07 1.71579E+07-1.04433E+06 1.67579E+07 1.91123E+06-6.39861E+06
 -1      1379-1.35934E+05 2.89790E+07-1.70871E+06 1.33773E+07-9.18466E+05-3.34563E+06
 -1      1380 2.12891E+08 1.75857E+08 1.43496E+08-1.79943E+08-2.08579E+08 2.29660E+08
 -1      1381 2.37664E+08 1.34969E+07-6.98413E+06-9.07478E+07-1.29872E+07 3.87573E+07
 -1      1382 1.33977E+08 6.52876E+05-4.62105E+06-2.45991E+07-4.61378E+06 1.15726E+07
 -1      1383 9.57177E+07-1.27474E+06-4.54849E+06-8.93476E+06-3.32795E+06 8.98394E+04
 -1      1384 6.86159E+07 2.98386E+06-2.03284E+06 1.33097E+07-2.70985E+06-1.14076E+07
 -1      1385 3.49956E+07 3.37587E+07 2.57860E+07 3.28414E+07-3.78418E+07-4.33891E+07
 -1      1386-1.49141E+06-1.80962E+07-5.64458E+06-1.07506E+07-7.17128E+06-3.23811E+06
 -1      1387-1.09475E+07-5.28457E+06-1.04573E+06-1.21135E+07 2.88971E+06-2.62714E+06
 -1      1388-2.34734E+07-2.72287E+06 9.94269E+05-9.89613E+06-1.55913E+06-5.10339E+06
 -1      1389-4.08197E+07-2.95028E+06-4.44282E+05-3.73897E+06-1.13728E+06 3.83048E+05
 -1      1390-5.89391E+07-1.59905E+06 2.85688E+06 2.55610E+06-1.83634E+06-1.79373E+06
 -1      1391-8.60251E+07-4.76625E+06-2.56272E+06 1.17474E+07-3.12441E+05 3.32738E+06
 -1      1392-1.01367E+08-1.42205E+06 6.16132E+06 2.23186E+07 2.36900E+06-4.36113E+06
 -1      1393-1.27265E+08 7.20840E+05-1.27297E+06 3.84993E+07-9.70499E+06 1.70354E+07
 -1      1394-2.09166E+08-2.03574E+07-2.29373E+06 9.19924E+07-2.73141E+07 1.96354E+07
 -1      1395-1.65066E+08-5.94831E+07 1.25194E+06 1.38546E+08 1.34947E+07 3.11069E+07
 -1      1396-1.08768E+08-1.45847E+08-7.37047E+07 1.43541E+08-8.22853E+07 6.68329E+07
 -1      1397-2.37729E+06-7.36377E+06 1.54975E+06-1.26236E+07-3.42980E+06 3.12944E+05
 -1      1398-1.87898E+07 2.16986E+06-7.14230E+05-1.60852E+07-1.47242E+06-9.72504E+04
 -1      1399-5.59166E+07-8.30811E+06 9.20865E+04 4.34458E+06 2.63254E+04-2.76102E+06
 -1      1400-1.01935E+08-2.06653E+07 4.64448E+06 4.01263E+07 3.36081E+06-6.75853E+06
 -1      1401-1.60194E+08-5.90558E+07-1.29106E+07 1.18827E+08-1.18701E+07-4.95340E+06
 -1      1402-5.89402E+07-2.03906E+08 6.44983E+06 1.40369E+08-3.07738E+07-1.11737E+07
 -1      1403-1.53513E+06 1.11488E+07-2.19219E+06-1.19050E+07 1.87471E+06-1.78917E+06
 -1      1404-2.70160E+06 1.60397E+07-1.31979E+06-1.89640E+07 2.55906E+06-9.45924E+05
 -1      1405-5.95744E+06 1.21561E+07 6.19083E+05-2.18131E+07 1.36350E+06-2.02827E+06
 -1      1406-1.95364E+07 1.59151E+06 7.55420E+05-9.26264E+06 7.85259E+05 1.50504E+05
 -1      1407-3.65740E+07-1.02833E+07-2.85642E+05 3.66246E+06-2.51422E+05-1.14035E+06
 -1      1408-5.70382E+07-2.42806E+07-3.25062E+05 2.55447E+07 5.70781E+04 1.06968E+06
 -1      1409-8.05847E+07-4.15613E+07-3.65442E+06 4.92564E+07-4.43090E+05 1.99376E+06
 -1      1410-8.56374E+07-6.10913E+07 5.14285E+06 7.80693E+07-3.29304E+06 1.81841E+06
 -1      1411-8.45623E+07-8.77558E+07 9.70429E+06 1.23544E+08-6.73222E+06 8.22508E+06
 -1      1412-5.82951E+07-1.63768E+08-1.35384E+07 1.20140E+08 3.33405E+06 9.67573E+06
 -1      1413-2.62421E+07-2.29749E+08-7.04458E+06 9.37176E+07-1.69579E+07 2.49643E+07
 -1      1414 2.65765E+06 5.35977E+07 9.52895E+04-1.29690E+07-6.52884E+06 8.73809E+05
 -1      1415 8.18042E+06 3.63160E+07-1.75373E+05-3.08253E+07-1.77764E+06-2.51203E+05
 -1      1416-1.19785E+07 3.44640E+06 1.77784E+05-5.83941E+06-2.13145E+05-1.17869E+06
 -1      1417-5.01151E+07-3.75991E+07-2.21249E+06 3.17344E+07 7.12250E+05-4.75857E+05
 -1      1418-5.59652E+07-8.41511E+07 5.14065E+06 8.01816E+07-1.11353E+06 3.82150E+06
 -1      1419 2.79637E+06-1.20112E+08-8.32518E+05 3.79976E+07-1.89146E+07 9.37336E+06
 -1      1420 1.11405E+06 8.43495E+07-2.90206E+06-2.01047E+07-1.31150E+05 3.47464E+06
 -1      1421 1.42177E+07 8.26350E+07 8.36367E+05-3.52490E+07 6.06916E+06 3.43791E+05
 -1      1422 2.36137E+07 6.34869E+07-4.01591E+05-4.40574E+07 2.38884E+05 1.55780E+06
 -1      1423 2.11470E+07 4.25121E+07-4.05126E+05-3.03944E+07 1.71128E+06 1.41096E+05
 -1      1424 1.37552E+07 2.23149E+07 3.02235E+05-1.73577E+07 1.70040E+06-6.77973E+05
 -1      1425-3.12528E+06-4.62300E+05 1.95134E+05 2.85335E+05 1.84476E+06 3.24793E+05
 -1      1426-1.97100E+07-2.31305E+07 1.49358E+06 1.81108E+07 1.27086E+06-8.13557E+05
 -1      1427-3.15175E+07-4.73464E+07-2.36537E+06 3.46056E+07 6.60636E+05-8.92467E+05
 -1      1428-3.44178E+07-7.19016E+07-4.09103E+06 5.45244E+07-2.23283E+06-2.11319E+05
 -1      1429-1.59363E+07-8.84154E+07 5.43468E+06 4.41465E+07 8.77078E+06-3.26789E+06
 -1      1430-5.34626E+05-8.71680E+07 5.84158E+06 2.40642E+07 6.08661E+06-3.40593E+06
 -1      1431 4.27877E+06 1.19335E+08 2.84363E+06-3.06763E+07-8.08580E+06 9.75598E+05
 -1      1432 4.17406E+07 9.15130E+07 2.82780E+05-6.76120E+07-2.62701E+06 9.81666E+05
 -1      1433 4.21756E+07 4.47501E+07-2.06762E+05-3.27041E+07-2.32368E+05-8.79735E+05
 -1      1434 9.51411E+06-7.58656E+05 9.04065E+04 4.72625E+06-3.91866E+05-1.42185E+06
 -1      1435-1.30194E+07-4.09692E+07-1.74325E+05 3.72560E+07-1.66883E+06-4.47198E+05
 -1      1436-4.01929E+06-6.32479E+07-2.71035E+06 1.66782E+07-4.62701E+06 3.07648E+04
 -1      1437 7.48554E+05 1.40073E+08-7.68818E+06-4.29055E+07 2.33457E+06-3.22435E+06
 -1      1438 2.98174E+07 1.43204E+08-6.40082E+06-7.53698E+07 1.01774E+07-4.72660E+06
 -1      1439 6.49164E+07 1.22066E+08 4.85472E+06-9.38796E+07-4.12831E+06 1.16001E+06
 -1      1440 7.52950E+07 9.30412E+07 3.06669E+06-6.76480E+07-7.01249E+04-1.61662E+06
 -1      1441 7.32860E+07 6.64180E+07-1.58401E+06-4.85003E+07 8.29908E+05-5.95046E+05
 -1      1442 5.67932E+07 4.26643E+07-1.99911E+05-2.81583E+07 1.20056E+06 1.48205E+05
 -1      1443 3.93229E+07 2.18093E+07-1.11145E+05-8.26725E+06 9.90217E+05-1.53559E+06
 -1      1444 2.18900E+07 3.87422E+06 8.59653E+05 7.44124E+06 1.40187E+06 6.30263E+05
 -1      1445 6.14970E+06-1.25927E+07 7.57992E+05 2.25321E+07 5.64083E+05-4.98042E+04
 -1      1446-5.54234E+05-2.56449E+07-1.28750E+06 1.94747E+07 5.01230E+06 1.08544E+06
 -1      1447-1.01819E+06-2.87351E+07 1.66762E+06 1.10182E+07 2.84079E+06 2.49122E+06
 -1      1448-3.67022E+06 1.71051E+08 1.19199E+06-6.25534E+07-2.55566E+07 1.32187E+07
 -1      1449 9.09961E+07 1.25044E+08-6.88240E+06-1.27939E+08-3.01205E+06 5.85915E+06
 -1      1450 1.06297E+08 7.32394E+07 3.06734E+06-6.39141E+07 1.66123E+06 7.21983E+05
 -1      1451 6.73354E+07 3.25846E+07 3.70980E+05-1.66646E+07 1.11987E+05-1.87681E+06
 -1      1452 2.43173E+07 6.46198E+06-8.69034E+05 1.85612E+07-8.87654E+05-2.05147E+06
 -1      1453-3.46916E+06-2.59600E+06-3.58489E+04 9.90291E+06-6.17904E+06-2.09403E+06
 -1      1454 2.62166E+07 2.82759E+08 4.45714E+06-1.34004E+08-2.83028E+07 3.63368E+07
 -1      1455 8.12669E+07 2.14975E+08 1.76724E+07-1.75837E+08 7.12504E+06 1.56632E+07
 -1      1456 1.27057E+08 1.18578E+08-1.34111E+07-1.86439E+08-1.20827E+07 1.15837E+07
 -1      1457 1.39542E+08 8.72792E+07-7.12995E+06-1.24302E+08-6.07077E+06 1.80992E+06
 -1      1458 1.41880E+08 6.65873E+07 5.26650E+06-8.63669E+07-9.91678E+05 4.80233E+06
 -1      1459 1.17438E+08 4.79754E+07 2.86260E+05-5.41887E+07-7.77536E+05 2.18091E+06
 -1      1460 9.65607E+07 3.56621E+07 9.85494E+05-2.41644E+07-1.57520E+06-1.43583E+06
 -1      1461 6.98800E+07 2.59690E+07-1.86390E+06-2.54427E+06-1.09214E+06 1.45427E+06
 -1      1462 4.34629E+07 2.00394E+07-2.54949E+06 2.05780E+07-7.71535E+05-3.87903E+06
 -1      1463 2.21131E+07 3.06280E+07 3.47832E+06 2.39634E+07 2.06464E+06-2.47720E+06
 -1      1464 2.96640E+06 3.99465E+07 1.48029E+06 2.06205E+07-1.41436E+06-7.43206E+06
 -1      1465 7.71753E+07 2.28794E+08-3.44188E+06-1.92931E+08-4.37587E+07-1.73391E+07
 -1      1466 2.28289E+08 7.89951E+07 1.81009E+07-1.76391E+08-1.36783E+07-4.79433E+06
 -1      1467 1.68578E+08 3.10855E+07-6.97838E+06-6.88313E+07 4.55076E+06-9.74033E+06
 -1      1468 1.21232E+08 1.98731E+07-9.73555E+05-1.92084E+07 7.14453E+05-3.48528E+06
 -1      1469 7.16406E+07 1.53455E+07 3.00666E+06 2.18449E+07-2.04157E+06-1.74487E+06
 -1      1470 1.32921E+07 3.80886E+07-1.23536E+06 3.28967E+07-7.62571E+06 1.46221E+06
 -1      1471 1.87602E+08 1.55945E+08 9.99170E+07-1.95900E+08-9.23981E+07 1.06414E+08
 -1      1472 2.67837E+08 7.74719E+07-7.78805E+06-1.94613E+08 1.57934E+07 4.32268E+07
 -1      1473 3.12637E+08 3.22799E+07 8.22560E+06-1.35230E+08-3.39638E+07 2.76547E+07
 -1      1474 1.90412E+08-4.15720E+06 8.98811E+05-5.96932E+07-1.34071E+07 2.54999E+07
 -1      1475 1.65961E+08 5.72025E+05-9.09674E+06-3.86655E+07 2.82635E+06-3.46492E+06
 -1      1476 1.54345E+08 6.12276E+06 4.65296E+06-2.42949E+07-1.02409E+06 6.34204E+06
 -1      1477 1.22067E+08 1.05848E+06-5.55135E+06-1.11288E+07-2.52818E+06 1.29306E+06
 -1      1478 9.88259E+07 1.60530E+06 2.48232E+05 5.65322E+05-3.89355E+06 4.63200E+05
 -1      1479 8.91957E+07 7.07722E+06 3.50787E+05 1.98283E+07-5.93372E+06-8.03056E+06
 -1      1480 6.19351E+07 1.63574E+07-8.60671E+05 3.34880E+07 3.19366E+06-6.68885E+06
 -1      1481 3.12808E+07 3.09370E+07 1.80947E+07 3.56455E+07-1.68188E+07-2.01843E+07
 -3
    1PSTEP                        27           1           1          
    1PGM                1.000000E+00                                  
    1PGK                1.579256E+12                                  
    1PHID                         -1                                  
    1PSUBC                         0                                  
    1PMODE                         7                                  
  100CL  107 200007.5647        1481                     2    7MODAL      1
 -4  TOSTRAIN    6    1
 -5  EXX         1    4    1    1
 -5  EYY         1    4    2    2
 -5  EZZ         1    4    3    3
 -5  EXY         1    4    1    2
 -5  EYZ         1    4    2    3
 -5  EZX         1    4    3    1
 -1         1-3.03295E+01 9.46948E+01 9.41450E-01 8.09456E+01-5.39955E+01-2.43810E+01
 -1         2 5.39708E+01 1.13321E+01-2.05839E+01 9.12074E+01 2.17578E+01-1.97808E+01
 -1         3 1.35232E+02-2.10076E+01-4.89954E+01 7.45120E+01-1.17393E+01-3.84256E+01
 -1         4 2.34525E+02-5.06097E+01-6.94783E+01 2.81523E+01-8.56307E+00 2.88413E+00
 -1         5 3.48772E+02-8.29645E+01-1.16515E+02-1.92459E+01-1.38265E+01-1.35057E+01
 -1         6 4.93959E+02-1.17873E+02-1.34464E+02-8.84507E+01-2.35249E+00 2.50532E+01
 -1         7 6.04081E+02-1.48444E+02-2.05542E+02-1.68046E+02 1.78372E+01-3.28367E+01
 -1         8 7.47710E+02-2.15950E+02-2.00938E+02-2.89877E+02-7.30728E+01 1.28267E+02
 -1         9 1.19308E+03-2.28538E+02-3.64546E+02-6.92648E+02-2.05659E+02 1.47843E+02
 -1        10 8.75064E+02 8.00902E+01-3.77209E+02-1.04317E+03 1.01607E+02 2.34217E+02
 -1        11 2.78199E+02 5.57381E+02 1.41902E+01-1.08078E+03-6.19560E+02 5.03212E+02
 -1        12 4.40805E+00 4.19533E+01-2.51603E+01 9.50486E+01-2.58244E+01 2.35629E+00
 -1        13 1.12926E+02-4.48881E+01-2.31726E+01 1.21112E+02-1.10864E+01-7.32238E-01
 -1        14 3.15389E+02-4.30750E+01-1.06324E+02-3.27121E+01 1.98215E-01-2.07889E+01
 -1        15 5.73233E+02-3.86833E+01-2.29251E+02-3.02127E+02 2.53049E+01-5.08877E+01
 -1        16 8.23785E+02 6.22738E+01-2.85173E+02-8.94695E+02-8.93751E+01-3.72962E+01
 -1        17 2.14842E+01 1.11299E+03-4.70864E+02-1.05690E+03-2.31709E+02-8.41317E+01
 -1        18 2.37822E+01-7.17202E+01 2.87295E+01 8.96374E+01 1.41155E+01-1.34714E+01
 -1        19 4.01364E+01-1.00975E+02 2.97321E+01 1.42788E+02 1.92682E+01-7.12225E+00
 -1        20 5.60853E+01-8.02992E+01 6.56793E+00 1.64240E+02 1.02664E+01-1.52716E+01
 -1        21 1.18786E+02-4.02952E+01-3.39999E+01 6.97422E+01 5.91254E+00 1.13320E+00
 -1        22 1.97734E+02-2.19996E-01-7.54965E+01-2.75762E+01-1.89306E+00-8.58617E+00
 -1        23 2.94992E+02 4.83462E+01-1.32025E+02-1.92336E+02 4.29764E-01 8.05404E+00
 -1        24 3.99555E+02 1.05731E+02-1.79685E+02-3.70872E+02-3.33621E+00 1.50118E+01
 -1        25 4.11599E+02 2.26782E+02-2.71923E+02-5.87816E+02-2.47947E+01 1.36915E+01
 -1        26 3.68870E+02 3.92915E+02-3.40902E+02-9.30214E+02-5.06896E+01 6.19300E+01
 -1        27 5.08786E+01 8.45026E+02-2.86113E+02-9.04580E+02 2.51034E+01 7.28526E+01
 -1        28-2.35647E+02 1.29664E+03-3.80193E+02-7.05638E+02-1.27683E+02 1.87967E+02
 -1        29 7.28023E+01-3.10746E+02 9.20953E+01 9.76488E+01-4.91583E+01 6.57927E+00
 -1        30 1.14057E+01-2.00439E+02 7.43199E+01 2.32096E+02-1.33846E+01-1.89141E+00
 -1        31 7.64312E+01-3.97095E+01-1.50987E+01 4.39673E+01-1.60486E+00-8.87481E+00
 -1        32 2.29222E+02 1.34985E+02-1.31456E+02-2.38941E+02 5.36282E+00-3.58292E+00
 -1        33 1.99072E+02 4.11295E+02-2.61019E+02-6.03720E+02-8.38422E+00 2.87736E+01
 -1        34-2.15652E+02 7.09776E+02-1.88329E+02-2.86100E+02-1.42415E+02 7.05759E+01
 -1        35 1.27595E+02-4.99118E+02 1.57834E+02 1.51377E+02-9.87484E-01 2.61620E+01
 -1        36 5.38488E+01-4.61293E+02 1.54602E+02 2.65404E+02 4.56972E+01 2.58854E+00
 -1        37-3.49989E+01-3.35221E+02 1.45822E+02 3.31726E+02 1.79866E+00 1.17293E+01
 -1        38-5.50413E+01-2.15908E+02 1.07233E+02 2.28852E+02 1.28850E+01 1.06237E+00
 -1        39-4.36612E+01-1.08111E+02 5.76317E+01 1.30693E+02 1.28030E+01-5.10474E+00
 -1        40 1.79440E+01-2.10671E+00-7.05680E+00-2.14840E+00 1.38900E+01 2.44550E+00
 -1        41 8.03037E+01 1.06058E+02-7.93465E+01-1.36364E+02 9.56882E+00-6.12560E+00
 -1        42 1.03519E+02 2.22701E+02-1.15979E+02-2.60560E+02 4.97420E+00-6.71975E+00
 -1        43 7.72934E+01 3.59524E+02-1.51049E+02-4.10536E+02-1.68119E+01-1.59111E+00
 -1        44-4.29311E+01 5.02794E+02-2.03842E+02-3.32397E+02 6.60388E+01-2.46053E+01
 -1        45-1.30804E+02 5.21494E+02-1.78814E+02-1.81189E+02 4.58286E+01-2.56446E+01
 -1        46 1.76066E+02-6.90240E+02 1.86872E+02 2.30974E+02-6.08813E+01 7.34568E+00
 -1        47-9.43396E+01-4.69097E+02 2.17813E+02 5.09079E+02-1.97799E+01 7.39137E+00
 -1        48-1.74726E+02-1.94110E+02 1.44388E+02 2.46243E+02-1.74960E+00-6.62389E+00
 -1        49-5.70660E+01 2.02819E+01 1.38889E+01-3.55859E+01-2.95052E+00-1.07057E+01
 -1        50 8.81911E+00 2.19265E+02-8.78971E+01-2.80516E+02-1.25653E+01-3.36714E+00
 -1        51-8.49941E+01 3.60962E+02-9.48497E+01-1.25577E+02-3.48387E+01 2.31641E-01
 -1        52 2.13642E+02-8.35386E+02 2.77165E+02 3.23053E+02 1.75780E+01-2.42775E+01
 -1        53 4.99264E+01-8.03807E+02 3.22628E+02 5.67491E+02 7.66299E+01-3.55885E+01
 -1        54-1.72815E+02-6.03118E+02 2.79414E+02 7.06858E+02-3.10838E+01 8.73418E+00
 -1        55-2.84616E+02-4.18235E+02 2.59220E+02 5.09349E+02-5.27999E-01-1.21722E+01
 -1        56-3.24309E+02-2.72596E+02 2.39418E+02 3.65178E+02 6.24872E+00-4.48035E+00
 -1        57-2.64136E+02-1.57754E+02 1.64988E+02 2.12015E+02 9.03954E+00 1.11590E+00
 -1        58-1.95573E+02-6.37061E+01 1.01342E+02 6.22475E+01 7.45575E+00-1.15621E+01
 -1        59-1.20968E+02 1.46804E+01 3.73784E+01-5.60282E+01 1.05552E+01 4.74551E+00
 -1        60-5.56672E+01 8.54520E+01-1.50708E+01-1.69654E+02 4.24721E+00-3.74996E-01
 -1        61-4.10990E+01 1.47819E+02-3.55779E+01-1.46633E+02 3.77397E+01 8.17270E+00
 -1        62-3.85923E+01 1.70099E+02-5.88149E+01-8.29607E+01 2.13895E+01 1.87574E+01
 -1        63 3.05284E+02-1.01026E+03 2.68674E+02 4.70991E+02-1.92426E+02 9.95291E+01
 -1        64-3.40651E+02-5.97015E+02 3.96316E+02 9.63302E+02-2.26790E+01 4.41159E+01
 -1        65-4.99593E+02-2.50691E+02 2.77663E+02 4.81236E+02 1.25081E+01 5.43611E+00
 -1        66-3.41811E+02-8.01577E+01 1.62392E+02 1.25475E+02 8.43198E-01-1.41313E+01
 -1        67-1.33831E+02 6.09005E-01 5.58072E+01-1.39755E+02-6.68351E+00-1.54463E+01
 -1        68 1.60720E+01 9.49765E+00-9.77880E+00-7.45631E+01-4.65246E+01-1.57668E+01
 -1        69 3.18847E+02-1.61277E+03 4.82683E+02 1.00897E+03-2.13103E+02 2.73595E+02
 -1        70-9.48562E+01-1.10160E+03 3.83973E+02 1.32395E+03 5.36473E+01 1.17935E+02
 -1        71-5.74180E+02-5.10337E+02 4.83465E+02 1.40378E+03-9.09753E+01 8.72182E+01
 -1        72-6.88825E+02-2.95316E+02 4.15529E+02 9.35921E+02-4.57093E+01 1.36276E+01
 -1        73-7.16238E+02-1.49332E+02 3.12378E+02 6.50292E+02-7.46675E+00 3.61587E+01
 -1        74-6.11323E+02-8.83089E+01 2.70762E+02 4.08009E+02-5.85439E+00 1.64210E+01
 -1        75-5.07643E+02-4.91126E+01 2.11982E+02 1.81944E+02-1.18603E+01-1.08110E+01
 -1        76-3.71356E+02-4.07321E+01 1.68833E+02 1.91569E+01-8.22316E+00 1.09498E+01
 -1        77-2.26857E+02-5.04921E+01 1.19589E+02-1.54941E+02-5.80921E+00-2.92068E+01
 -1        78-7.39021E+01-1.38014E+02 6.64070E+01-1.80430E+02 1.55455E+01-1.86518E+01
 -1        79 5.07829E+01-2.27655E+02 6.19724E+01-1.55260E+02-1.06493E+01-5.59590E+01
 -1        80-8.28052E+01-1.22440E+03 5.24195E+02 1.45266E+03-3.29477E+02-1.30553E+02
 -1        81-1.18296E+03-5.88579E+01 3.99639E+02 1.32812E+03-1.02990E+02-3.60985E+01
 -1        82-9.51932E+02 8.33091E+01 3.69907E+02 5.18259E+02 3.42646E+01-7.33390E+01
 -1        83-6.82002E+02 8.11727E+01 2.38136E+02 1.44628E+02 5.37941E+00-2.62421E+01
 -1        84-3.91188E+02 3.26810E+01 1.25585E+02-1.64480E+02-1.53718E+01-1.31378E+01
 -1        85-1.74894E+01-2.04192E+02 9.18938E+01-2.47693E+02-5.74171E+01 1.10096E+01
 -1        86-6.82121E+02-4.43762E+02-2.19052E+01 1.47501E+03-6.95703E+02 8.01235E+02
 -1        87-1.46074E+03-2.74004E+01 6.14557E+02 1.46532E+03 1.18915E+02 3.25472E+02
 -1        88-1.77233E+03 3.38598E+02 5.19713E+02 1.01820E+03-2.55727E+02 2.08224E+02
 -1        89-1.12543E+03 3.39554E+02 3.01485E+02 4.49455E+02-1.00948E+02 1.91999E+02
 -1        90-9.90285E+02 2.55001E+02 3.27801E+02 2.91128E+02 2.12807E+01-2.60888E+01
 -1        91-8.90163E+02 2.25863E+02 2.36929E+02 1.82926E+02-7.71081E+00 4.77518E+01
 -1        92-7.25440E+02 1.85681E+02 2.35450E+02 8.37930E+01-1.90357E+01 9.73598E+00
 -1        93-5.78276E+02 1.53738E+02 1.63956E+02-4.25654E+00-2.93161E+01 3.48763E+00
 -1        94-5.12446E+02 1.05858E+02 1.56504E+02-1.49296E+02-4.46774E+01-6.04654E+01
 -1        95-3.38800E+02 4.37305E+00 1.34015E+02-2.52145E+02 2.40464E+01-5.03631E+01
 -1        96-1.03247E+02-1.00658E+02-3.96278E+00-2.68390E+02-1.26636E+02-1.51976E+02
 -1        97-3.24501E+01 1.07266E+02 9.33395E+00 7.59016E+01-1.08000E+02-6.68991E+01
 -1        98 1.07311E+02-2.01665E+01-3.90176E+01 4.96284E+01-2.65161E+00-7.00037E+01
 -1        99 2.72371E+02-7.31339E+01-8.83776E+01-1.82545E+01-1.30082E+01-3.27293E+01
 -1       100 4.83555E+02-1.21823E+02-1.52645E+02-1.03737E+02-2.68035E+01 2.32364E+01
 -1       101 9.24466E+02-2.09529E+02-3.14468E+02-4.52611E+02-8.20843E+01 2.16278E+02
 -1       102 2.83196E+02 6.07927E+02 1.42339E+02-1.01608E+03-1.32033E+03 1.14633E+03
 -1       103 1.97891E+01-5.63931E+01 1.83206E+01 6.09091E+01 2.70749E+01-7.69577E-01
 -1       104 4.80592E+01-6.50973E+01 6.09333E+00 1.32864E+02 3.45716E+01-2.41361E+01
 -1       105 1.58865E+02-3.84080E+00-5.75471E+01-1.87933E+01 2.04418E+01-3.31549E+01
 -1       106 3.16845E+02 7.61161E+01-1.40527E+02-2.99973E+02 6.07723E+00-2.14970E+01
 -1       107 3.12219E+02 3.35898E+02-2.66837E+02-7.55268E+02-2.47981E+01 3.06699E+01
 -1       108-2.11562E+02 1.01088E+03-3.30201E+02-4.69893E+02-1.55373E+02 7.09818E+01
 -1       109 1.10177E+02-3.89231E+02 1.23114E+02 1.10025E+02-1.90614E+01 1.87332E+01
 -1       110-2.60460E+01-2.69857E+02 1.14273E+02 2.62970E+02 4.24167E+01-3.53641E+00
 -1       111-3.33307E+01-8.87601E+01 4.63765E+01 1.05199E+02 4.83063E+01-3.18824E+01
 -1       112 6.49775E+01 8.54505E+01-6.11635E+01-1.09476E+02 4.55342E+01-3.45195E+01
 -1       113 5.49896E+01 2.82856E+02-1.17356E+02-3.30675E+02 3.09489E+01-5.54120E+00
 -1       114-1.06343E+02 4.22416E+02-1.33396E+02-1.14160E+02-1.27992E+01 1.68330E+01
 -1       115 1.73458E+02-6.70083E+02 2.08451E+02 2.08836E+02-9.17370E+01 3.59539E+01
 -1       116-1.29684E+02-4.79091E+02 2.21023E+02 5.70451E+02 2.06394E+01 1.48677E+01
 -1       117-2.61681E+02-2.19410E+02 1.88884E+02 2.93450E+02 3.94656E+01-2.80825E+01
 -1       118-1.59078E+02-4.96762E+01 8.06598E+01 5.02051E+01 4.31739E+01-3.93332E+01
 -1       119-4.60804E+01 6.97891E+01-1.00075E+01-1.33492E+02 4.03289E+01-2.34640E+01
 -1       120-3.68976E+01 1.30744E+02-4.60020E+01-5.89555E+01 2.20744E+01 3.66579E+00
 -1       121 2.87235E+02-1.25653E+03 4.23276E+02 6.68961E+02-3.24053E+02 1.08347E+02
 -1       122-4.87668E+02-4.31176E+02 3.80995E+02 1.13899E+03-5.14365E+01 6.21130E+01
 -1       123-5.68344E+02-1.10869E+02 2.45752E+02 5.25750E+02-8.34101E+00-8.93139E+00
 -1       124-4.06447E+02-3.50486E+01 1.66146E+02 1.42026E+02 4.95725E+00-3.82140E+01
 -1       125-1.89585E+02-4.21341E+01 9.49184E+01-1.26177E+02 1.43904E+01-4.81778E+01
 -1       126 4.57154E+01-1.73503E+02 5.75575E+01-1.00723E+02-6.91551E+00-2.51907E+01
 -1       127-7.26309E+02-4.47464E+02-2.03800E+02 1.35487E+03-1.57047E+03 1.72921E+03
 -1       128-1.38730E+03 3.00549E+02 4.54760E+02 6.83277E+02-9.77863E+01 2.91820E+02
 -1       129-7.94633E+02 2.09216E+02 2.48925E+02 1.85217E+02-3.47391E+01 8.71346E+01
 -1       130-5.72637E+02 1.57660E+02 1.82309E+02 6.72735E+01-2.50575E+01 6.76438E-01
 -1       131-4.02057E+02 9.21142E+01 1.29887E+02-1.00214E+02-2.04036E+01-8.58926E+01
 -1       132-1.07783E+02-9.84698E+01-3.84402E+01-2.47277E+02-2.84927E+02-3.26694E+02
 -1       133-3.28698E+01 1.28578E+02 7.95129E+01 7.93506E+01-3.08248E+02-1.88449E+02
 -1       134 3.42930E+01 1.54361E+01-2.38925E+00 5.88862E+01-1.26267E+01-9.35957E+01
 -1       135 8.12175E+01-1.72091E+01-1.99963E+01 2.85607E+01-8.59647E+00-1.19650E+02
 -1       136 1.34711E+02-3.82479E+01-4.86349E+01 1.27362E+01 8.58264E+00-5.10853E+01
 -1       137 2.02709E+02-6.04806E+01-7.02362E+01-1.93606E+01-2.51795E+01-5.91923E+01
 -1       138 2.60460E+02-7.27684E+01-3.73470E+01-3.87121E+01-4.65098E+01 7.16600E+01
 -1       139 3.71072E+02-8.82641E+01 8.12069E+00-4.19120E+01-1.20761E+02 1.49764E+02
 -1       140 3.70652E+02-1.74053E+02-2.07351E+02-1.02232E+02 3.73727E+01 2.53549E+02
 -1       141 6.98038E+02-2.03619E+02-2.03648E+02-2.45370E+02-1.69809E+02 5.20238E+02
 -1       142 7.20592E+02 7.82487E+01-2.56695E+02-7.17092E+02-3.29343E+02 8.94049E+02
 -1       143 3.68006E+02 7.50288E+02 1.09061E+03-1.06486E+03-3.62744E+03 3.17743E+03
 -1       144-3.64064E-02 6.93062E+01-4.05071E+01 6.17379E+01-6.04895E+01-1.41567E+01
 -1       145 7.17608E+01-3.24554E+01-6.49885E+00 6.43997E+01-3.56875E+00-5.15035E+01
 -1       146 1.93624E+02-3.58412E+01-4.96634E+01-1.87975E+01 9.71427E+00-5.43172E+01
 -1       147 3.65962E+02-2.35952E+01-1.47678E+02-1.61137E+02 2.64776E+01-6.65528E+01
 -1       148 4.75340E+02 2.52828E+01-6.21031E+00-4.64450E+02-2.10888E+02 1.82540E+02
 -1       149 1.13922E+01 9.94260E+02-4.01060E+02-7.34074E+02-8.69665E+02 2.90795E+02
 -1       150 1.30170E+01-3.88205E+01 8.28965E+00 3.45497E+01 1.49275E+01-1.93052E+00
 -1       151 2.61948E+01-6.85063E+01 3.70912E+01 8.15824E+01 4.20134E+01-1.93223E+01
 -1       152 3.74802E+01-4.76945E+01-1.06964E+01 1.02579E+02 7.22693E+01-2.16333E+01
 -1       153 7.80980E+01-2.68250E+01-2.42853E+01 4.42401E+01 5.90243E+01-3.33139E+01
 -1       154 1.18000E+02-5.19542E+00-5.36779E+01-1.08489E+01 5.20813E+01-7.28686E+01
 -1       155 1.78675E+02 2.17205E+01-6.04748E+01-1.15473E+02 1.38615E+01-3.22557E+01
 -1       156 2.33046E+02 5.20070E+01-8.28403E+01-2.31830E+02-9.37684E+00-2.70920E+01
 -1       157 2.47232E+02 1.44550E+02-1.85180E+02-3.73118E+02 3.96049E+01-8.01330E+01
 -1       158 2.49876E+02 2.73316E+02-3.96328E+02-5.85828E+02 1.87848E+02-1.56009E+02
 -1       159 1.55980E+01 4.67594E+02 1.28950E+01-4.84048E+02-2.01198E+02 1.60381E+02
 -1       160-1.98352E+02 7.70485E+02-1.86621E+02-2.62283E+02-4.46344E+02 1.51624E+02
 -1       161 4.89564E+01-1.86880E+02 4.88622E+01 3.78519E+01-5.89574E+01 9.70323E+00
 -1       162 9.70422E+00-1.27695E+02 4.75426E+01 1.42947E+02 5.33457E+01-2.85584E+01
 -1       163 4.64428E+01-2.76523E+01-7.73612E+00 2.54372E+01 5.64663E+01-6.26595E+01
 -1       164 1.36514E+02 7.26205E+01-8.06606E+01-1.44176E+02 5.26111E+01-6.55154E+01
 -1       165 1.24888E+02 2.42442E+02-1.71717E+02-3.87337E+02 9.95237E+01-2.73354E+01
 -1       166-1.68300E+02 3.40181E+02-2.12946E+02-9.17058E+01-2.25498E+02-1.58027E+01
 -1       167 9.17649E+01-2.88413E+02 1.20387E+02 7.46032E+01-4.99603E+01 2.25495E+01
 -1       168 4.20153E+01-2.79509E+02 7.31300E+01 1.49235E+02 6.68017E+01 2.91466E+00
 -1       169-1.82898E+01-2.02554E+02 1.04207E+02 1.96776E+02 9.36456E+01-3.22468E+01
 -1       170-3.06970E+01-1.31672E+02 6.32485E+01 1.40243E+02 9.14270E+01-4.10030E+01
 -1       171-2.38318E+01-6.86618E+01 3.57340E+01 7.95390E+01 8.20527E+01-5.44010E+01
 -1       172 1.26306E+01-2.13076E+00-2.85185E+00-5.88733E-01 8.60719E+01-5.24372E+01
 -1       173 5.14809E+01 6.68594E+01-3.72885E+01-8.18094E+01 8.12563E+01-6.30745E+01
 -1       174 5.43954E+01 1.31311E+02-7.11913E+01-1.58661E+02 8.56312E+01-4.09348E+01
 -1       175 3.75132E+01 2.06328E+02-6.33493E+01-2.53775E+02 4.68803E+01 1.43860E+01
 -1       176-2.36588E+01 3.27336E+02-1.35799E+02-1.77146E+02 9.19754E+01-2.63190E+01
 -1       177-7.61482E+01 3.27358E+02 4.35578E+01-5.14398E+01-1.53491E+02 8.93456E+01
 -1       178 1.09086E+02-3.72201E+02 6.39879E+01 1.00996E+02-2.13437E+02 6.09623E+01
 -1       179-5.05730E+01-2.83069E+02 1.10674E+02 3.09198E+02 3.71507E+01 1.99150E+01
 -1       180-1.06551E+02-1.17539E+02 8.47618E+01 1.48679E+02 6.84075E+01-5.75871E+01
 -1       181-3.56859E+01 1.35000E+01 9.19612E+00-2.07983E+01 6.89313E+01-6.70896E+01
 -1       182 5.28329E-01 1.33512E+02-3.92957E+01-1.68418E+02 4.05626E+01-1.98510E+01
 -1       183-5.27151E+01 1.91768E+02-2.42469E+01-5.65248E+01-1.06846E+02 2.53777E+01
 -1       184 1.26555E+02-5.13753E+02-7.67144E+00 1.01086E+02-3.05409E+02 1.54466E+02
 -1       185 2.54707E+01-5.11568E+02 2.11935E+02 3.07836E+02 6.82207E+01-2.07140E+01
 -1       186-9.22645E+01-3.54302E+02 1.35227E+02 4.38687E+02 2.91098E+01 5.37547E+01
 -1       187-1.62046E+02-2.50704E+02 1.59217E+02 3.08691E+02 7.87410E+01-3.44332E+01
 -1       188-2.01640E+02-1.69011E+02 1.31957E+02 2.20436E+02 7.15215E+01-5.16930E+01
 -1       189-1.59794E+02-9.59055E+01 9.67784E+01 1.28183E+02 7.83293E+01-5.17909E+01
 -1       190-1.22615E+02-3.69623E+01 5.89780E+01 3.82787E+01 7.44682E+01-6.54112E+01
 -1       191-7.39718E+01 9.49227E+00 2.40356E+01-3.50489E+01 8.44939E+01-4.48629E+01
 -1       192-3.56981E+01 5.23203E+01-2.60163E+01-9.91258E+01 8.42028E+01-6.28239E+01
 -1       193-3.56458E+01 8.71705E+01-1.64739E+00-8.03633E+01 7.31565E+01-5.78148E+00
 -1       194-3.40162E+01 9.58050E+01-7.74680E+01-3.77257E+01 8.71496E+00-1.33066E+01
 -1       195 2.38908E+02-5.06560E+02 2.82119E+02 1.71370E+02-4.22720E+02-3.79583E+01
 -1       196-2.16682E+02-3.57586E+02 2.68177E+02 6.08525E+02 1.00531E+02-7.16350E+00
 -1       197-2.99024E+02-1.40676E+02 1.69591E+02 2.92237E+02 4.95424E+01-5.59457E+01
 -1       198-2.06752E+02-4.34638E+01 9.73404E+01 7.73863E+01 5.37610E+01-7.39673E+01
 -1       199-8.63987E+01 7.32160E+00 3.71729E+01-8.79479E+01 5.82599E+01-5.44701E+01
 -1       200 1.59721E+01 2.33633E+01 1.28017E+01-2.49714E+01-3.98311E+01 4.29007E+00
 -1       201 2.74197E+02-9.54886E+02 2.74867E+02 3.74041E+02-7.52623E+02 2.19416E+02
 -1       202-4.46435E+01-6.35964E+02 1.11348E+01 7.01399E+02-2.54741E+02 2.70282E+02
 -1       203-3.92511E+02-3.44521E+02 5.43710E+02 8.83226E+02 1.86782E+02-1.91622E+02
 -1       204-4.12129E+02-1.84949E+02 2.74851E+02 5.96298E+02 1.95718E+01-9.55869E+01
 -1       205-4.19792E+02-7.84216E+01 1.59649E+02 4.05156E+02-3.52754E+01-2.36603E+00
 -1       206-3.69722E+02-4.59858E+01 1.37153E+02 2.47710E+02-1.41164E+01-2.67531E+01
 -1       207-3.03198E+02-2.37252E+01 1.37083E+02 1.03678E+02 2.77721E+01-9.00798E+01
 -1       208-2.29512E+02-2.27071E+01 1.09338E+02 6.59853E+00 3.65336E+01-2.70747E+01
 -1       209-1.48168E+02-3.45420E+01 1.17732E+02-9.83294E+01 6.77068E+01-2.09365E+01
 -1       210-4.69763E+01-7.47900E+01-3.54127E+00-9.26638E+01-1.81239E+00-6.76365E+01
 -1       211 4.74271E+01-1.30677E+02 4.69016E+01-5.35382E+01-5.78338E+01-4.86221E+01
 -1       212-7.56778E+01-1.01354E+03 3.68693E+02 9.69038E+02-1.25451E+03 4.35833E+02
 -1       213-6.68085E+02-1.81799E+01 4.66389E+00 7.16077E+02-2.16659E+02 2.99209E+02
 -1       214-6.06070E+02 4.85310E+01 2.34051E+02 2.79020E+02 2.31700E+01-5.96116E+01
 -1       215-4.21139E+02 5.83655E+01 1.25151E+02 8.45663E+01 6.05633E+00-4.65427E+01
 -1       216-2.29814E+02 2.64892E+01 3.58432E+01-8.52225E+01-2.57244E+01-1.16058E+02
 -1       217-1.24916E+01-1.70689E+02 6.69310E+01-1.68741E+02-2.01400E+02-9.72016E+01
 -1       218-8.85392E+02-5.56298E+02-1.49225E+03 1.38686E+03-4.27626E+03 4.68305E+03
 -1       219-1.27170E+03-1.46067E+01 4.99368E+02 9.84961E+02-3.97486E+02 1.24023E+03
 -1       220-1.05975E+03 2.77565E+02 2.66094E+02 3.89280E+02-2.02738E+02 7.18081E+02
 -1       221-5.66748E+02 2.57529E+02 3.15053E+02 1.54747E+02 1.65524E+01 3.94827E+02
 -1       222-6.08370E+02 1.56758E+02 1.12867E+01 8.55120E+01-1.37163E+02 3.14920E+02
 -1       223-4.82091E+02 1.40283E+02 7.93206E+01 8.10364E+01-6.77413E+01 1.71958E+02
 -1       224-4.30771E+02 1.26747E+02 1.21238E+02 5.47431E+01-5.21878E+01-2.46958E+01
 -1       225-3.20344E+02 1.09527E+02 1.26277E+02 4.37681E+00-8.20487E+00-2.73014E+01
 -1       226-3.03541E+02 7.87661E+01 6.89748E+01-5.77079E+01-4.21078E+01-1.70994E+02
 -1       227-2.70880E+02 4.00452E+00 9.77817E+01-1.74778E+02-7.49058E+01-2.27800E+02
 -1       228-1.32880E+02-1.18631E+02-2.74283E+02-2.53913E+02-7.77517E+02-8.71215E+02
 -1       229 5.39855E+01 3.11317E+02 9.28649E+01 2.15619E+02-5.29479E+02-3.37200E+02
 -1       230 4.37994E+01-3.47449E+01 5.69588E+00-1.42006E+00-8.91043E+00-1.35155E+02
 -1       231 1.34867E+02-5.43790E+01-5.08728E+01-8.18978E+00-2.18247E+01-9.20458E+01
 -1       232 2.09340E+02 5.27328E+01 1.02086E+02-1.66714E+01-2.62059E+02 2.70656E+02
 -1       233 2.77764E+02-4.15929E+02 6.15448E+01 1.23423E+02-1.17124E+02 5.69500E+02
 -1       234 2.00678E+03 2.71351E+03 1.27123E+03-2.86945E+03-6.23724E+03 5.50671E+03
 -1       235-8.35346E+00-4.58794E+01 1.73788E+01-5.87159E-01 1.33109E+01 1.29751E+01
 -1       236 3.38442E+01-1.68075E+01-3.09357E+01 7.91240E+01 9.56269E+01-2.72089E+01
 -1       237 8.54445E+01 1.78645E+00-5.35761E+01-1.28166E+01 6.66394E+01-9.24632E+01
 -1       238 1.49495E+02 7.00882E+00-1.76687E+01-1.47461E+02-4.02117E+00-3.04023E+01
 -1       239 3.07639E+02 3.55891E+02-5.64916E+02-5.29160E+02 2.94111E+02-2.32596E+02
 -1       240-3.60089E+02 2.91462E+02 1.10820E+02 1.16961E+02-4.83607E+02 9.26792E+01
 -1       241 9.65591E+01-2.00009E+02 1.04885E+02 4.06281E+01-5.44982E+01-1.81327E+00
 -1       242-2.37767E+01-1.45551E+02 1.00033E+02 1.38327E+02 1.16840E+02-4.09223E+01
 -1       243-1.64948E+01-4.66669E+01 2.48513E+01 5.35627E+01 1.03421E+02-6.89355E+01
 -1       244 3.13434E+01 4.20436E+01-2.04721E+01-5.09312E+01 9.65627E+01-7.33277E+01
 -1       245 1.75720E-02 1.26602E+02-5.15332E-01-1.61171E+02 5.18039E+01 8.09447E+00
 -1       246 4.66185E+01 1.68527E+02 1.51827E+02-3.97924E+01-2.79383E+02 2.20561E+02
 -1       247-5.78001E+01-2.90452E+02-1.40582E+02 5.37620E+01-4.87362E+02 3.37623E+02
 -1       248-2.69048E+01-2.27809E+02 3.88297E+01 2.85104E+02 2.92696E+01 5.55666E+01
 -1       249-1.32327E+02-1.10088E+02 8.43246E+01 1.43739E+02 8.35929E+01-5.88363E+01
 -1       250-8.18694E+01-2.46217E+01 3.92804E+01 2.69698E+01 9.23535E+01-8.39975E+01
 -1       251-1.15324E+01 4.43619E+01-4.82373E+01-7.02207E+01 1.06872E+02-7.63059E+01
 -1       252-6.90870E+01 7.59917E+01-8.75046E+01-1.29377E+01 4.81559E+00-6.19643E+01
 -1       253 5.27035E+02-3.98404E+02-6.79976E+01-1.22266E+02-8.39988E+02 1.55739E+02
 -1       254-4.76854E+02-4.14858E+02 7.52522E+02 7.67897E+02 2.84638E+02-3.10411E+02
 -1       255-2.71458E+02-2.42296E+01 6.42435E+01 2.58386E+02-3.01557E+01 8.06648E+00
 -1       256-2.10758E+02-1.89775E+01 1.11534E+02 7.94223E+01 3.75837E+01-1.16390E+02
 -1       257-1.39406E+02-5.53829E+01 1.48587E+02-9.79000E+01 9.44016E+01-1.14692E+01
 -1       258 9.70405E+01-4.37092E+01-4.23688E+00 3.19186E+01-6.23635E+01-3.41634E+01
 -1       259-3.32219E+03-2.70264E+03-1.82112E+03 3.69108E+03-7.34760E+03 8.00854E+03
 -1       260-4.37197E+02 4.80391E+02-1.13218E+02-1.16181E+02-1.36714E+02 7.97617E+02
 -1       261-3.44561E+02-1.17866E+01-1.44918E+02 6.39878E+01-3.03150E+02 5.10320E+02
 -1       262-2.79817E+02 8.93398E+01 6.78284E+01 2.17856E+01-6.68100E+01-6.79084E+01
 -1       263-1.52398E+02 1.01954E+02-1.90812E+01 2.97491E+01-3.87739E+01-1.84502E+02
 -1       264-5.80371E+02-5.10086E+02-3.33361E+02-6.74514E+02-1.33160E+03-1.48633E+03
 -1       265-3.43655E-04 8.95908E+02 1.90320E-04-2.28367E+01 3.79705E+02-4.83376E-04
 -1       266-2.75125E-04 6.25619E+02 2.36204E-04-2.59374E+01 1.94154E+02 3.83656E-04
 -1       267-2.53763E-04 3.93039E+02 1.78403E-04-2.39984E+01 1.48753E+02-1.74253E-04
 -1       268-2.69876E-04 2.43729E+02 1.63119E-04-9.14748E+00 1.13652E+01 3.19402E-04
 -1       269-3.18038E-04 1.48666E+02 2.76796E-04 7.98746E+00 4.98833E+01-2.23502E-04
 -1       270-3.26050E-04 1.66551E+02 1.80935E-04 4.61301E+00 5.01214E+01 1.30227E-04
 -1       271-9.61766E-04 2.18282E+02 8.13960E-04 6.47428E+00 1.98255E+02-4.72182E-04
 -1       272-1.44341E-03 4.84878E+02 7.12521E-04 2.60183E+01-1.01954E+02-4.68171E-04
 -1       273-1.36724E-03 9.58490E+02 6.96976E-04 6.21298E+01 2.65099E+02 1.18149E-03
 -1       274-1.56013E-03 1.97964E+03 1.30465E-03 9.39987E+01 2.92435E+02-2.47578E-03
 -1       275-2.33096E-03 3.22582E+03 2.33774E-03 1.22647E+02 1.08984E+03 2.76456E-03
 -1       276-2.10342E-03 5.08220E+03 2.19664E-03 1.69357E+02 1.18394E+03-3.24663E-03
 -1       277-1.21407E-03 7.25993E+03 2.27570E-03 2.86274E+02 2.51482E+03 2.04247E-03
 -1       278-2.69041E-03 1.02834E+04 3.24381E-03 2.78084E+02 3.17727E+03-4.23407E-03
 -1       279-4.10150E-03 1.34983E+04 2.72630E-03 1.66117E+02 5.19217E+03 4.83364E-03
 -1       280 1.53736E+01 6.64094E+02-7.05882E+01-2.58167E+02-6.60281E+00-6.30928E+01
 -1       281 3.86930E+01 3.08761E+02-5.70897E+01-1.63421E+02-1.92544E+01 1.44293E+01
 -1       282 3.52960E+01 1.42239E+02-3.10831E+01-3.54825E+01 1.01071E+01-8.21406E+00
 -1       283 9.04729E+01 1.40021E+02-6.67196E+01 9.86287E+01-6.71478E+00-8.75491E+01
 -1       284 2.00452E+02 9.22297E+02-3.18427E+02 6.71937E+02 4.71375E+00-1.00729E+02
 -1       285 1.73630E+02 2.61221E+03-3.86790E+02 1.30911E+03-4.97151E+01-2.35424E+02
 -1       286 4.16378E+02 5.56741E+03-8.00586E+02 2.24198E+03-2.31800E+02-3.31681E+02
 -1       287-2.91064E+01 1.01233E+04-9.52831E+02 3.02014E+03-1.55165E+01 9.39947E+02
 -1       288 8.39788E+01 4.37862E+01-1.41177E+02-4.57996E+02 3.05758E+02-5.87299E+00
 -1       289 1.04140E+02 2.53199E+01-1.27678E+02-3.72035E+02 1.86712E+02 1.81208E+00
 -1       290 1.18435E+02-1.33392E+01-1.14180E+02-2.77729E+02 7.53661E+01-1.98702E+01
 -1       291 1.21706E+02 1.78797E+01-8.81730E+01-1.63867E+02 7.46482E+01 2.14877E+01
 -1       292 1.16616E+02 5.17424E+01-6.21666E+01-6.56252E+01-1.11891E+01 6.98664E+00
 -1       293 1.23337E+02 4.29531E+01-9.78032E+01-7.68201E+00 3.78816E+01-2.46647E+01
 -1       294 2.68368E+02 3.25324E+01-1.33440E+02 1.19672E+02-3.12396E+01 5.21874E+01
 -1       295 5.82810E+02 3.70424E+02-3.85148E+02 7.25064E+02 1.98611E+02 1.31292E+02
 -1       296 6.45045E+02 7.31723E+02-6.36856E+02 1.34270E+03-2.42069E+02 7.25016E+01
 -1       297 6.30148E+02 5.66760E+02-7.05220E+02 1.73562E+03 5.68480E+02-3.64665E+01
 -1       298 6.17226E+02 4.23217E+02-7.73584E+02 2.17245E+03 8.21145E+02-1.77753E+02
 -1       299 8.98011E+02 1.59517E+02-1.18738E+03 3.02319E+03 1.25676E+03 2.26385E+02
 -1       300 1.27406E+03 1.21113E+02-1.60118E+03 3.90552E+03 1.70689E+03 5.70737E+01
 -1       301 9.54151E+02 5.31447E+02-1.75342E+03 4.73465E+03 2.90615E+03-2.38043E+02
 -1       302 5.39023E+02 7.26229E+02-1.90567E+03 5.46147E+03 4.69754E+03 3.03200E+02
 -1       303 1.69376E+02-5.75721E+02 5.44258E+01-3.22286E+02 9.35464E+01-4.37727E+01
 -1       304 2.58191E+02-3.24742E+02 4.60170E+00-1.76536E+02 3.04651E+01-9.00374E+00
 -1       305 1.45907E+02-4.24835E+01-6.12194E+01 1.50977E+01 3.50237E+00 1.72160E+01
 -1       306 8.43388E+01-2.16546E+01-4.10525E+01-1.86590E+01-2.66504E+01 1.41464E+01
 -1       307 4.46404E+02 5.79215E+02-4.48827E+02 4.85096E+02 1.41018E+02-2.68919E+02
 -1       308 1.48097E+03-2.13145E+03 1.38279E+01 8.79375E+02-2.98276E+02 1.61410E+02
 -1       309 1.77236E+03-4.42283E+03 5.34713E+02 2.68348E+03 3.72971E+01 3.00382E+02
 -1       310 1.76553E+03-9.03034E+03 1.13184E+03 3.33947E+03 4.86006E+02-1.53251E+02
 -1       311-6.39860E+01 1.27050E+01-1.52095E+01 6.24765E+02-1.02979E+02-1.42772E+02
 -1       312-8.67565E+01-2.28920E+02 1.17409E+02 4.36787E+02 6.06418E+01-1.42877E+02
 -1       313 1.35810E+02-5.89973E+02 2.50028E+02 6.99324E+01 1.94550E+01-6.75794E+01
 -1       314 3.15449E+02-5.67794E+02 1.86706E+02-1.31634E+02 4.01189E+01 1.05880E+01
 -1       315 3.81373E+02-5.26057E+02 1.23383E+02-1.47035E+02-3.06724E+01-6.02349E+00
 -1       316 3.07881E+02-2.01002E+02 3.15554E+01 7.83427E+01-1.19474E+01 3.66676E+01
 -1       317 1.58963E+02-5.26407E+01-6.02721E+01 9.29762E+01 4.77821E+01 8.05762E+01
 -1       318 6.06336E+01-1.84679E+00-4.46870E+00 3.95657E+01-2.19682E+01-4.86238E+01
 -1       319 1.98238E+01-1.73883E+01 5.13347E+01-1.86032E+01 5.83701E+01 5.40664E+01
 -1       320 5.01293E+02 7.35469E+02-2.60796E+02-9.12149E+02 2.53768E+02-5.46300E+02
 -1       321 1.06256E+03-1.01934E+03 2.70221E+02-8.61601E+02 8.20081E+01-8.59569E+00
 -1       322 2.56706E+03-4.11946E+03 8.01240E+02-9.19877E+01-8.06125E+01-1.92417E+02
 -1       323 2.48633E+03-5.44156E+03 1.73592E+03 6.44569E+02 4.30230E+02-2.37212E+02
 -1       324 2.00048E+03-6.58871E+03 2.67060E+03 1.12234E+03 8.32009E+02 2.73312E+02
 -1       325 2.39854E+03-8.47561E+03 3.41998E+03 1.38302E+02 5.16780E+02 1.79514E+01
 -1       326 1.63871E+03-9.90109E+03 4.16935E+03-1.97250E+03 5.58133E+02 3.81617E+02
 -1       327-4.49611E+02-4.03722E+03 1.94923E+03-6.29708E+03 1.06587E+03 2.26052E+03
 -1       328-3.55153E+02-2.75310E+02-2.70875E+02-8.32284E+03-1.46939E+03 1.89145E+03
 -1       329-3.67644E+02-1.82247E+00 1.82465E+02 5.18868E+02-2.00382E+02 1.12008E+02
 -1       330-1.65302E+02-3.99563E+02 2.15209E+02 3.94120E+01-5.46500E+01-5.17496E+01
 -1       331 1.57232E+01-6.32198E+02 8.81414E+01-4.94655E+02-1.07953E+02-1.57935E+01
 -1       332 2.11999E+03-4.35843E+03 6.49081E+02-1.05203E+03 9.06425E+02-9.07402E+02
 -1       333 2.44284E+03-8.53676E+03 1.75177E+03 3.07566E+02-1.52535E+02-1.07623E+02
 -1       334-1.08187E+03-6.96104E+03 3.24257E+03-9.68895E+02-1.37363E+02 6.27800E+02
 -1       335-3.92526E+03-7.10287E+02 2.03395E+03-6.55636E+03-2.27782E+03-1.20942E+03
 -1       336 1.10914E+03-2.12414E-04 2.18726E-04-5.15838E+00-2.12209E-04 3.86725E+02
 -1       337 8.36496E+02-3.87312E+00-7.30230E+01-2.02250E+02-6.31082E+01-9.91377E+00
 -1       338 4.28311E+01 2.86853E+01-1.46046E+02-3.63103E+02-1.22673E+01 3.86314E+02
 -1       339-7.87130E+02 8.96298E+01 1.17047E+02-1.69766E+02 1.84836E+01 6.63218E+00
 -1       340-8.63834E+02 9.05508E+01 3.80139E+02 2.44055E+02-2.18253E+01 7.84242E+01
 -1       341-6.61443E+02-1.77525E+01 2.80265E+02 1.31193E+02-1.03231E+01-3.15690E+01
 -1       342-4.13561E+02-2.88846E+01 1.80391E+02-6.11882E+01 6.62010E+01 3.37075E+00
 -1       343-2.66738E+02-6.73706E+01 1.16646E+02-3.57823E+02-3.04367E+02-1.01877E+01
 -1       344-2.81524E+02 8.10406E+01 5.29001E+01-6.24717E+02-2.44458E+02-1.55178E+02
 -1       345 2.11326E+03-2.57992E+03 4.96923E+02-3.24763E+03-7.22705E+02-1.40583E+03
 -1       346 4.13469E+03-5.45047E+03 6.64938E+02-3.03877E+03-1.66482E+03-5.13756E+02
 -1       347 3.33632E+03-6.78137E+03 8.32948E+02 8.61489E+02-1.47366E+03 1.07344E+03
 -1       348 1.21614E+03-5.37506E+03 1.57437E+03 1.98385E+03-2.89104E+03 3.33624E+02
 -1       349-2.93918E+03-2.73230E+03 2.31579E+03 1.07681E+03 4.15710E+02-1.15975E+02
 -1       350-7.32228E+03-1.03284E+03 3.32729E+03-1.28213E+03-2.71879E+02 7.28932E+02
 -1       351-9.97166E+03 1.50234E+03 4.33878E+03-2.72925E+03-8.11356E+02-5.74718E+02
 -1       352-9.53297E+03 1.79829E+03 1.14861E+03 3.12961E+03-3.52555E+02-7.45011E+02
 -1       353 6.85222E+02 7.55892E+02-2.04158E+03 5.71619E+03-2.05778E-01-4.82310E+03
 -1       354 1.04621E+04 9.98301E+01-1.02079E+03 3.15368E+03-7.48409E+02 2.49580E+02
 -1       355 1.38820E+04-2.93712E-03 3.06704E-03 1.96440E+02-4.26448E-03-5.15691E+03
 -1       356 8.88226E+02-1.45775E-04 2.52049E-04-1.37521E+01 1.12469E-04 2.72104E+02
 -1       357 5.28124E+01 4.82898E+01-1.36243E+02-3.32000E+02 1.76154E+01 2.50403E+02
 -1       358-7.49670E+02 1.22194E+02 3.21853E+02 9.74877E+01 5.54041E+00 2.95334E+01
 -1       359-6.34679E+02 1.80479E+02 1.81065E+02 4.75029E+01-1.01775E+02-1.46294E+02
 -1       360-2.27005E+02 1.26666E+03-1.93445E+02 1.59174E+02-1.02459E+02-8.95402E+01
 -1       361 4.24718E+03 5.91355E+03-2.48949E+03-3.86278E+03-3.61352E+02-1.04652E+02
 -1       362-4.23856E+03-1.17613E+03 2.01159E+03 2.76497E+03-1.16741E+03 3.31023E+03
 -1       363-9.43926E+03 3.34538E+03 3.58830E+03-5.61398E+02 1.73642E+02-5.70225E+02
 -1       364 7.73655E+02 8.84866E+02-1.90634E+03 4.83410E+03 7.69479E+01-2.98229E+03
 -1       365 1.04804E+04-2.49871E-03 3.52672E-03 2.69459E+02 2.45011E-03-3.13525E+03
 -1       366 6.71024E+02-6.59471E-06 1.68061E-04-1.74448E+01-1.63556E-04 2.28190E+02
 -1       367 5.18771E+02 9.33478E+00-6.32199E+01-1.65003E+02 3.45531E+01-1.32935E+01
 -1       368 4.62363E+01 4.49768E+01-1.26440E+02-2.93073E+02 1.45324E+01 1.67006E+02
 -1       369-3.60804E+02 4.49863E+01 6.85630E+01-1.49896E+02-2.13100E+01-1.36245E+01
 -1       370-5.42447E+02 5.34282E+01 2.63566E+02 3.18161E+01-8.63739E+00 9.93208E+01
 -1       371-6.75929E+02 3.94503E+01 2.22652E+02 1.83338E+02 6.03909E+01-2.06408E+01
 -1       372-6.78467E+02 1.09465E+02 1.81738E+02 2.80653E+02-6.24819E+01-5.51520E+01
 -1       373-2.47476E+02 7.48428E+02-1.29026E+02 5.95420E+02 3.11058E+01 1.08081E+02
 -1       374 1.37000E+02 9.65733E+02-2.78382E+02 6.15936E+02-4.16180E+02-3.33988E+02
 -1       375 7.40125E+01 1.08561E+02-1.07950E+02 1.22095E+02-4.88400E+00-1.31746E+02
 -1       376 8.63474E+00-5.29231E+01 4.95172E+01-3.00773E+01 2.26963E+01-1.53145E+02
 -1       377 3.64881E+01-6.80568E+01 2.16760E+01 8.05747E+00-9.56738E+00-8.02309E+01
 -1       378 7.23582E+01-4.91564E+01 1.41487E+01 1.93909E+00-1.50974E+01-7.49670E+01
 -1       379 1.29433E+02 5.69151E+01-9.04072E+01-7.06233E+01-4.23811E+01 9.55561E+01
 -1       380 3.82996E+01 2.06061E+02-1.55819E+02 8.22507E+00-4.22127E+01 1.52744E+02
 -1       381 3.84338E+01-3.96598E+02 1.68285E+02 1.24917E+02-1.16608E+02 4.29075E+02
 -1       382-9.38301E+01-6.68320E+02 7.95665E+02 4.81078E+02 1.33257E+02 7.25610E+02
 -1       383 1.71036E+03 9.98993E+02-1.49635E+03-1.59879E+03-3.12960E+02 8.18517E+02
 -1       384 6.54051E+03 7.86211E+03-3.66400E+03-7.81410E+03-5.47323E+03 4.66818E+03
 -1       385 7.45204E+03 3.46274E+03-2.05227E+03-4.64268E+03-8.96293E+02 3.36867E+02
 -1       386-2.96787E+03-2.34050E+03 1.70738E+03 3.71117E+03-1.79439E+03 1.66727E+03
 -1       387-1.04564E+04 2.53155E+02 2.27259E+03 2.79099E+03 5.51976E+02 1.00995E+03
 -1       388-7.47028E+03 3.31307E+03 2.83780E+03-3.85569E+02-9.29127E+01-4.27427E+02
 -1       389-4.09743E+03 1.93354E+03 5.33347E+02 1.48437E+03-2.54112E+02-3.24955E+02
 -1       390 6.32205E+02 8.77271E+02-1.77111E+03 3.91126E+03-6.09859E+01-1.44655E+03
 -1       391 5.87852E+03 2.45596E+02-8.85553E+02 2.34214E+03 3.64459E+02 3.29317E+02
 -1       392 7.43258E+03-1.86010E-03 3.18060E-03 3.10238E+02-2.09791E-03-2.34095E+03
 -1       393 5.03640E+02-1.94200E-05 1.69360E-04-2.31609E+01 3.56626E-04 1.47084E+02
 -1       394 4.86698E+01-3.05450E+00-9.15464E+01-2.96712E+02-3.34392E+01 1.03784E+02
 -1       395-3.69035E+02-1.12884E+01 2.00144E+02 4.91531E+01-1.33342E+01 2.75340E+01
 -1       396-4.19024E+02 7.92844E+01 1.27460E+02 4.26657E+02 9.70938E+01-1.23651E+02
 -1       397 2.89110E+01 2.10954E+02-1.24197E+02 1.20637E+02-2.88509E+00-1.07410E+01
 -1       398 1.53605E+01 1.00558E+00 2.00391E+01-1.82209E-01 4.72953E+01-5.65207E+01
 -1       399 6.08838E+01-1.05140E+01 6.92072E+00 2.01895E+00 3.29431E+01-9.18194E+01
 -1       400 1.51102E+02 4.54544E+01-1.51122E+02-6.13884E+01-2.12370E+01-2.37563E+01
 -1       401-1.70326E+02 1.32646E+02 4.25978E+02 4.30325E+01 2.15167E+02-1.37304E+02
 -1       402 7.90742E+02 2.18119E+03-1.60216E+03-1.56902E+03-5.73860E+02 2.52333E+02
 -1       403-1.59243E+03 1.41977E+03 1.00259E+03-1.99290E+03 1.11836E+02 9.56798E+01
 -1       404 1.47106E+03 7.32146E+02-1.59932E+03 3.35197E+03-8.54332E+01-1.13895E+03
 -1       405 4.89829E+03-1.68897E-03 2.95874E-03 2.34096E+02 5.38773E-03-9.31055E+02
 -1       406 3.24180E+02 5.34134E-04-1.28949E-04-3.51549E+01 9.37918E-05 4.38276E+01
 -1       407 2.26530E+02-2.26365E+01-2.83263E+01-1.82433E+02 9.90458E+01-4.10129E+01
 -1       408 5.56963E+01-1.12354E+02-5.66524E+01-2.99994E+02-3.42764E+00 1.04594E+02
 -1       409-2.09060E+01-1.22545E+02 4.00350E+01-1.35354E+02 1.83884E+01 1.95362E+01
 -1       410-1.39534E+02-1.17970E+02 1.36722E+02 5.20786E+01-1.00122E+01-3.50459E+01
 -1       411-2.58881E+02-1.03986E+01 1.04952E+02 2.35581E+02-4.95547E+00 9.85428E+01
 -1       412-1.47810E+02 3.25623E+01 7.31812E+01 4.42733E+02 7.64730E+01-2.57603E+01
 -1       413-3.47120E+01-4.85526E+01 7.81048E+01-3.49821E+01 1.30784E+00 1.57427E+01
 -1       414 1.24684E+01-7.16851E+01 5.67589E+01 2.41350E+01 1.06934E+02-7.39354E+00
 -1       415 2.82811E+01 1.40302E+01-2.90930E+01 5.52470E+01 6.78608E+01-6.77604E+01
 -1       416 1.82964E+01 3.40555E+00-2.44834E+01 1.36314E+01 6.70717E+01-5.02049E+01
 -1       417 5.13300E+01 9.43492E+00-3.52125E+01-1.39120E+01 5.46152E+01-8.07868E+01
 -1       418 7.93404E+01-2.04653E+01 1.11818E+01-3.91067E+01 6.00805E+01-6.71809E+01
 -1       419 6.97919E+01-3.26760E+01 3.75728E+01-6.82493E+01 5.48998E+01-1.06952E+02
 -1       420-1.04525E+01 1.33372E+02-1.52854E+02-1.15369E+02-2.21187E+01-3.93537E+01
 -1       421 3.52339E+02 4.25047E+02-4.63716E+02-4.61714E+02-2.25720E+02 2.08438E+02
 -1       422 1.04811E+02-2.58451E+02 4.37281E+02-1.40745E+01 2.13824E+02-1.72646E+02
 -1       423-5.59893E+02-1.36373E+02 8.03972E+02 4.88857E+02-6.72423E+02-1.24047E+02
 -1       424 1.14195E+03 6.29577E+02-8.32632E+02-1.64386E+03 1.08600E+03-1.30762E+03
 -1       425 1.42320E+03 6.21819E+02-1.13009E+03 7.67488E+02 2.46427E+02-2.19121E+02
 -1       426 2.19307E+03 8.07817E+02-1.42754E+03 2.89724E+03-1.07915E+02 1.09561E+02
 -1       427 2.56569E+03 2.86964E+02-7.13768E+02 1.59658E+03 1.79328E+02 6.18191E+00
 -1       428 2.69401E+03-1.79127E-03 1.61248E-03 1.60092E+02-2.59883E-03-4.96779E+02
 -1       429-3.07365E+01 7.99705E-04-1.24514E-04-2.28470E+01-1.55704E-04-2.86776E+01
 -1       430 1.89631E+02-3.06375E+02 6.73051E+01-4.10044E+02 3.91340E+01-4.53137E+01
 -1       431 8.34147E+01-2.06731E+02-1.58534E+01 2.77325E+01 8.46605E+01 1.19480E+02
 -1       432 3.09270E+01-6.69180E+01 1.16297E+01-2.23445E+01-8.82368E+01 1.36669E+01
 -1       433 2.96888E-01-5.09160E+01 2.10212E+01 5.16860E+01 6.59458E+01-3.40247E+01
 -1       434 1.67248E+01-1.43504E+01-7.32730E+00 1.05250E+01 8.37069E+01-9.14491E+01
 -1       435 5.15374E+01 3.08137E+01-1.20543E+01-5.95656E+01 8.41179E+01-8.84338E+01
 -1       436 1.08163E+02-3.23131E+01-1.40971E+02-1.40259E+02 3.98347E+01 1.95028E+01
 -1       437-3.28561E+02 6.67811E+00 1.42892E+02 1.63387E+02-4.27615E+02 9.97972E+01
 -1       438 1.09623E+03 8.88208E+02-8.63897E+02 2.19194E+03-4.22687E+02-4.23000E+02
 -1       439 1.32163E+03-2.16383E-03 1.59820E-03 9.50727E+01 1.45069E-03 1.26846E+02
 -1       440-4.60541E+02 8.36928E-04-1.36606E-03-3.79956E+01 6.75485E-04-4.58856E+02
 -1       441-1.87132E+02-2.09708E+02 9.56308E+01-4.94697E+02 1.08327E+02 4.03086E+01
 -1       442 2.60134E+02-5.56041E+02 1.91263E+02-7.33453E+02-9.42261E+01-2.02361E+01
 -1       443 4.60441E+02-2.25509E+02 1.14166E+01-1.04202E+02-5.83117E+01 2.98810E+01
 -1       444 3.13036E+02-1.17642E+02-1.68429E+02 8.30818E+01-1.63323E+01 4.16982E+01
 -1       445 1.05180E+02-1.20967E+02-2.50795E+01 9.40647E+00-7.39723E+01 2.50276E+01
 -1       446 2.01644E+01-8.48857E+01-1.92512E+01 4.17848E+01 1.00249E+02-2.72146E+01
 -1       447-2.87774E+01-8.60685E+01 6.76859E+01 8.00796E+01 1.14457E+02-9.34830E+00
 -1       448-4.10153E+00-4.66577E+01 3.03279E+01 4.93830E+01 1.30834E+02-5.79692E+01
 -1       449-9.77319E+00-2.44309E+01 1.19202E+01 2.75684E+01 1.21758E+02-8.17645E+01
 -1       450 7.33091E+00-1.14006E+00-9.22992E+00-2.51065E-01 1.23218E+02-7.98925E+01
 -1       451 1.08947E+01 1.70001E+01-2.24300E+01-1.89135E+01 1.21250E+02-9.51946E+01
 -1       452 2.39733E+01 4.92669E+01-6.45097E+00-6.60410E+01 1.20190E+02-6.49044E+01
 -1       453-3.22592E+01 5.18535E+01 5.04905E+01-7.34035E+01 1.39807E+02-4.98090E+01
 -1       454 3.63432E+01 1.43724E+02-1.53296E+02-6.81617E+01 4.97817E+01 2.46061E+01
 -1       455 1.82068E+02-3.42352E+00-1.44186E+02-2.95724E+01-1.20900E+02 5.06359E+01
 -1       456 1.19200E+02 5.64096E+02-3.00256E+02 1.34696E+03-3.20293E+02 6.97895E+01
 -1       457 2.16287E+02 1.54118E+02-1.50127E+02 7.09014E+02 1.92424E+02 2.19583E+01
 -1       458 3.13375E+02-1.67599E-03 1.13183E-03 5.20694E+01 7.03285E-04-3.07284E+02
 -1       459-1.19228E+03 1.70440E-03-1.29664E-03-9.87501E+01 1.70829E-03 4.96366E+01
 -1       460-8.96840E+02-7.01286E+02 7.00890E+02-1.75210E+03-4.77621E+02-3.97678E+02
 -1       461-5.17387E+01-1.74303E+02 9.63611E+01 1.17215E+02-2.93465E+02 6.23113E+01
 -1       462 1.22770E+01-1.18856E+02 5.87556E+00 1.06387E+02 8.32402E+01-1.73632E+01
 -1       463-3.69053E+01-4.47267E+01 3.69629E+01 5.27115E+01 1.04783E+02-8.19534E+01
 -1       464-1.31212E+01 6.57335E+00-3.01847E+00-7.58052E+00 1.04519E+02-9.73987E+01
 -1       465-1.45545E+01 6.26214E+01 1.01726E+01-5.38605E+01 9.05504E+01-5.19815E+01
 -1       466 2.63329E+01 1.06464E+02-6.39068E+01-9.73168E+01-1.35052E+02 2.74612E+01
 -1       467-3.90910E+02 3.29921E+02 4.37859E+01 1.00202E+03-1.79151E+02 8.51578E+00
 -1       468-3.17469E+02-8.82447E-04-8.10036E-05 5.76442E+01 2.51602E-04 4.25280E+00
 -1       469-2.19643E+03 1.65249E-03-9.65179E-04-1.25901E+02-1.57199E-03-2.82080E+02
 -1       470-2.17440E+03-1.12325E+02 6.05258E+02-1.19096E+03 8.21942E+01-1.07875E+01
 -1       471-1.95092E+03-3.82199E+02 1.21052E+03-2.16264E+03-1.30259E+02 9.89072E+01
 -1       472-1.44924E+03-1.06608E+02 6.96310E+02-5.43084E+02 1.65060E+02-1.72845E+02
 -1       473-1.35048E+03-1.52064E+02 1.82099E+02 1.38452E+03 5.34310E+02-5.35288E+02
 -1       474-2.57355E+02-5.40850E+01 1.71913E+02 8.38121E+00-3.51600E+02 6.76446E+01
 -1       475-5.88011E+01-2.10038E+02 1.95618E+02 1.12128E+02 4.14686E+00 4.92016E+01
 -1       476 3.22228E+01-1.06679E+02-3.26529E+01 1.38463E+02 1.27004E+02-1.49075E+01
 -1       477-6.43353E+01-9.31905E+01 3.74140E+01 1.20381E+02 1.06515E+02-5.72839E+01
 -1       478-6.27872E+01-5.10704E+01 5.60360E+01 6.52946E+01 1.11289E+02-8.09202E+01
 -1       479-6.02264E+01-3.26737E+01 4.33157E+01 4.55237E+01 1.13182E+02-7.89539E+01
 -1       480-4.08869E+01-1.27854E+01 2.25815E+01 1.60334E+01 1.11944E+02-9.58285E+01
 -1       481-3.16996E+01 2.84237E+00-1.15461E+00-1.27902E+01 1.19821E+02-6.63067E+01
 -1       482 1.17348E+01 3.35949E+01-4.57571E+01-4.20769E+01 1.14661E+02-4.95081E+01
 -1       483-2.77020E+01 1.46089E+01 5.39942E+01-2.13978E+01 1.01273E+02-4.24744E+01
 -1       484-1.08715E+02 6.44512E+01 5.49205E+01 1.07653E+01 1.10996E+01-2.56692E+00
 -1       485-4.27300E+02 1.69938E+02-3.91726E+01-3.83943E+02 4.91704E+01 1.95939E+02
 -1       486-5.59001E+02 1.72268E+02 1.74328E+02 6.10072E+01-4.32031E+01 4.56730E+01
 -1       487-7.82185E+02 2.25515E+02 3.87828E+02 5.92379E+02-8.17833E+01 1.19364E+02
 -1       488-8.51575E+02 7.59423E+01 1.93914E+02 3.84409E+02 9.33780E+01-2.13790E+01
 -1       489-8.75222E+02-4.57569E-04 2.23499E-04 6.27489E+01 2.76275E-04-1.47014E+01
 -1       490-3.72576E+03 8.95481E-04-2.28406E-03-1.35146E+02 3.60702E-03-6.99626E+02
 -1       491-1.53684E+03-3.62877E+02 1.23463E+03-2.25147E+03 4.62868E+01-8.61600E+02
 -1       492 1.05560E+03-5.92096E+02-6.41872E+02 1.46837E+03 1.92831E+02-3.02275E+02
 -1       493 4.95022E+02-5.75443E+01-1.55768E+02-1.56275E+02-7.03210E+02 1.52280E+02
 -1       494-1.77089E+02 2.18816E+00 1.92913E+02 1.97755E+02 4.21555E+01 8.54869E+01
 -1       495-1.10042E+02-5.36052E+01 4.22840E+01 1.16496E+02 7.75586E+01-7.66152E+01
 -1       496-7.43881E+01-1.03574E+01 3.79493E+01 2.33390E+01 7.93533E+01-1.05376E+02
 -1       497-4.52638E+01 2.10920E+01 2.21497E+01-2.72771E+01 6.38252E+01-8.69342E+01
 -1       498 6.17188E+01 2.15524E+01-2.49766E+01 4.35011E+01-6.91633E+01-3.08177E+01
 -1       499 1.27994E+02 1.95934E+02-2.52674E+02-4.69517E+02 1.12903E+02 1.28963E+02
 -1       500-6.17593E+02 1.11757E+02 3.73345E+02 4.46139E+02 4.59549E+00 2.38462E+02
 -1       501-1.25305E+03-2.45112E-04-6.90685E-04 3.96144E+01 9.23594E-04 2.67783E+02
 -1       502-5.39431E+03 2.07708E-03-3.46721E-03-1.62643E+02-3.12667E-03-1.54933E+03
 -1       503-4.38195E+03-1.30689E+02 6.29372E+02-1.55821E+03 3.45827E+02 1.16195E+02
 -1       504-1.11867E+03-4.80227E+02 1.25875E+03-2.52192E+03 2.24094E+02-1.32118E+03
 -1       505 2.47139E+03-1.34708E+03-1.03548E+02-6.54139E+02-1.98976E+02 4.14699E+02
 -1       506 5.34700E+03-2.57658E+03-1.46584E+03 8.60349E+02 2.07999E+02-1.30449E-01
 -1       507 6.04126E+03-2.40715E+03-1.09530E+03 2.06309E+03 1.06832E+03-1.46715E+03
 -1       508 3.66257E+03-2.60737E+03-7.24765E+02 4.70662E+03 1.86445E+03 8.36196E+02
 -1       509 8.31404E+02 9.61489E+01-8.91739E+02-6.03255E+02-1.06552E+03-1.69946E+02
 -1       510-1.72239E+02 2.21427E+02-5.06507E+02-7.75715E+00 1.67931E+02-2.45601E+02
 -1       511-5.43712E+02-4.68566E+02 5.75935E+02 6.39794E+02-2.94912E+02 3.49520E+02
 -1       512 3.66101E+00-1.52059E+02 1.93699E+02 2.11690E+02-5.43330E+01-1.08526E+01
 -1       513-1.28491E+02 2.37629E+01-1.72770E+01 1.18429E+02 2.87095E+01-1.05221E+02
 -1       514-1.59081E+02 1.50990E+01 6.07004E+00 8.30437E+01 3.12672E+01-6.45117E+01
 -1       515-1.17247E+02-1.53017E+01 6.04267E+01 5.37819E+01 2.43207E+01-8.27461E+01
 -1       516-4.78378E+01-2.87739E+01 6.61081E+01 1.59094E+00 2.89801E+01-6.11706E+01
 -1       517-1.26447E+02-7.41891E+01 1.10974E+02-9.47239E+01 5.88118E+00-1.52929E+02
 -1       518-4.53728E+01 6.10521E+01-1.04385E+02 1.21009E+01 9.46512E+01 1.77543E+01
 -1       519 1.58743E+02 3.06149E+01-1.72401E+02 1.14666E+02-8.97254E+01 1.91736E+01
 -1       520 8.66233E+02-4.53163E+02-2.53098E+02-1.26422E+03 3.85222E+02-1.70849E+02
 -1       521 1.41810E+03-3.52749E+02-3.59636E+02-7.39359E+02 1.64291E+02 4.00035E+02
 -1       522 1.14075E+03-2.42546E+02-4.66174E+02-4.89792E+02 4.52301E+01 2.94487E+01
 -1       523 4.25873E+02-6.15572E+01-5.36561E+01-7.89675E+01-2.79759E+01-7.95412E+01
 -1       524-4.37639E+02 1.34287E+01 3.58862E+02 3.87215E+02 5.11709E+01 3.64492E+02
 -1       525-1.29907E+03 8.97096E+00 1.79431E+02 2.54383E+02 8.29406E+01-4.40075E+01
 -1       526-1.59726E+03 4.63746E-05-8.70171E-04 3.16333E+01-5.53244E-04 4.00021E+02
 -1       527-7.54501E+03 2.15830E-03-3.17580E-03-1.96874E+02 2.87637E-03-1.83245E+03
 -1       528-6.19633E+02-9.21290E+02 1.71666E+03-3.41073E+03-2.85199E+02-1.73895E+03
 -1       529 7.18796E+03-2.69436E+03-2.52353E+03-7.85718E+01 3.07892E+02-6.02032E+02
 -1       530 7.29688E+03-5.17247E+03-1.08467E+03 4.44354E+03 8.46540E+02 2.32956E+03
 -1       531-1.22047E+03-2.29554E+03 1.77520E+03 2.05962E+03-1.14216E+03 4.32989E+02
 -1       532 2.83200E+02-1.41399E+02-5.07587E+02 4.13721E+01 2.19360E+02-1.97208E+02
 -1       533-2.43245E+02-4.10195E+01 1.91140E+02 1.07996E+02-3.63338E+01 2.42031E+01
 -1       534-1.41059E+02 1.28102E+01 2.68444E+01 1.74644E+01 1.90926E+01-1.01819E+02
 -1       535 7.74747E+00-1.61133E+01-6.97687E+01 1.01399E+01 5.76500E+01-4.81702E+01
 -1       536-2.14032E+02-4.18270E+02 3.17262E+02-3.77386E+02-1.60628E+02-1.05748E+02
 -1       537 1.66021E+03-9.18883E+02-3.30427E+02-1.22505E+03 2.76380E+02-5.48438E+02
 -1       538 1.59045E+03-3.94988E+02-6.48829E+02-3.16465E+02 6.85202E+01 1.51938E+02
 -1       539-2.72360E+02-1.09370E+02 4.22975E+02 5.00344E+02-5.34088E+01 4.15543E+02
 -1       540-1.93392E+03 2.54681E-04-7.82499E-04 3.14456E+01 1.52351E-04 4.99207E+02
 -1       541-1.00139E+04 1.20755E-03-3.16526E-03-3.30285E+02-1.59050E-03-3.36012E+03
 -1       542-7.70728E+03-4.75460E+02 1.08728E+03-2.50552E+03 4.41656E+02 3.39085E+02
 -1       543-4.19277E+02-1.47303E+03 2.17457E+03-4.34572E+03-3.29909E+01-2.36160E+03
 -1       544 5.66289E+03-2.06301E+03-7.03323E+02-2.70953E+03-3.83678E+02 3.99200E+01
 -1       545 8.68227E+03-2.35349E+03-3.58122E+03-6.88606E+02-2.97054E+02-9.72974E+02
 -1       546 1.13272E+04-2.86921E+03-2.51289E+03 1.15922E+02 3.12993E+02-3.64128E+01
 -1       547 9.01991E+03-3.79529E+03-1.44456E+03-9.53629E+02-8.44933E+02 1.82685E+03
 -1       548-6.88953E+03-5.03509E+03 2.58069E+03 3.39980E+03-8.91110E+02 1.41949E+03
 -1       549-9.53348E+03-8.03345E+03 4.05610E+03 8.91342E+03-6.57390E+03 7.16096E+03
 -1       550-2.71812E+03-1.03875E+03 1.87392E+03 2.03111E+03-3.71871E+02 9.39155E+02
 -1       551 1.21595E+02 7.31603E+02-8.92578E+02-6.09858E+02 1.63049E+02 1.05753E+03
 -1       552-5.50347E+01 4.54618E+02-1.32687E+02-1.85284E+02-1.41431E+02 7.01573E+02
 -1       553-6.79577E+01-1.94650E+02 1.52210E+02 4.44951E+01-8.55077E+01 3.23659E+02
 -1       554-2.38782E+02-4.67708E+01 1.19362E+02 9.24798E+01-7.59199E+01 2.31256E+02
 -1       555-1.34662E+02 5.20494E+01 1.57010E+01-9.14596E+00-4.15628E+01 8.66937E+00
 -1       556-7.45439E+01 1.28701E+02-1.89454E+01 2.75216E+01-4.28341E+01-7.15622E+01
 -1       557-1.25892E+01 1.31533E+02-1.47952E+02 1.15725E+02 2.28039E+01-2.40100E+02
 -1       558-5.04946E+02-1.96340E+02 3.51872E+02-3.65082E+02-6.77149E+01-1.82441E+02
 -1       559-1.60554E+03-1.60134E+03 7.41794E+02-1.62552E+03-1.15226E+03-1.36501E+03
 -1       560-7.54276E+02-1.22064E+03 4.00244E+02-6.99494E+02-5.16144E+01-2.06965E+02
 -1       561 2.19706E+03-8.68682E+02-4.07755E+02-1.37140E+02-1.04773E+02-3.72438E+02
 -1       562 2.52479E+03-5.62904E+02-6.19619E+02-3.64489E+02 9.13801E+01 1.33759E+01
 -1       563 1.91886E+03-4.10785E+02-8.31484E+02-1.96601E+02-1.60833E+01 2.34177E+02
 -1       564 1.21150E+03-3.42226E+02-1.72198E+02 2.58479E+02-6.54496E+01-4.01287E+01
 -1       565-1.63920E+02-2.41541E+02 4.87087E+02 6.25986E+02-3.29536E+00 5.53511E+02
 -1       566-1.78386E+03-7.57153E+01 2.43543E+02 3.64397E+02 8.82750E+01-8.82885E+01
 -1       567-2.30773E+03 1.17601E-04-7.01615E-04 5.25295E+01 7.20623E-05 7.38600E+02
 -1       568-1.34070E+04 3.26979E-03-4.26551E-03-3.00475E+02 4.08017E-03-4.03841E+03
 -1       569-8.08406E+02-1.13838E+03 2.30570E+03-5.40879E+03 2.78931E+02-3.77894E+03
 -1       570 1.09352E+04-3.03012E+03-4.52445E+03 5.04777E+02 8.61885E+00-8.29094E+02
 -1       571 6.69484E+03-1.51306E+03-1.92079E+03-2.29752E+03-9.34072E+02 3.84428E+03
 -1       572-5.57672E+03-6.21656E+03 2.65735E+03 4.21610E+03-1.17562E+03 1.34027E+03
 -1       573-7.24904E+02-1.65248E+03 5.61705E+02-6.74527E+02-2.71164E+02-3.48971E+02
 -1       574 1.65003E+03-5.50990E+02-4.19992E+02 2.88323E+02-1.69279E+02-7.19579E+02
 -1       575 2.36343E+03-6.06895E+02-9.78457E+02-3.54903E+02-1.46990E+01 1.86679E+02
 -1       576-1.86350E+02-1.95075E+02 4.75191E+02 8.30303E+02 5.47828E+01 7.96730E+02
 -1       577-2.80848E+03 5.87740E-04-8.79098E-04 3.97750E+01 3.33578E-04 8.15047E+02
 -1       578-1.70597E+04 4.93424E-03-3.81980E-03-1.48254E+02-5.23176E-03-6.31324E+03
 -1       579-1.29032E+04 5.12507E+01 1.21841E+03-3.45843E+03-1.18808E+03 9.85385E+01
 -1       580-9.79609E+02-6.48724E+02 2.43682E+03-6.33853E+03-3.24589E+02-5.86192E+03
 -1       581 1.16014E+04-2.18263E+03-1.51543E+03-3.66557E+03 1.68036E+02-4.53277E+02
 -1       582 1.27452E+04-1.94286E+03-5.46767E+03 2.95275E+03-6.00641E+02-6.17208E+02
 -1       583 9.01909E+03 9.60275E+02-3.93234E+03 1.75284E+03-6.48344E+02 1.21632E+02
 -1       584 3.09942E+03 2.59515E+03-2.39702E+03-6.99585E+02-3.24610E+00-1.19739E+02
 -1       585-5.89352E+02 5.59267E+03-1.84413E+03-2.15042E+03-3.52692E+03 1.38383E+03
 -1       586-2.23939E+03 7.03169E+03-1.29125E+03-9.84304E+02-1.42467E+03 9.88481E+02
 -1       587-4.19674E+03 5.74294E+03-7.19936E+02 3.28955E+03-1.67518E+03-6.40357E+02
 -1       588-2.17429E+03 2.38513E+03-1.48615E+02 3.70301E+03-6.17159E+02-1.43746E+03
 -1       589-4.43639E+02 2.30672E+02 9.44678E+01-3.34031E+02-1.14075E+02 1.95385E+02
 -1       590-7.78284E+02 7.27645E+02 4.81689E+00-1.85305E+02-1.77220E+02 1.74050E+01
 -1       591-2.20186E+02 7.17258E+02-8.48329E+01 5.15410E+02-2.32548E+02-2.41475E+02
 -1       592 1.56484E+02 5.79832E+02-2.58531E+02 5.45588E+02-6.29251E+02-2.57040E+02
 -1       593 8.51435E+02 1.77255E+02-4.32228E+02 1.41880E+02 2.76914E+01-2.42404E+00
 -1       594 1.97910E+03 1.66420E+00-7.78828E+02-4.35914E+02-1.00872E+02-1.81135E+01
 -1       595 2.69076E+03-4.46592E+02-1.12543E+03-7.61492E+02-1.09031E+02 1.32005E+02
 -1       596 2.40370E+03-4.25369E+02-3.31068E+02 5.06678E+02 4.57925E+01 2.27630E+01
 -1       597-1.85302E+02-1.01527E+02 4.63294E+02 1.01714E+03-4.85368E+01 1.13265E+03
 -1       598-2.57841E+03 2.24530E+01 2.31646E+02 5.37023E+02-2.39753E+02-5.36301E+01
 -1       599-3.36686E+03 9.05725E-04-9.19536E-04 3.63444E+00-6.79361E-04 1.15804E+03
 -1       600 5.25939E+03 6.56273E+02-2.60462E+03 7.93183E+03-2.81045E+03-1.17330E+03
 -1       601 1.48495E+03 8.04450E+03-3.77360E+03 1.38507E+03-2.39086E+02 5.93147E+02
 -1       602-2.00820E+03 9.37886E+03-2.17971E+03-7.20536E+02 6.47488E+00-4.22596E+02
 -1       603-1.90529E+03 3.95585E+03-6.46563E+02 9.41704E+02 9.76478E+02-9.07856E+02
 -1       604-3.60511E+02 3.99617E+02 4.27704E+00 1.34698E+02 7.23085E+01 1.97531E+02
 -1       605-3.11852E+02 1.24915E+03-2.45890E+02 4.93433E+02 6.54074E+00 6.23361E+01
 -1       606 4.35320E+02 1.12928E+03-6.17965E+02-1.10823E+02-4.88299E+01-1.26883E+02
 -1       607 1.11996E+03 5.76542E+01-5.37341E+02-1.58428E+03-5.26780E+02 2.52262E+02
 -1       608 2.05651E+02 3.54782E+02 2.58428E+02 1.02458E+04-1.67716E+03 1.42803E+03
 -1       609 7.68842E+02 4.74387E+03-2.44587E+03 7.44193E+03 1.14817E+03 2.90112E+03
 -1       610-1.36362E+03 1.15408E+04-5.15018E+03 2.29852E+03 7.11643E+02 5.64110E+02
 -1       611-2.56690E+03 9.72983E+03-4.10917E+03-3.08996E+02 5.77825E+02-1.22132E+02
 -1       612-2.07283E+03 7.39094E+03-3.06816E+03-1.81986E+03 7.63557E+02 4.00701E+02
 -1       613-2.11187E+03 6.01750E+03-2.10634E+03-1.51189E+03 5.10919E+02-1.34815E+02
 -1       614-2.50041E+03 4.94005E+03-1.14451E+03-1.14824E+03-1.98554E+02-8.33887E+01
 -1       615-4.09107E+02 5.99982E+02-8.59141E+01 5.51026E+02-1.34105E+02 2.54849E+01
 -1       616-3.75547E+02 8.16364E+02-2.46431E+02 6.05593E+02 2.01386E+01-1.95171E+01
 -1       617-3.84287E+02 1.06390E+03-4.06948E+02 6.63610E+02 9.39910E+01-7.21810E+01
 -1       618-4.16743E+02 1.42403E+03-6.05326E+02 3.37351E+02 7.19361E+01 3.93371E+01
 -1       619-1.63073E+02 1.72891E+03-8.03703E+02-1.77229E+02 1.00015E+02-1.00634E+02
 -1       620 1.88918E+02 6.97366E+02-3.76478E+02-1.20424E+03 1.67764E+02-5.10442E+02
 -1       621 5.32591E+01 4.02586E+01 5.07450E+01-1.86214E+03-3.10706E+02-2.60329E+02
 -1       622-1.88132E+03 1.07355E+04-1.37636E+03-4.12272E+03 5.90070E+02-1.61110E+02
 -1       623-1.86967E+03 5.05086E+03-7.02028E+02-3.53002E+03 1.06366E+02 3.70169E+02
 -1       624-1.87893E+03 2.58305E+03 1.72036E+01-2.02640E+03-1.01134E+03 3.75801E+02
 -1       625-3.99769E+02 5.40818E+02-1.47947E+01 6.78608E+02-2.46095E+02-4.76459E+01
 -1       626-3.61215E+02 7.84081E+02-9.09537E+01 8.81760E+02 3.90250E+00-7.81921E+01
 -1       627-3.20486E+02 1.67757E+03-1.99311E+02 9.03509E+02 1.79476E+02 1.76271E+01
 -1       628-6.58793E+02-9.01467E+02 2.39746E+03-6.76163E+03 5.72347E+03 3.24962E+02
 -1       629-1.03059E+03-6.37294E+02 2.03078E+03-5.98389E+03 3.42143E+03-2.73683E+02
 -1       630-1.29677E+03-7.67055E+01 1.66411E+03-5.08307E+03 1.83718E+03 4.61850E+01
 -1       631-1.05076E+03-2.44425E+02 1.42151E+03-4.17114E+03 1.51864E+03 3.41163E+02
 -1       632-1.17267E+03-1.08094E+03 1.17892E+03-3.29521E+03 5.70551E+02-3.70679E+01
 -1       633-1.44249E+03-8.55235E+02 8.25739E+02-2.03147E+03 5.32094E+02 3.19687E+02
 -1       634-8.06385E+02-1.60630E+02 4.72561E+02-8.11629E+02-1.28689E+02 2.36811E+02
 -1       635-3.33802E+02 3.20822E+01 1.95808E+02-3.97445E+02 2.32549E+01 1.72420E+01
 -1       636-2.28539E+02 1.07722E+02-8.09445E+01-1.25593E+02-1.19749E+02 4.53963E+01
 -1       637-3.67996E+02 1.46779E+02-1.23104E+01 1.29605E+02 1.55520E+01 4.45209E+01
 -1       638-4.12130E+02 2.11287E+02 5.63245E+01 6.10925E+02-5.84321E+01 2.82229E+01
 -1       639-3.24527E+02 1.79151E+02 1.40682E+02 8.87039E+02 1.79711E+02-6.62259E+01
 -1       640-2.76307E+02 5.62816E+01 2.25040E+02 1.08031E+03 2.22211E+02-5.51903E+00
 -1       641-2.02197E+02-7.04402E+01 3.15061E+02 1.23163E+03 5.25220E+02 4.58720E+01
 -1       642-1.43356E+02-1.27580E+02 4.05081E+02 1.35974E+03 9.63072E+02-7.40636E+01
 -1       643-7.28295E+00-1.21906E+04 1.19873E+03-3.77136E+03-1.11820E+01 1.03056E+03
 -1       644-3.96551E+02-6.44831E+03 8.32050E+02-2.96066E+03-2.60608E+02-4.01368E+02
 -1       645-4.21026E+02-2.35509E+03 5.89457E+02-1.84924E+03 3.21708E+01-2.74198E+02
 -1       646-2.28448E+02-2.43259E+02 2.36280E+02-4.50173E+02 2.81094E+00-2.77648E+02
 -1       647-4.21936E+01 1.46763E+02-4.04726E+01-7.32910E+01 1.84562E+01 3.35479E+00
 -1       648-1.54575E+02 6.07091E+01 2.81620E+01 2.82290E+02 2.84247E+01 5.49200E+01
 -1       649-8.49802E+01-7.99714E+02 1.12520E+02 6.23877E+02-7.46613E+00 5.09582E+01
 -1       650-2.07544E+01-1.98602E+03 2.02540E+02 7.83455E+02 2.37066E+01-1.60265E+02
 -1       651 4.16840E-03-1.63363E+04-2.51053E-03-2.37053E+02 6.35465E+03 5.99796E-03
 -1       652 2.90461E-03-1.22717E+04-3.75693E-03-3.47991E+02 3.84362E+03-5.20067E-03
 -1       653 1.83499E-03-8.39567E+03-3.40425E-03-3.65985E+02 2.85588E+03 2.94234E-03
 -1       654 2.50641E-03-5.36230E+03-2.62979E-03-2.67300E+02 1.18883E+03-4.84330E-03
 -1       655 2.82718E-03-2.68247E+03-1.89075E-03-2.03715E+02 9.19200E+02 3.32010E-03
 -1       656 3.53683E-03-1.26525E+03-1.52761E-03-9.14643E+01-1.89195E+02-1.37653E-03
 -1       657 2.46241E-03-3.25887E+02-1.07482E-03-4.29134E+01 3.73810E+02-7.60499E-04
 -1       658 8.32146E-04-1.15045E+01-3.62244E-04-1.73226E+01 1.67799E+01 2.81377E-04
 -1       659 1.28840E-03 1.85804E+02-7.56752E-04-1.45490E+01 4.34991E+01-2.69305E-04
 -1       660 9.12809E-04 1.54717E+02 2.27741E-05-1.66147E+01-1.10417E+02-9.93626E-05
 -1       661 5.25664E-04 2.96047E+01-1.45466E-04 1.96799E+01 1.38446E+02-9.41517E-04
 -1       662 7.72095E-04-4.55806E+02-2.60261E-04 4.95063E+01 5.81097E+01 1.13228E-03
 -1       663 6.07965E-04-1.03172E+03-4.31185E-04 7.10959E+01 3.94250E+02-8.51017E-04
 -1       664 5.31844E-04-1.86306E+03-5.82860E-04 7.80760E+01 6.20028E+02 1.31985E-03
 -1       665 7.31854E-04-2.72289E+03-2.76863E-04 7.03469E+01 1.15614E+03-1.31333E-03
 -1       666 1.10134E-13 5.17257E-10 4.08562E-12 9.94547E-11 3.76667E+02 7.44752E-06
 -1       667-8.88178E-16 1.91178E-10 8.25118E-13-1.72999E-11 1.46294E+02 3.56003E-04
 -1       668 3.55271E-15 3.45022E-11 3.63354E-12-1.75002E-11 4.85439E+01 1.67740E-05
 -1       669 3.73035E-14-1.53428E-11-5.64881E-12 1.15747E-11 1.95378E+02-1.06341E-03
 -1       670-7.10543E-14 2.56222E-11-4.01101E-12 3.79927E-11 2.51372E+02-1.60586E-03
 -1       671 3.19744E-14 7.85718E-11-1.30424E-10 4.94396E-11 1.07319E+03-3.48044E-03
 -1       672 5.68434E-13 5.63318E-11-1.59780E-10 5.65592E-12 2.48036E+03-4.08755E-03
 -1       673 1.25056E-12 4.12570E-10 9.37632E-11-1.05047E-10 5.15118E+03 5.82215E-04
 -1       674-1.52581E-10 5.62066E-10-2.17468E-10-2.33999E-11 3.08460E+02-5.29149E+00
 -1       675-6.92251E-11 2.59121E-10-1.94938E-10 1.83498E-12 7.66998E+01-1.90183E+01
 -1       676-2.44860E-11 5.49042E-11 4.42845E-11 8.11756E-11-1.18381E+01 6.77933E+00
 -1       677-4.36911E-11-6.00369E-11-1.03964E-11 7.48918E-11-3.18291E+01 4.75442E+01
 -1       678-2.89736E-11 6.98227E-12-2.19984E-10-8.62350E-11-2.48515E+02 6.69150E+01
 -1       679 1.41966E-11-5.28928E-11-1.54108E-10 2.35767E-11 8.29805E+02-1.88153E+02
 -1       680-1.65024E-11 1.81700E-10-4.35875E-10 7.70548E-11 1.73575E+03 4.48695E+01
 -1       681-1.65173E-10 1.69962E-10 1.19218E-09 1.28722E-10 4.74258E+03 2.96639E+02
 -1       682-6.60876E-11-1.07224E-10 7.16337E-10 2.14668E-11-9.44558E+01-1.37054E+02
 -1       683-1.97997E-10 2.03539E-10-7.12053E-11 1.77479E-10 2.12656E+01-6.74948E+01
 -1       684-2.27644E-10 5.73229E-10-1.87485E-10-6.49211E-11-2.77634E+01-9.16446E+00
 -1       685-1.83914E-10-1.45342E-11 1.86334E-10 7.47659E-11 4.78236E+01 7.97999E+01
 -1       686 2.19149E-11 2.75806E-11-1.39366E-10-3.95284E-12 6.23547E+01 5.64730E+01
 -1       687-6.52562E-11 7.23048E-11-5.15421E-10 1.11722E-10 2.61884E+02-5.23403E+02
 -1       688-5.65971E-11-1.10087E-10 2.66553E-10-1.85973E-11-6.01567E+01-1.57917E+02
 -1       689-1.14182E-10 1.95271E-10-8.56041E-10 1.14250E-10 8.58268E+02 3.09628E+02
 -1       690-1.40346E-10 2.49547E-10-2.54029E-09-1.70260E-10 5.75166E+02 3.71266E+02
 -1       691-1.63141E-10-3.17584E-10 2.34996E-09-2.83649E-10-1.37001E+03 1.79574E+03
 -1       692 3.52685E-10 4.57412E-14 4.14424E-12 6.69012E-11-1.43543E-04 3.83584E+02
 -1       693 3.38396E-10-5.15725E-11-2.35715E-10-8.36170E-12-1.18449E+01 3.90419E+02
 -1       694 1.66516E-10-2.64687E-10 8.63446E-11-1.48528E-11-2.06605E+01 7.93361E+01
 -1       695 2.50383E-10 8.59528E-11-2.71284E-10 1.26218E-10 6.54610E+01-1.59773E-01
 -1       696-3.57093E-10 1.29771E-09-3.35767E-10 6.02114E-11-2.50536E+02-1.57931E+02
 -1       697 2.15891E-10-1.20394E-10-5.80130E-10-8.91589E-11-7.29289E+02-1.39860E+03
 -1       698-2.69059E-10 1.18052E-09-1.14104E-09 2.70044E-10-1.54789E+03 1.09720E+03
 -1       699 5.57762E-10 1.86859E-10-1.37314E-09-4.98304E-10 3.89127E+02-7.81328E+01
 -1       700 2.94676E-10 5.52897E-11 1.08289E-09-1.22791E-10-7.99815E+02-5.91500E+02
 -1       701 8.55493E-12 8.15073E-11 2.26597E-10 1.05764E-10 5.61859E+00-4.86996E+03
 -1       702 7.41238E-11 5.31393E-12-1.98554E-09-3.84972E-11-8.66198E-04-5.11298E+03
 -1       703 7.37730E-11 7.82707E-14-9.20197E-12 9.96003E-12 2.62720E-04 2.25469E+02
 -1       704 1.16514E-10-2.80962E-11-1.54169E-10 2.99236E-11 1.54963E+01 1.69853E+02
 -1       705 7.68849E-11-7.74112E-11 2.07602E-10 5.37518E-11-1.12619E+01 1.02645E+02
 -1       706-1.36365E-10-1.77931E-10 9.29366E-11-1.35140E-10-6.32457E+01-6.07985E+01
 -1       707-1.29198E-10 1.59867E-09-4.47847E-10 9.45309E-10-3.21957E+02-2.99973E+02
 -1       708-1.37399E-11-1.27642E-10 4.49838E-11-1.27407E-10 3.86521E+01-1.70350E+02
 -1       709-1.14984E-10-9.18396E-11 1.11778E-09-1.31586E-11-2.54571E+01-3.76701E+01
 -1       710-1.67554E-10-1.53896E-10 5.73807E-10 5.24609E-11 2.77393E+02-5.71391E+00
 -1       711 7.29989E-11-1.71303E-10-7.32759E-10 1.23968E-10 8.81725E+01 1.02047E+03
 -1       712 1.25532E-10 2.97872E-09-1.99163E-09-1.81362E-09-4.59963E+03 3.79749E+03
 -1       713 1.88891E-10-2.58893E-10-1.46375E-09 3.91978E-10-1.80757E+03 1.76060E+03
 -1       714-4.35705E-11 1.75329E-10 1.86308E-09 7.10353E-11-1.40878E+02-4.85575E+02
 -1       715 7.73852E-11 6.90921E-11-6.96936E-10-1.52614E-10-5.43668E+01-1.47720E+03
 -1       716-8.01776E-11 6.12989E-13-1.03315E-09-1.87406E-11 4.35242E-03-2.30282E+03
 -1       717-2.85603E-11-5.21805E-14-4.72511E-13 3.09335E-11 1.01091E-03 4.26074E+01
 -1       718-4.45188E-11-2.70058E-11 8.28337E-11 1.03693E-10-1.89947E-03 1.06069E+02
 -1       719-1.45944E-10-1.16104E-10 1.21259E-10 1.70102E-10-1.40286E+01-3.27217E+01
 -1       720-1.63425E-13 3.85576E-11-3.47711E-10-6.22151E-11 7.41327E+01-2.71316E+01
 -1       721-1.22782E-10 2.07563E-10 4.54037E-12-4.83724E-11-2.97659E+01-1.34701E+01
 -1       722 9.80012E-11 8.42500E-11-2.90136E-10 1.21117E-10 3.16192E+01-9.37844E+01
 -1       723-2.68867E-12 1.98273E-11 3.91729E-11 3.67351E-12 3.85044E+01-6.57001E+01
 -1       724 3.68399E-11 8.43277E-11-2.70291E-10-9.33660E-11 8.77278E+01-1.54746E+02
 -1       725 2.30379E-10 2.18487E-10-1.94365E-10-2.05834E-10-6.75231E+02 5.80811E+02
 -1       726-3.32525E-10 2.03741E-10 1.08969E-09 1.53884E-10-1.03960E+03-5.33817E+01
 -1       727 2.40874E-11 1.07327E-10 8.15064E-10 8.29630E-11 1.00685E+03-1.32047E+03
 -1       728-9.97720E-11-9.08186E-11-4.66753E-12-1.16965E-10-9.48695E+01 1.25788E+02
 -1       729-6.91642E-11 5.04929E-13-3.19833E-10-4.68177E-11 3.17476E-03-4.66013E+02
 -1       730-8.14517E-11 6.57252E-14-2.07221E-11 1.02958E-11 1.18063E-03-4.54734E+02
 -1       731-1.09261E-10-1.25829E-10 7.21515E-11 1.23986E-10-8.33362E+01-2.00730E+01
 -1       732 2.96723E-11 2.64038E-11 1.96625E-10-4.63976E-11-2.29122E+01 3.39443E+01
 -1       733 3.43294E-11 4.10627E-11-3.30945E-10-1.48415E-11-9.70328E+01 9.01301E+01
 -1       734-3.63862E-11-6.06685E-11 7.35866E-10 3.81312E-11 1.01793E+02 1.75540E+01
 -1       735 3.82192E-11-8.53346E-11 1.97637E-10 3.16638E-11 1.20510E+02-7.85594E+01
 -1       736 4.60793E-11-8.45661E-11 4.44507E-10-4.61964E-11 1.32641E+02-1.08412E+02
 -1       737-6.07223E-11-9.06781E-11 1.38699E-09-7.77670E-11 1.96965E+02-8.15255E+01
 -1       738 1.54406E-10-4.00960E-11 3.05621E-10-3.86922E-11 7.32829E+01-2.28609E+02
 -1       739 5.32907E-12-1.02366E-10-4.55191E-14 1.01164E-12-3.00721E+02 7.62626E+01
 -1       740-1.75930E-11-2.87687E-13-7.08609E-11-3.45644E-11 1.64159E-03-3.00810E+02
 -1       741-5.53655E-11 5.11591E-13 5.94724E-12 9.83391E-12 2.12801E-03-2.55990E+02
 -1       742-7.33280E-11-3.27655E-11-6.18172E-12-1.94026E-11-1.22237E+02 1.08903E+02
 -1       743-2.32006E-10 2.92204E-10 3.91594E-10 3.31397E-11 4.98777E+02-5.57479E+02
 -1       744 1.40787E-10 6.43179E-11-1.30331E-09-6.90736E-12-1.48331E+02-3.35220E+02
 -1       745-1.15659E-10-2.25397E-12 6.51681E-10 1.09861E-10 1.87580E+02-5.80290E+01
 -1       746 5.08187E-11 3.58486E-11-3.81957E-10 2.42779E-11 1.27772E+02-9.69724E+01
 -1       747-1.74697E-11 7.54512E-11-1.87248E-10-2.98050E-11 1.12499E+02-9.04795E+01
 -1       748-1.21549E-11 1.30104E-11-7.77751E-11-9.49707E-11 1.10234E+02-2.57165E+01
 -1       749 3.85754E-11 6.45553E-11-9.87377E-10-6.51525E-11 9.96124E+00 1.06332E+02
 -1       750 3.36486E-11-4.34985E-11-9.79803E-11 5.96501E-11 3.99621E+01 2.05152E+02
 -1       751 3.66699E-11-3.74104E-11-6.21907E-11-3.97253E-12-7.72537E+01 1.16862E+02
 -1       752 1.75930E-11-7.00412E-14 1.55179E-10-6.08624E-12 1.34666E-03-2.30601E+01
 -1       753-3.52429E-11 6.57252E-14 1.87796E-11-5.34754E-11 4.76121E-03-1.52223E+03
 -1       754 1.45441E-10-3.00453E-11-1.47669E-10-4.32152E-11 2.34492E+02-1.33701E+03
 -1       755-1.62193E-10 1.21541E-10 1.51950E-09 1.52719E-11 1.65754E+02-3.39806E+01
 -1       756-3.40037E-10 3.81306E-10 2.63901E-09-8.50946E-11 1.84896E+03 8.52203E+02
 -1       757 3.20188E-11-5.38206E-10 3.40894E-10-8.70273E-11-1.46797E+03-1.20285E+02
 -1       758-2.17848E-10-8.71216E-11 4.70412E-10 1.56661E-10-7.84775E+02 9.11813E+02
 -1       759 2.22024E-10 1.52954E-10-1.52422E-09 5.59105E-11 6.01725E+01-1.83027E+02
 -1       760-1.86476E-10-3.45129E-11 3.72294E-10-4.23070E-11 8.25000E+00-4.80421E+01
 -1       761-6.11295E-11-9.24651E-11 4.62359E-10-1.58964E-10-7.65073E+01-2.62172E+02
 -1       762 1.25965E-10-3.04584E-10-2.10235E-10 2.61240E-11-1.57132E+02-4.17133E+00
 -1       763-5.72413E-11 1.31095E-11 7.62505E-10 1.09956E-11 3.81893E+02-1.75449E+02
 -1       764 7.74503E-11 5.73648E-11 2.36073E-10-1.17956E-10 3.69115E+01 3.97807E+01
 -1       765 1.37233E-10-3.35380E-11-5.20089E-10-8.41482E-12 5.22417E+01 3.69527E+02
 -1       766-1.29319E-11-3.20299E-14 2.74123E-10 4.45270E-11 1.08749E-03 3.92293E+02
 -1       767-1.22810E-10 7.38964E-13 3.90372E-10-7.09974E-11 4.25200E-03-3.31332E+03
 -1       768 9.37916E-13 4.25118E-11-5.04308E-10 6.75193E-11-2.02914E+01-2.40029E+03
 -1       769-1.14539E-11 1.10767E-10-2.11838E-09-1.15636E-10-3.40202E+02-1.01201E+03
 -1       770-3.77552E-10 5.59775E-10 6.39413E-10-2.87672E-10-8.63844E+02 1.91550E+03
 -1       771-9.28681E-10-2.37745E-09-5.55737E-10 1.97914E-09-5.58299E+03 6.10578E+03
 -1       772-1.76778E-10 1.42857E-10 2.31064E-09-1.83756E-10 9.98079E+01 1.52743E+03
 -1       773 5.18714E-11-2.57094E-10 1.12115E-09-7.79523E-11 2.59239E+02 6.71980E+01
 -1       774 1.20193E-10 4.82112E-11-1.59553E-10 3.98633E-11-2.33104E+01 1.04994E+02
 -1       775 1.50985E-10 1.07324E-10-1.79757E-10 1.08949E-10 2.98474E+01-3.33011E+02
 -1       776 5.78714E-10-2.49141E-09 8.09615E-10-1.18266E-09-9.53524E+02-1.18740E+03
 -1       777 3.44267E-10 3.20643E-10 7.79205E-11 8.27664E-11-1.06243E+02-3.90158E+02
 -1       778 1.03853E-10-1.12386E-10-4.31581E-10 5.86731E-12-2.31907E+01 2.43830E+02
 -1       779 3.31966E-11-6.12769E-11-6.50287E-10 8.21880E-11-2.16978E+00 5.62492E+02
 -1       780-7.65965E-11 3.34177E-14 4.23469E-10 6.88356E-11 4.74896E-04 7.28116E+02
 -1       781 5.94582E-11 1.02318E-12 7.77618E-11-6.08793E-11-1.88247E-03-6.26082E+03
 -1       782-2.60229E-10-1.35017E-10 7.89470E-10-1.15627E-10-3.18941E+02-5.92098E+03
 -1       783 1.34245E-11 5.26403E-10-3.34070E-09 2.10983E-10-5.86622E+02-6.29898E+02
 -1       784-5.55389E-10-1.01252E-10 1.44238E-09 6.58716E-10-4.32482E+01-7.46558E+01
 -1       785 9.29987E-10-9.74902E-10-2.87255E-09 5.17654E-11-1.50703E+03 1.01265E+03
 -1       786 3.38957E-10 1.53307E-10-2.73646E-09-9.69322E-11-6.38656E+02-1.41284E+03
 -1       787-8.43841E-11 2.08146E-10-1.72072E-10-1.70310E-10-1.17969E+02 1.91521E+02
 -1       788 1.30701E-10-1.24624E-09 3.34557E-10 2.33649E-10-2.46483E+02-2.47770E+02
 -1       789-4.81196E-10 1.21875E-10 1.23041E-10-3.06329E-10 2.34142E+01-1.36541E+01
 -1       790-2.77176E-10-5.08648E-11-1.42701E-11 2.89286E-11-1.04806E+02 1.33463E+02
 -1       791-1.37447E-10-3.26043E-11-4.62881E-10 5.22249E-13-4.90512E+01 1.14481E+03
 -1       792 9.39053E-11-2.64677E-13 1.78565E-10 2.54303E-11-8.46228E-04 1.14807E+03
 -1       793 4.75410E-10 8.95966E-10-9.65184E-09-5.26654E-10-1.55372E+03 1.31143E+03
 -1       794 2.95538E-11-5.72546E-10 3.99748E-09 2.65473E-10 7.26329E+02 5.55185E+02
 -1       795-1.76133E-10-9.46017E-11 1.63968E-09-2.51891E-10 7.95439E+02 4.43894E+02
 -1       796-6.05098E-11-1.73657E-10 7.59378E-10 4.13110E-11-1.84236E+02-4.19173E+01
 -1       797-4.46327E-11-1.29194E-10 3.40616E-10 1.38726E-10-1.34518E+02 1.85634E+01
 -1       798 2.72557E-10-4.19430E-10 2.71378E-10 1.37479E-11 9.73337E+01-7.99213E+01
 -1       799 3.55307E-10-5.25346E-11-2.05198E-10-2.02454E-10 1.03365E+02-1.00201E+02
 -1       800 1.32729E-10-1.29610E-10-3.65752E-10-1.33468E-10-2.85348E+02-2.41909E+02
 -1       801 2.70095E-10 2.32490E-10-7.86827E-10 9.99165E-11 5.77910E+03 3.09154E+02
 -1       802 4.74676E-13-4.19931E-12-1.30070E-10-8.42402E-11 1.87033E+03 3.30483E+01
 -1       803-1.11497E-10 2.94307E-11 1.62585E-10-3.71472E-11 5.70328E+02-4.91231E+01
 -1       804 2.01731E-11-2.28439E-12-6.15691E-11 1.10929E-11-1.38877E+02 2.23226E+02
 -1       805 3.95645E-11-3.23297E-12 2.06098E-11-9.84124E-12-1.18004E+02 4.09094E+01
 -1       806 1.05341E-10-9.38633E-11 7.00203E-11-3.95506E-11-5.82182E+01 3.16357E+01
 -1       807 8.67332E-11-2.52037E-10 9.44489E-11-1.30036E-10 2.26608E+02-1.75904E+00
 -1       808 1.10689E-10-3.76261E-10-1.50548E-10 1.47953E-11 9.71753E+02-7.01821E+01
 -1       809 4.98268E-12-2.53635E-10 8.28475E-10-2.56648E-11 6.30308E+03-6.40668E-04
 -1       810-9.96980E-14-1.62203E-10-1.87200E-10 5.04947E-11 2.82008E+03-4.84067E-03
 -1       811-4.88498E-14 2.13092E-11-1.88710E-10-3.78186E-12 8.93800E+02-3.14039E-03
 -1       812 1.33976E-13-2.82032E-11-3.38708E-11-5.61662E-12 3.63623E+02-2.98386E-03
 -1       813-2.20518E-13-2.15357E-11 5.25097E-12-1.29665E-11 4.52440E+01 3.10573E-04
 -1       814-3.01037E-13-4.87859E-11 6.25976E-11 5.75984E-12 1.37233E+02 5.95175E-04
 -1       815-2.97914E-13-1.90440E-10 9.67837E-11-2.33928E-11 3.89409E+02 8.60879E-04
 -1       816 5.00489E-13-5.32054E-10-3.60433E-10-1.27876E-10 1.14743E+03 6.49961E-04
 -1       817 3.43655E-04-8.95908E+02-1.90320E-04 2.28367E+01 3.79705E+02-4.83376E-04
 -1       818 2.75125E-04-6.25619E+02-2.36204E-04 2.59374E+01 1.94154E+02 3.83656E-04
 -1       819 2.53763E-04-3.93039E+02-1.78403E-04 2.39984E+01 1.48753E+02-1.74253E-04
 -1       820 2.69876E-04-2.43729E+02-1.63119E-04 9.14748E+00 1.13652E+01 3.19402E-04
 -1       821 3.18038E-04-1.48666E+02-2.76796E-04-7.98746E+00 4.98833E+01-2.23502E-04
 -1       822 3.26050E-04-1.66551E+02-1.80935E-04-4.61301E+00 5.01214E+01 1.30227E-04
 -1       823 9.61766E-04-2.18282E+02-8.13960E-04-6.47428E+00 1.98255E+02-4.72182E-04
 -1       824 1.44341E-03-4.84878E+02-7.12521E-04-2.60183E+01-1.01954E+02-4.68171E-04
 -1       825 1.36724E-03-9.58490E+02-6.96976E-04-6.21298E+01 2.65099E+02 1.18149E-03
 -1       826 1.56013E-03-1.97964E+03-1.30465E-03-9.39987E+01 2.92435E+02-2.47578E-03
 -1       827 2.33096E-03-3.22582E+03-2.33774E-03-1.22647E+02 1.08984E+03 2.76456E-03
 -1       828 2.10342E-03-5.08220E+03-2.19664E-03-1.69357E+02 1.18394E+03-3.24663E-03
 -1       829 1.21407E-03-7.25993E+03-2.27570E-03-2.86274E+02 2.51482E+03 2.04247E-03
 -1       830 2.69041E-03-1.02834E+04-3.24381E-03-2.78084E+02 3.17727E+03-4.23407E-03
 -1       831 4.10150E-03-1.34983E+04-2.72630E-03-1.66117E+02 5.19217E+03 4.83364E-03
 -1       832-1.53736E+01-6.64094E+02 7.05882E+01 2.58167E+02-6.60281E+00-6.30928E+01
 -1       833-3.86930E+01-3.08761E+02 5.70897E+01 1.63421E+02-1.92544E+01 1.44293E+01
 -1       834-3.52960E+01-1.42239E+02 3.10831E+01 3.54825E+01 1.01071E+01-8.21406E+00
 -1       835-9.04729E+01-1.40021E+02 6.67196E+01-9.86287E+01-6.71478E+00-8.75491E+01
 -1       836-2.00452E+02-9.22297E+02 3.18427E+02-6.71937E+02 4.71375E+00-1.00729E+02
 -1       837-1.73630E+02-2.61221E+03 3.86790E+02-1.30911E+03-4.97151E+01-2.35424E+02
 -1       838-4.16378E+02-5.56741E+03 8.00586E+02-2.24198E+03-2.31800E+02-3.31681E+02
 -1       839 2.91064E+01-1.01233E+04 9.52831E+02-3.02014E+03-1.55165E+01 9.39947E+02
 -1       840-8.39788E+01-4.37862E+01 1.41177E+02 4.57996E+02 3.05758E+02-5.87299E+00
 -1       841-1.04140E+02-2.53199E+01 1.27678E+02 3.72035E+02 1.86712E+02 1.81208E+00
 -1       842-1.18435E+02 1.33392E+01 1.14180E+02 2.77729E+02 7.53661E+01-1.98702E+01
 -1       843-1.21706E+02-1.78797E+01 8.81730E+01 1.63867E+02 7.46482E+01 2.14877E+01
 -1       844-1.16616E+02-5.17424E+01 6.21666E+01 6.56252E+01-1.11891E+01 6.98664E+00
 -1       845-1.23337E+02-4.29531E+01 9.78032E+01 7.68201E+00 3.78816E+01-2.46647E+01
 -1       846-2.68368E+02-3.25324E+01 1.33440E+02-1.19672E+02-3.12396E+01 5.21874E+01
 -1       847-5.82810E+02-3.70424E+02 3.85148E+02-7.25064E+02 1.98611E+02 1.31292E+02
 -1       848-6.45045E+02-7.31723E+02 6.36856E+02-1.34270E+03-2.42069E+02 7.25016E+01
 -1       849-6.30148E+02-5.66760E+02 7.05220E+02-1.73562E+03 5.68480E+02-3.64665E+01
 -1       850-6.17226E+02-4.23217E+02 7.73584E+02-2.17245E+03 8.21145E+02-1.77753E+02
 -1       851-8.98011E+02-1.59517E+02 1.18738E+03-3.02319E+03 1.25676E+03 2.26385E+02
 -1       852-1.27406E+03-1.21113E+02 1.60118E+03-3.90552E+03 1.70689E+03 5.70737E+01
 -1       853-9.54151E+02-5.31447E+02 1.75342E+03-4.73465E+03 2.90615E+03-2.38043E+02
 -1       854-5.39023E+02-7.26229E+02 1.90567E+03-5.46147E+03 4.69754E+03 3.03200E+02
 -1       855-1.69376E+02 5.75721E+02-5.44258E+01 3.22286E+02 9.35464E+01-4.37727E+01
 -1       856-2.58191E+02 3.24742E+02-4.60170E+00 1.76536E+02 3.04651E+01-9.00374E+00
 -1       857-1.45907E+02 4.24835E+01 6.12194E+01-1.50977E+01 3.50237E+00 1.72160E+01
 -1       858-8.43388E+01 2.16546E+01 4.10525E+01 1.86590E+01-2.66504E+01 1.41464E+01
 -1       859-4.46404E+02-5.79215E+02 4.48827E+02-4.85096E+02 1.41018E+02-2.68919E+02
 -1       860-1.48097E+03 2.13145E+03-1.38279E+01-8.79375E+02-2.98276E+02 1.61410E+02
 -1       861-1.77236E+03 4.42283E+03-5.34713E+02-2.68348E+03 3.72971E+01 3.00382E+02
 -1       862-1.76553E+03 9.03034E+03-1.13184E+03-3.33947E+03 4.86006E+02-1.53251E+02
 -1       863 6.39860E+01-1.27050E+01 1.52095E+01-6.24765E+02-1.02979E+02-1.42772E+02
 -1       864 8.67565E+01 2.28920E+02-1.17409E+02-4.36787E+02 6.06418E+01-1.42877E+02
 -1       865-1.35810E+02 5.89973E+02-2.50028E+02-6.99324E+01 1.94550E+01-6.75794E+01
 -1       866-3.15449E+02 5.67794E+02-1.86706E+02 1.31634E+02 4.01189E+01 1.05880E+01
 -1       867-3.81373E+02 5.26057E+02-1.23383E+02 1.47035E+02-3.06724E+01-6.02349E+00
 -1       868-3.07881E+02 2.01002E+02-3.15554E+01-7.83427E+01-1.19474E+01 3.66676E+01
 -1       869-1.58963E+02 5.26407E+01 6.02721E+01-9.29762E+01 4.77821E+01 8.05762E+01
 -1       870-6.06336E+01 1.84679E+00 4.46870E+00-3.95657E+01-2.19682E+01-4.86238E+01
 -1       871-1.98238E+01 1.73883E+01-5.13347E+01 1.86032E+01 5.83701E+01 5.40664E+01
 -1       872-5.01293E+02-7.35469E+02 2.60796E+02 9.12149E+02 2.53768E+02-5.46300E+02
 -1       873-1.06256E+03 1.01934E+03-2.70221E+02 8.61601E+02 8.20081E+01-8.59569E+00
 -1       874-2.56706E+03 4.11946E+03-8.01240E+02 9.19877E+01-8.06125E+01-1.92417E+02
 -1       875-2.48633E+03 5.44156E+03-1.73592E+03-6.44569E+02 4.30230E+02-2.37212E+02
 -1       876-2.00048E+03 6.58871E+03-2.67060E+03-1.12234E+03 8.32009E+02 2.73312E+02
 -1       877-2.39854E+03 8.47561E+03-3.41998E+03-1.38302E+02 5.16780E+02 1.79514E+01
 -1       878-1.63871E+03 9.90109E+03-4.16935E+03 1.97250E+03 5.58133E+02 3.81617E+02
 -1       879 4.49611E+02 4.03722E+03-1.94923E+03 6.29708E+03 1.06587E+03 2.26052E+03
 -1       880 3.55153E+02 2.75310E+02 2.70875E+02 8.32284E+03-1.46939E+03 1.89145E+03
 -1       881 3.67644E+02 1.82247E+00-1.82465E+02-5.18868E+02-2.00382E+02 1.12008E+02
 -1       882 1.65302E+02 3.99563E+02-2.15209E+02-3.94120E+01-5.46500E+01-5.17496E+01
 -1       883-1.57232E+01 6.32198E+02-8.81414E+01 4.94655E+02-1.07953E+02-1.57935E+01
 -1       884-2.11999E+03 4.35843E+03-6.49081E+02 1.05203E+03 9.06425E+02-9.07402E+02
 -1       885-2.44284E+03 8.53676E+03-1.75177E+03-3.07566E+02-1.52535E+02-1.07623E+02
 -1       886 1.08187E+03 6.96104E+03-3.24257E+03 9.68895E+02-1.37363E+02 6.27800E+02
 -1       887 3.92526E+03 7.10287E+02-2.03395E+03 6.55636E+03-2.27782E+03-1.20942E+03
 -1       888-1.10914E+03 2.12414E-04-2.18726E-04 5.15838E+00-2.12209E-04 3.86725E+02
 -1       889-8.36496E+02 3.87312E+00 7.30230E+01 2.02250E+02-6.31082E+01-9.91377E+00
 -1       890-4.28311E+01-2.86853E+01 1.46046E+02 3.63103E+02-1.22673E+01 3.86314E+02
 -1       891 7.87130E+02-8.96298E+01-1.17047E+02 1.69766E+02 1.84836E+01 6.63218E+00
 -1       892 8.63834E+02-9.05508E+01-3.80139E+02-2.44055E+02-2.18253E+01 7.84242E+01
 -1       893 6.61443E+02 1.77525E+01-2.80265E+02-1.31193E+02-1.03231E+01-3.15690E+01
 -1       894 4.13561E+02 2.88846E+01-1.80391E+02 6.11882E+01 6.62010E+01 3.37075E+00
 -1       895 2.66738E+02 6.73706E+01-1.16646E+02 3.57823E+02-3.04367E+02-1.01877E+01
 -1       896 2.81524E+02-8.10406E+01-5.29001E+01 6.24717E+02-2.44458E+02-1.55178E+02
 -1       897-2.11326E+03 2.57992E+03-4.96923E+02 3.24763E+03-7.22705E+02-1.40583E+03
 -1       898-4.13469E+03 5.45047E+03-6.64938E+02 3.03877E+03-1.66482E+03-5.13756E+02
 -1       899-3.33632E+03 6.78137E+03-8.32948E+02-8.61489E+02-1.47366E+03 1.07344E+03
 -1       900-1.21614E+03 5.37506E+03-1.57437E+03-1.98385E+03-2.89104E+03 3.33624E+02
 -1       901 2.93918E+03 2.73230E+03-2.31579E+03-1.07681E+03 4.15710E+02-1.15975E+02
 -1       902 7.32228E+03 1.03284E+03-3.32729E+03 1.28213E+03-2.71879E+02 7.28932E+02
 -1       903 9.97166E+03-1.50234E+03-4.33878E+03 2.72925E+03-8.11356E+02-5.74718E+02
 -1       904 9.53297E+03-1.79829E+03-1.14861E+03-3.12961E+03-3.52555E+02-7.45011E+02
 -1       905-6.85222E+02-7.55892E+02 2.04158E+03-5.71619E+03-2.05778E-01-4.82310E+03
 -1       906-1.04621E+04-9.98301E+01 1.02079E+03-3.15368E+03-7.48409E+02 2.49580E+02
 -1       907-1.38820E+04 2.93712E-03-3.06704E-03-1.96440E+02-4.26448E-03-5.15691E+03
 -1       908-8.88226E+02 1.45775E-04-2.52049E-04 1.37521E+01 1.12469E-04 2.72104E+02
 -1       909-5.28124E+01-4.82898E+01 1.36243E+02 3.32000E+02 1.76154E+01 2.50403E+02
 -1       910 7.49670E+02-1.22194E+02-3.21853E+02-9.74877E+01 5.54041E+00 2.95334E+01
 -1       911 6.34679E+02-1.80479E+02-1.81065E+02-4.75029E+01-1.01775E+02-1.46294E+02
 -1       912 2.27005E+02-1.26666E+03 1.93445E+02-1.59174E+02-1.02459E+02-8.95402E+01
 -1       913-4.24718E+03-5.91355E+03 2.48949E+03 3.86278E+03-3.61352E+02-1.04652E+02
 -1       914 4.23856E+03 1.17613E+03-2.01159E+03-2.76497E+03-1.16741E+03 3.31023E+03
 -1       915 9.43926E+03-3.34538E+03-3.58830E+03 5.61398E+02 1.73642E+02-5.70225E+02
 -1       916-7.73655E+02-8.84866E+02 1.90634E+03-4.83410E+03 7.69479E+01-2.98229E+03
 -1       917-1.04804E+04 2.49871E-03-3.52672E-03-2.69459E+02 2.45011E-03-3.13525E+03
 -1       918-6.71024E+02 6.59471E-06-1.68061E-04 1.74448E+01-1.63556E-04 2.28190E+02
 -1       919-5.18771E+02-9.33478E+00 6.32199E+01 1.65003E+02 3.45531E+01-1.32935E+01
 -1       920-4.62363E+01-4.49768E+01 1.26440E+02 2.93073E+02 1.45324E+01 1.67006E+02
 -1       921 3.60804E+02-4.49863E+01-6.85630E+01 1.49896E+02-2.13100E+01-1.36245E+01
 -1       922 5.42447E+02-5.34282E+01-2.63566E+02-3.18161E+01-8.63739E+00 9.93208E+01
 -1       923 6.75929E+02-3.94503E+01-2.22652E+02-1.83338E+02 6.03909E+01-2.06408E+01
 -1       924 6.78467E+02-1.09465E+02-1.81738E+02-2.80653E+02-6.24819E+01-5.51520E+01
 -1       925 2.47476E+02-7.48428E+02 1.29026E+02-5.95420E+02 3.11058E+01 1.08081E+02
 -1       926-1.37000E+02-9.65733E+02 2.78382E+02-6.15936E+02-4.16180E+02-3.33988E+02
 -1       927-7.40125E+01-1.08561E+02 1.07950E+02-1.22095E+02-4.88400E+00-1.31746E+02
 -1       928-8.63474E+00 5.29231E+01-4.95172E+01 3.00773E+01 2.26963E+01-1.53145E+02
 -1       929-3.64881E+01 6.80568E+01-2.16760E+01-8.05747E+00-9.56738E+00-8.02309E+01
 -1       930-7.23582E+01 4.91564E+01-1.41487E+01-1.93909E+00-1.50974E+01-7.49670E+01
 -1       931-1.29433E+02-5.69151E+01 9.04072E+01 7.06233E+01-4.23811E+01 9.55561E+01
 -1       932-3.82996E+01-2.06061E+02 1.55819E+02-8.22507E+00-4.22127E+01 1.52744E+02
 -1       933-3.84338E+01 3.96598E+02-1.68285E+02-1.24917E+02-1.16608E+02 4.29075E+02
 -1       934 9.38301E+01 6.68320E+02-7.95665E+02-4.81078E+02 1.33257E+02 7.25610E+02
 -1       935-1.71036E+03-9.98993E+02 1.49635E+03 1.59879E+03-3.12960E+02 8.18517E+02
 -1       936-6.54051E+03-7.86211E+03 3.66400E+03 7.81410E+03-5.47323E+03 4.66818E+03
 -1       937-7.45204E+03-3.46274E+03 2.05227E+03 4.64268E+03-8.96293E+02 3.36867E+02
 -1       938 2.96787E+03 2.34050E+03-1.70738E+03-3.71117E+03-1.79439E+03 1.66727E+03
 -1       939 1.04564E+04-2.53155E+02-2.27259E+03-2.79099E+03 5.51976E+02 1.00995E+03
 -1       940 7.47028E+03-3.31307E+03-2.83780E+03 3.85569E+02-9.29127E+01-4.27427E+02
 -1       941 4.09743E+03-1.93354E+03-5.33347E+02-1.48437E+03-2.54112E+02-3.24955E+02
 -1       942-6.32205E+02-8.77271E+02 1.77111E+03-3.91126E+03-6.09859E+01-1.44655E+03
 -1       943-5.87852E+03-2.45596E+02 8.85553E+02-2.34214E+03 3.64459E+02 3.29317E+02
 -1       944-7.43258E+03 1.86010E-03-3.18060E-03-3.10238E+02-2.09791E-03-2.34095E+03
 -1       945-5.03640E+02 1.94200E-05-1.69360E-04 2.31609E+01 3.56626E-04 1.47084E+02
 -1       946-4.86698E+01 3.05450E+00 9.15464E+01 2.96712E+02-3.34392E+01 1.03784E+02
 -1       947 3.69035E+02 1.12884E+01-2.00144E+02-4.91531E+01-1.33342E+01 2.75340E+01
 -1       948 4.19024E+02-7.92844E+01-1.27460E+02-4.26657E+02 9.70938E+01-1.23651E+02
 -1       949-2.89110E+01-2.10954E+02 1.24197E+02-1.20637E+02-2.88509E+00-1.07410E+01
 -1       950-1.53605E+01-1.00558E+00-2.00391E+01 1.82209E-01 4.72953E+01-5.65207E+01
 -1       951-6.08838E+01 1.05140E+01-6.92072E+00-2.01895E+00 3.29431E+01-9.18194E+01
 -1       952-1.51102E+02-4.54544E+01 1.51122E+02 6.13884E+01-2.12370E+01-2.37563E+01
 -1       953 1.70326E+02-1.32646E+02-4.25978E+02-4.30325E+01 2.15167E+02-1.37304E+02
 -1       954-7.90742E+02-2.18119E+03 1.60216E+03 1.56902E+03-5.73860E+02 2.52333E+02
 -1       955 1.59243E+03-1.41977E+03-1.00259E+03 1.99290E+03 1.11836E+02 9.56798E+01
 -1       956-1.47106E+03-7.32146E+02 1.59932E+03-3.35197E+03-8.54332E+01-1.13895E+03
 -1       957-4.89829E+03 1.68897E-03-2.95874E-03-2.34096E+02 5.38773E-03-9.31055E+02
 -1       958-3.24180E+02-5.34134E-04 1.28949E-04 3.51549E+01 9.37918E-05 4.38276E+01
 -1       959-2.26530E+02 2.26365E+01 2.83263E+01 1.82433E+02 9.90458E+01-4.10129E+01
 -1       960-5.56963E+01 1.12354E+02 5.66524E+01 2.99994E+02-3.42764E+00 1.04594E+02
 -1       961 2.09060E+01 1.22545E+02-4.00350E+01 1.35354E+02 1.83884E+01 1.95362E+01
 -1       962 1.39534E+02 1.17970E+02-1.36722E+02-5.20786E+01-1.00122E+01-3.50459E+01
 -1       963 2.58881E+02 1.03986E+01-1.04952E+02-2.35581E+02-4.95547E+00 9.85428E+01
 -1       964 1.47810E+02-3.25623E+01-7.31812E+01-4.42733E+02 7.64730E+01-2.57603E+01
 -1       965 3.47120E+01 4.85526E+01-7.81048E+01 3.49821E+01 1.30784E+00 1.57427E+01
 -1       966-1.24684E+01 7.16851E+01-5.67589E+01-2.41350E+01 1.06934E+02-7.39354E+00
 -1       967-2.82811E+01-1.40302E+01 2.90930E+01-5.52470E+01 6.78608E+01-6.77604E+01
 -1       968-1.82964E+01-3.40555E+00 2.44834E+01-1.36314E+01 6.70717E+01-5.02049E+01
 -1       969-5.13300E+01-9.43492E+00 3.52125E+01 1.39120E+01 5.46152E+01-8.07868E+01
 -1       970-7.93404E+01 2.04653E+01-1.11818E+01 3.91067E+01 6.00805E+01-6.71809E+01
 -1       971-6.97919E+01 3.26760E+01-3.75728E+01 6.82493E+01 5.48998E+01-1.06952E+02
 -1       972 1.04525E+01-1.33372E+02 1.52854E+02 1.15369E+02-2.21187E+01-3.93537E+01
 -1       973-3.52339E+02-4.25047E+02 4.63716E+02 4.61714E+02-2.25720E+02 2.08438E+02
 -1       974-1.04811E+02 2.58451E+02-4.37281E+02 1.40745E+01 2.13824E+02-1.72646E+02
 -1       975 5.59893E+02 1.36373E+02-8.03972E+02-4.88857E+02-6.72423E+02-1.24047E+02
 -1       976-1.14195E+03-6.29577E+02 8.32632E+02 1.64386E+03 1.08600E+03-1.30762E+03
 -1       977-1.42320E+03-6.21819E+02 1.13009E+03-7.67488E+02 2.46427E+02-2.19121E+02
 -1       978-2.19307E+03-8.07817E+02 1.42754E+03-2.89724E+03-1.07915E+02 1.09561E+02
 -1       979-2.56569E+03-2.86964E+02 7.13768E+02-1.59658E+03 1.79328E+02 6.18191E+00
 -1       980-2.69401E+03 1.79127E-03-1.61248E-03-1.60092E+02-2.59883E-03-4.96779E+02
 -1       981 3.07365E+01-7.99705E-04 1.24514E-04 2.28470E+01-1.55704E-04-2.86776E+01
 -1       982-1.89631E+02 3.06375E+02-6.73051E+01 4.10044E+02 3.91340E+01-4.53137E+01
 -1       983-8.34147E+01 2.06731E+02 1.58534E+01-2.77325E+01 8.46605E+01 1.19480E+02
 -1       984-3.09270E+01 6.69180E+01-1.16297E+01 2.23445E+01-8.82368E+01 1.36669E+01
 -1       985-2.96888E-01 5.09160E+01-2.10212E+01-5.16860E+01 6.59458E+01-3.40247E+01
 -1       986-1.67248E+01 1.43504E+01 7.32730E+00-1.05250E+01 8.37069E+01-9.14491E+01
 -1       987-5.15374E+01-3.08137E+01 1.20543E+01 5.95656E+01 8.41179E+01-8.84338E+01
 -1       988-1.08163E+02 3.23131E+01 1.40971E+02 1.40259E+02 3.98347E+01 1.95028E+01
 -1       989 3.28561E+02-6.67811E+00-1.42892E+02-1.63387E+02-4.27615E+02 9.97972E+01
 -1       990-1.09623E+03-8.88208E+02 8.63897E+02-2.19194E+03-4.22687E+02-4.23000E+02
 -1       991-1.32163E+03 2.16383E-03-1.59820E-03-9.50727E+01 1.45069E-03 1.26846E+02
 -1       992 4.60541E+02-8.36928E-04 1.36606E-03 3.79956E+01 6.75485E-04-4.58856E+02
 -1       993 1.87132E+02 2.09708E+02-9.56308E+01 4.94697E+02 1.08327E+02 4.03086E+01
 -1       994-2.60134E+02 5.56041E+02-1.91263E+02 7.33453E+02-9.42261E+01-2.02361E+01
 -1       995-4.60441E+02 2.25509E+02-1.14166E+01 1.04202E+02-5.83117E+01 2.98810E+01
 -1       996-3.13036E+02 1.17642E+02 1.68429E+02-8.30818E+01-1.63323E+01 4.16982E+01
 -1       997-1.05180E+02 1.20967E+02 2.50795E+01-9.40647E+00-7.39723E+01 2.50276E+01
 -1       998-2.01644E+01 8.48857E+01 1.92512E+01-4.17848E+01 1.00249E+02-2.72146E+01
 -1       999 2.87774E+01 8.60685E+01-6.76859E+01-8.00796E+01 1.14457E+02-9.34830E+00
 -1      1000 4.10153E+00 4.66577E+01-3.03279E+01-4.93830E+01 1.30834E+02-5.79692E+01
 -1      1001 9.77319E+00 2.44309E+01-1.19202E+01-2.75684E+01 1.21758E+02-8.17645E+01
 -1      1002-7.33091E+00 1.14006E+00 9.22992E+00 2.51065E-01 1.23218E+02-7.98925E+01
 -1      1003-1.08947E+01-1.70001E+01 2.24300E+01 1.89135E+01 1.21250E+02-9.51946E+01
 -1      1004-2.39733E+01-4.92669E+01 6.45097E+00 6.60410E+01 1.20190E+02-6.49044E+01
 -1      1005 3.22592E+01-5.18535E+01-5.04905E+01 7.34035E+01 1.39807E+02-4.98090E+01
 -1      1006-3.63432E+01-1.43724E+02 1.53296E+02 6.81617E+01 4.97817E+01 2.46061E+01
 -1      1007-1.82068E+02 3.42352E+00 1.44186E+02 2.95724E+01-1.20900E+02 5.06359E+01
 -1      1008-1.19200E+02-5.64096E+02 3.00256E+02-1.34696E+03-3.20293E+02 6.97895E+01
 -1      1009-2.16287E+02-1.54118E+02 1.50127E+02-7.09014E+02 1.92424E+02 2.19583E+01
 -1      1010-3.13375E+02 1.67599E-03-1.13183E-03-5.20694E+01 7.03285E-04-3.07284E+02
 -1      1011 1.19228E+03-1.70440E-03 1.29664E-03 9.87501E+01 1.70829E-03 4.96366E+01
 -1      1012 8.96840E+02 7.01286E+02-7.00890E+02 1.75210E+03-4.77621E+02-3.97678E+02
 -1      1013 5.17387E+01 1.74303E+02-9.63611E+01-1.17215E+02-2.93465E+02 6.23113E+01
 -1      1014-1.22770E+01 1.18856E+02-5.87556E+00-1.06387E+02 8.32402E+01-1.73632E+01
 -1      1015 3.69053E+01 4.47267E+01-3.69629E+01-5.27115E+01 1.04783E+02-8.19534E+01
 -1      1016 1.31212E+01-6.57335E+00 3.01847E+00 7.58052E+00 1.04519E+02-9.73987E+01
 -1      1017 1.45545E+01-6.26214E+01-1.01726E+01 5.38605E+01 9.05504E+01-5.19815E+01
 -1      1018-2.63329E+01-1.06464E+02 6.39068E+01 9.73168E+01-1.35052E+02 2.74612E+01
 -1      1019 3.90910E+02-3.29921E+02-4.37859E+01-1.00202E+03-1.79151E+02 8.51578E+00
 -1      1020 3.17469E+02 8.82447E-04 8.10035E-05-5.76442E+01 2.51602E-04 4.25280E+00
 -1      1021 2.19643E+03-1.65249E-03 9.65179E-04 1.25901E+02-1.57199E-03-2.82080E+02
 -1      1022 2.17440E+03 1.12325E+02-6.05258E+02 1.19096E+03 8.21942E+01-1.07875E+01
 -1      1023 1.95092E+03 3.82199E+02-1.21052E+03 2.16264E+03-1.30259E+02 9.89072E+01
 -1      1024 1.44924E+03 1.06608E+02-6.96310E+02 5.43084E+02 1.65060E+02-1.72845E+02
 -1      1025 1.35048E+03 1.52064E+02-1.82099E+02-1.38452E+03 5.34310E+02-5.35288E+02
 -1      1026 2.57355E+02 5.40850E+01-1.71913E+02-8.38121E+00-3.51600E+02 6.76446E+01
 -1      1027 5.88011E+01 2.10038E+02-1.95618E+02-1.12128E+02 4.14686E+00 4.92016E+01
 -1      1028-3.22228E+01 1.06679E+02 3.26529E+01-1.38463E+02 1.27004E+02-1.49075E+01
 -1      1029 6.43353E+01 9.31905E+01-3.74140E+01-1.20381E+02 1.06515E+02-5.72839E+01
 -1      1030 6.27872E+01 5.10704E+01-5.60360E+01-6.52946E+01 1.11289E+02-8.09202E+01
 -1      1031 6.02264E+01 3.26737E+01-4.33157E+01-4.55237E+01 1.13182E+02-7.89539E+01
 -1      1032 4.08869E+01 1.27854E+01-2.25815E+01-1.60334E+01 1.11944E+02-9.58285E+01
 -1      1033 3.16996E+01-2.84237E+00 1.15461E+00 1.27902E+01 1.19821E+02-6.63067E+01
 -1      1034-1.17348E+01-3.35949E+01 4.57571E+01 4.20769E+01 1.14661E+02-4.95081E+01
 -1      1035 2.77020E+01-1.46089E+01-5.39942E+01 2.13978E+01 1.01273E+02-4.24744E+01
 -1      1036 1.08715E+02-6.44512E+01-5.49205E+01-1.07653E+01 1.10996E+01-2.56692E+00
 -1      1037 4.27300E+02-1.69938E+02 3.91726E+01 3.83943E+02 4.91704E+01 1.95939E+02
 -1      1038 5.59001E+02-1.72268E+02-1.74328E+02-6.10072E+01-4.32031E+01 4.56730E+01
 -1      1039 7.82185E+02-2.25515E+02-3.87828E+02-5.92379E+02-8.17833E+01 1.19364E+02
 -1      1040 8.51575E+02-7.59423E+01-1.93914E+02-3.84409E+02 9.33780E+01-2.13790E+01
 -1      1041 8.75222E+02 4.57569E-04-2.23499E-04-6.27489E+01 2.76275E-04-1.47014E+01
 -1      1042 3.72576E+03-8.95481E-04 2.28406E-03 1.35146E+02 3.60702E-03-6.99626E+02
 -1      1043 1.53684E+03 3.62877E+02-1.23463E+03 2.25147E+03 4.62868E+01-8.61600E+02
 -1      1044-1.05560E+03 5.92096E+02 6.41872E+02-1.46837E+03 1.92831E+02-3.02275E+02
 -1      1045-4.95022E+02 5.75443E+01 1.55768E+02 1.56275E+02-7.03210E+02 1.52280E+02
 -1      1046 1.77089E+02-2.18816E+00-1.92913E+02-1.97755E+02 4.21555E+01 8.54869E+01
 -1      1047 1.10042E+02 5.36052E+01-4.22840E+01-1.16496E+02 7.75586E+01-7.66152E+01
 -1      1048 7.43881E+01 1.03574E+01-3.79493E+01-2.33390E+01 7.93533E+01-1.05376E+02
 -1      1049 4.52638E+01-2.10920E+01-2.21497E+01 2.72771E+01 6.38252E+01-8.69342E+01
 -1      1050-6.17188E+01-2.15524E+01 2.49766E+01-4.35011E+01-6.91633E+01-3.08177E+01
 -1      1051-1.27994E+02-1.95934E+02 2.52674E+02 4.69517E+02 1.12903E+02 1.28963E+02
 -1      1052 6.17593E+02-1.11757E+02-3.73345E+02-4.46139E+02 4.59549E+00 2.38462E+02
 -1      1053 1.25305E+03 2.45112E-04 6.90685E-04-3.96144E+01 9.23594E-04 2.67783E+02
 -1      1054 5.39431E+03-2.07708E-03 3.46721E-03 1.62643E+02-3.12667E-03-1.54933E+03
 -1      1055 4.38195E+03 1.30689E+02-6.29372E+02 1.55821E+03 3.45827E+02 1.16195E+02
 -1      1056 1.11867E+03 4.80227E+02-1.25875E+03 2.52192E+03 2.24094E+02-1.32118E+03
 -1      1057-2.47139E+03 1.34708E+03 1.03548E+02 6.54139E+02-1.98976E+02 4.14699E+02
 -1      1058-5.34700E+03 2.57658E+03 1.46584E+03-8.60349E+02 2.07999E+02-1.30449E-01
 -1      1059-6.04126E+03 2.40715E+03 1.09530E+03-2.06309E+03 1.06832E+03-1.46715E+03
 -1      1060-3.66257E+03 2.60737E+03 7.24765E+02-4.70662E+03 1.86445E+03 8.36196E+02
 -1      1061-8.31404E+02-9.61489E+01 8.91739E+02 6.03255E+02-1.06552E+03-1.69946E+02
 -1      1062 1.72239E+02-2.21427E+02 5.06507E+02 7.75715E+00 1.67931E+02-2.45601E+02
 -1      1063 5.43712E+02 4.68566E+02-5.75935E+02-6.39794E+02-2.94912E+02 3.49520E+02
 -1      1064-3.66101E+00 1.52059E+02-1.93699E+02-2.11690E+02-5.43330E+01-1.08526E+01
 -1      1065 1.28491E+02-2.37629E+01 1.72770E+01-1.18429E+02 2.87095E+01-1.05221E+02
 -1      1066 1.59081E+02-1.50990E+01-6.07004E+00-8.30437E+01 3.12672E+01-6.45117E+01
 -1      1067 1.17247E+02 1.53017E+01-6.04267E+01-5.37819E+01 2.43207E+01-8.27461E+01
 -1      1068 4.78378E+01 2.87739E+01-6.61081E+01-1.59094E+00 2.89801E+01-6.11706E+01
 -1      1069 1.26447E+02 7.41891E+01-1.10974E+02 9.47239E+01 5.88118E+00-1.52929E+02
 -1      1070 4.53728E+01-6.10521E+01 1.04385E+02-1.21009E+01 9.46512E+01 1.77543E+01
 -1      1071-1.58743E+02-3.06149E+01 1.72401E+02-1.14666E+02-8.97254E+01 1.91736E+01
 -1      1072-8.66233E+02 4.53163E+02 2.53098E+02 1.26422E+03 3.85222E+02-1.70849E+02
 -1      1073-1.41810E+03 3.52749E+02 3.59636E+02 7.39359E+02 1.64291E+02 4.00035E+02
 -1      1074-1.14075E+03 2.42546E+02 4.66174E+02 4.89792E+02 4.52301E+01 2.94487E+01
 -1      1075-4.25873E+02 6.15572E+01 5.36561E+01 7.89675E+01-2.79759E+01-7.95412E+01
 -1      1076 4.37639E+02-1.34287E+01-3.58862E+02-3.87215E+02 5.11709E+01 3.64492E+02
 -1      1077 1.29907E+03-8.97096E+00-1.79431E+02-2.54383E+02 8.29406E+01-4.40075E+01
 -1      1078 1.59726E+03-4.63746E-05 8.70172E-04-3.16333E+01-5.53244E-04 4.00021E+02
 -1      1079 7.54501E+03-2.15830E-03 3.17580E-03 1.96874E+02 2.87637E-03-1.83245E+03
 -1      1080 6.19633E+02 9.21290E+02-1.71666E+03 3.41073E+03-2.85199E+02-1.73895E+03
 -1      1081-7.18796E+03 2.69436E+03 2.52353E+03 7.85718E+01 3.07892E+02-6.02032E+02
 -1      1082-7.29688E+03 5.17247E+03 1.08467E+03-4.44354E+03 8.46540E+02 2.32956E+03
 -1      1083 1.22047E+03 2.29554E+03-1.77520E+03-2.05962E+03-1.14216E+03 4.32989E+02
 -1      1084-2.83200E+02 1.41399E+02 5.07587E+02-4.13721E+01 2.19360E+02-1.97208E+02
 -1      1085 2.43245E+02 4.10195E+01-1.91140E+02-1.07996E+02-3.63338E+01 2.42031E+01
 -1      1086 1.41059E+02-1.28102E+01-2.68444E+01-1.74644E+01 1.90926E+01-1.01819E+02
 -1      1087-7.74747E+00 1.61133E+01 6.97687E+01-1.01399E+01 5.76500E+01-4.81702E+01
 -1      1088 2.14032E+02 4.18270E+02-3.17262E+02 3.77386E+02-1.60628E+02-1.05748E+02
 -1      1089-1.66021E+03 9.18883E+02 3.30427E+02 1.22505E+03 2.76380E+02-5.48438E+02
 -1      1090-1.59045E+03 3.94988E+02 6.48829E+02 3.16465E+02 6.85202E+01 1.51938E+02
 -1      1091 2.72360E+02 1.09370E+02-4.22975E+02-5.00344E+02-5.34088E+01 4.15543E+02
 -1      1092 1.93392E+03-2.54681E-04 7.82499E-04-3.14456E+01 1.52351E-04 4.99207E+02
 -1      1093 1.00139E+04-1.20755E-03 3.16526E-03 3.30285E+02-1.59050E-03-3.36012E+03
 -1      1094 7.70728E+03 4.75460E+02-1.08728E+03 2.50552E+03 4.41656E+02 3.39085E+02
 -1      1095 4.19277E+02 1.47303E+03-2.17457E+03 4.34572E+03-3.29909E+01-2.36160E+03
 -1      1096-5.66289E+03 2.06301E+03 7.03323E+02 2.70953E+03-3.83678E+02 3.99200E+01
 -1      1097-8.68227E+03 2.35349E+03 3.58122E+03 6.88606E+02-2.97054E+02-9.72974E+02
 -1      1098-1.13272E+04 2.86921E+03 2.51289E+03-1.15922E+02 3.12993E+02-3.64128E+01
 -1      1099-9.01991E+03 3.79529E+03 1.44456E+03 9.53629E+02-8.44933E+02 1.82685E+03
 -1      1100 6.88953E+03 5.03509E+03-2.58069E+03-3.39980E+03-8.91110E+02 1.41949E+03
 -1      1101 9.53348E+03 8.03345E+03-4.05610E+03-8.91342E+03-6.57390E+03 7.16096E+03
 -1      1102 2.71812E+03 1.03875E+03-1.87392E+03-2.03111E+03-3.71871E+02 9.39155E+02
 -1      1103-1.21595E+02-7.31603E+02 8.92578E+02 6.09858E+02 1.63049E+02 1.05753E+03
 -1      1104 5.50347E+01-4.54618E+02 1.32687E+02 1.85284E+02-1.41431E+02 7.01573E+02
 -1      1105 6.79577E+01 1.94650E+02-1.52210E+02-4.44951E+01-8.55077E+01 3.23659E+02
 -1      1106 2.38782E+02 4.67708E+01-1.19362E+02-9.24798E+01-7.59199E+01 2.31256E+02
 -1      1107 1.34662E+02-5.20494E+01-1.57010E+01 9.14596E+00-4.15628E+01 8.66937E+00
 -1      1108 7.45439E+01-1.28701E+02 1.89454E+01-2.75216E+01-4.28341E+01-7.15622E+01
 -1      1109 1.25892E+01-1.31533E+02 1.47952E+02-1.15725E+02 2.28039E+01-2.40100E+02
 -1      1110 5.04946E+02 1.96340E+02-3.51872E+02 3.65082E+02-6.77149E+01-1.82441E+02
 -1      1111 1.60554E+03 1.60134E+03-7.41794E+02 1.62552E+03-1.15226E+03-1.36501E+03
 -1      1112 7.54276E+02 1.22064E+03-4.00244E+02 6.99494E+02-5.16144E+01-2.06965E+02
 -1      1113-2.19706E+03 8.68682E+02 4.07755E+02 1.37140E+02-1.04773E+02-3.72438E+02
 -1      1114-2.52479E+03 5.62904E+02 6.19619E+02 3.64489E+02 9.13801E+01 1.33759E+01
 -1      1115-1.91886E+03 4.10785E+02 8.31484E+02 1.96601E+02-1.60833E+01 2.34177E+02
 -1      1116-1.21150E+03 3.42226E+02 1.72198E+02-2.58479E+02-6.54496E+01-4.01287E+01
 -1      1117 1.63920E+02 2.41541E+02-4.87087E+02-6.25986E+02-3.29536E+00 5.53511E+02
 -1      1118 1.78386E+03 7.57153E+01-2.43543E+02-3.64397E+02 8.82750E+01-8.82885E+01
 -1      1119 2.30773E+03-1.17601E-04 7.01616E-04-5.25295E+01 7.20623E-05 7.38600E+02
 -1      1120 1.34070E+04-3.26979E-03 4.26551E-03 3.00475E+02 4.08017E-03-4.03841E+03
 -1      1121 8.08406E+02 1.13838E+03-2.30570E+03 5.40879E+03 2.78931E+02-3.77894E+03
 -1      1122-1.09352E+04 3.03012E+03 4.52445E+03-5.04777E+02 8.61885E+00-8.29094E+02
 -1      1123-6.69484E+03 1.51306E+03 1.92079E+03 2.29752E+03-9.34072E+02 3.84428E+03
 -1      1124 5.57672E+03 6.21656E+03-2.65735E+03-4.21610E+03-1.17562E+03 1.34027E+03
 -1      1125 7.24904E+02 1.65248E+03-5.61705E+02 6.74527E+02-2.71164E+02-3.48971E+02
 -1      1126-1.65003E+03 5.50990E+02 4.19992E+02-2.88323E+02-1.69279E+02-7.19579E+02
 -1      1127-2.36343E+03 6.06895E+02 9.78457E+02 3.54903E+02-1.46990E+01 1.86679E+02
 -1      1128 1.86350E+02 1.95075E+02-4.75191E+02-8.30303E+02 5.47828E+01 7.96730E+02
 -1      1129 2.80848E+03-5.87740E-04 8.79098E-04-3.97750E+01 3.33578E-04 8.15047E+02
 -1      1130 1.70597E+04-4.93424E-03 3.81980E-03 1.48254E+02-5.23176E-03-6.31324E+03
 -1      1131 1.29032E+04-5.12507E+01-1.21841E+03 3.45843E+03-1.18808E+03 9.85385E+01
 -1      1132 9.79609E+02 6.48724E+02-2.43682E+03 6.33853E+03-3.24589E+02-5.86192E+03
 -1      1133-1.16014E+04 2.18263E+03 1.51543E+03 3.66557E+03 1.68036E+02-4.53277E+02
 -1      1134-1.27452E+04 1.94286E+03 5.46767E+03-2.95275E+03-6.00641E+02-6.17208E+02
 -1      1135-9.01909E+03-9.60275E+02 3.93234E+03-1.75284E+03-6.48344E+02 1.21632E+02
 -1      1136-3.09942E+03-2.59515E+03 2.39702E+03 6.99585E+02-3.24610E+00-1.19739E+02
 -1      1137 5.89352E+02-5.59267E+03 1.84413E+03 2.15042E+03-3.52692E+03 1.38383E+03
 -1      1138 2.23939E+03-7.03169E+03 1.29125E+03 9.84304E+02-1.42467E+03 9.88481E+02
 -1      1139 4.19674E+03-5.74294E+03 7.19936E+02-3.28955E+03-1.67518E+03-6.40357E+02
 -1      1140 2.17429E+03-2.38513E+03 1.48615E+02-3.70301E+03-6.17159E+02-1.43746E+03
 -1      1141 4.43639E+02-2.30672E+02-9.44678E+01 3.34031E+02-1.14075E+02 1.95385E+02
 -1      1142 7.78284E+02-7.27645E+02-4.81689E+00 1.85305E+02-1.77220E+02 1.74050E+01
 -1      1143 2.20186E+02-7.17258E+02 8.48329E+01-5.15410E+02-2.32548E+02-2.41475E+02
 -1      1144-1.56484E+02-5.79832E+02 2.58531E+02-5.45588E+02-6.29251E+02-2.57040E+02
 -1      1145-8.51435E+02-1.77255E+02 4.32228E+02-1.41880E+02 2.76914E+01-2.42404E+00
 -1      1146-1.97910E+03-1.66420E+00 7.78828E+02 4.35914E+02-1.00872E+02-1.81135E+01
 -1      1147-2.69076E+03 4.46592E+02 1.12543E+03 7.61492E+02-1.09031E+02 1.32005E+02
 -1      1148-2.40370E+03 4.25369E+02 3.31068E+02-5.06678E+02 4.57925E+01 2.27630E+01
 -1      1149 1.85302E+02 1.01527E+02-4.63294E+02-1.01714E+03-4.85368E+01 1.13265E+03
 -1      1150 2.57841E+03-2.24530E+01-2.31646E+02-5.37023E+02-2.39753E+02-5.36301E+01
 -1      1151 3.36686E+03-9.05725E-04 9.19537E-04-3.63444E+00-6.79361E-04 1.15804E+03
 -1      1152-5.25939E+03-6.56273E+02 2.60462E+03-7.93183E+03-2.81045E+03-1.17330E+03
 -1      1153-1.48495E+03-8.04450E+03 3.77360E+03-1.38507E+03-2.39086E+02 5.93147E+02
 -1      1154 2.00820E+03-9.37886E+03 2.17971E+03 7.20536E+02 6.47488E+00-4.22596E+02
 -1      1155 1.90529E+03-3.95585E+03 6.46563E+02-9.41704E+02 9.76478E+02-9.07856E+02
 -1      1156 3.60511E+02-3.99617E+02-4.27704E+00-1.34698E+02 7.23085E+01 1.97531E+02
 -1      1157 3.11852E+02-1.24915E+03 2.45890E+02-4.93433E+02 6.54074E+00 6.23361E+01
 -1      1158-4.35320E+02-1.12928E+03 6.17965E+02 1.10823E+02-4.88299E+01-1.26883E+02
 -1      1159-1.11996E+03-5.76542E+01 5.37341E+02 1.58428E+03-5.26780E+02 2.52262E+02
 -1      1160-2.05651E+02-3.54782E+02-2.58428E+02-1.02458E+04-1.67716E+03 1.42803E+03
 -1      1161-7.68842E+02-4.74387E+03 2.44587E+03-7.44193E+03 1.14817E+03 2.90112E+03
 -1      1162 1.36362E+03-1.15408E+04 5.15018E+03-2.29852E+03 7.11643E+02 5.64110E+02
 -1      1163 2.56690E+03-9.72983E+03 4.10917E+03 3.08996E+02 5.77825E+02-1.22132E+02
 -1      1164 2.07283E+03-7.39094E+03 3.06816E+03 1.81986E+03 7.63557E+02 4.00701E+02
 -1      1165 2.11187E+03-6.01750E+03 2.10634E+03 1.51189E+03 5.10919E+02-1.34815E+02
 -1      1166 2.50041E+03-4.94005E+03 1.14451E+03 1.14824E+03-1.98554E+02-8.33887E+01
 -1      1167 4.09107E+02-5.99982E+02 8.59141E+01-5.51026E+02-1.34105E+02 2.54849E+01
 -1      1168 3.75547E+02-8.16364E+02 2.46431E+02-6.05593E+02 2.01386E+01-1.95171E+01
 -1      1169 3.84287E+02-1.06390E+03 4.06948E+02-6.63610E+02 9.39910E+01-7.21810E+01
 -1      1170 4.16743E+02-1.42403E+03 6.05326E+02-3.37351E+02 7.19361E+01 3.93371E+01
 -1      1171 1.63073E+02-1.72891E+03 8.03703E+02 1.77229E+02 1.00015E+02-1.00634E+02
 -1      1172-1.88918E+02-6.97366E+02 3.76478E+02 1.20424E+03 1.67764E+02-5.10442E+02
 -1      1173-5.32591E+01-4.02586E+01-5.07450E+01 1.86214E+03-3.10706E+02-2.60329E+02
 -1      1174 1.88132E+03-1.07355E+04 1.37636E+03 4.12272E+03 5.90070E+02-1.61110E+02
 -1      1175 1.86967E+03-5.05086E+03 7.02028E+02 3.53002E+03 1.06366E+02 3.70169E+02
 -1      1176 1.87893E+03-2.58305E+03-1.72036E+01 2.02640E+03-1.01134E+03 3.75801E+02
 -1      1177 3.99769E+02-5.40818E+02 1.47947E+01-6.78608E+02-2.46095E+02-4.76459E+01
 -1      1178 3.61215E+02-7.84081E+02 9.09537E+01-8.81760E+02 3.90250E+00-7.81921E+01
 -1      1179 3.20486E+02-1.67757E+03 1.99311E+02-9.03509E+02 1.79476E+02 1.76271E+01
 -1      1180 6.58793E+02 9.01467E+02-2.39746E+03 6.76163E+03 5.72347E+03 3.24962E+02
 -1      1181 1.03059E+03 6.37294E+02-2.03078E+03 5.98389E+03 3.42143E+03-2.73683E+02
 -1      1182 1.29677E+03 7.67055E+01-1.66411E+03 5.08307E+03 1.83718E+03 4.61850E+01
 -1      1183 1.05076E+03 2.44425E+02-1.42151E+03 4.17114E+03 1.51864E+03 3.41163E+02
 -1      1184 1.17267E+03 1.08094E+03-1.17892E+03 3.29521E+03 5.70551E+02-3.70679E+01
 -1      1185 1.44249E+03 8.55235E+02-8.25739E+02 2.03147E+03 5.32094E+02 3.19687E+02
 -1      1186 8.06385E+02 1.60630E+02-4.72561E+02 8.11629E+02-1.28689E+02 2.36811E+02
 -1      1187 3.33802E+02-3.20822E+01-1.95808E+02 3.97445E+02 2.32549E+01 1.72420E+01
 -1      1188 2.28539E+02-1.07722E+02 8.09445E+01 1.25593E+02-1.19749E+02 4.53963E+01
 -1      1189 3.67996E+02-1.46779E+02 1.23104E+01-1.29605E+02 1.55520E+01 4.45209E+01
 -1      1190 4.12130E+02-2.11287E+02-5.63245E+01-6.10925E+02-5.84321E+01 2.82229E+01
 -1      1191 3.24527E+02-1.79151E+02-1.40682E+02-8.87039E+02 1.79711E+02-6.62259E+01
 -1      1192 2.76307E+02-5.62816E+01-2.25040E+02-1.08031E+03 2.22211E+02-5.51903E+00
 -1      1193 2.02197E+02 7.04402E+01-3.15061E+02-1.23163E+03 5.25220E+02 4.58720E+01
 -1      1194 1.43356E+02 1.27580E+02-4.05081E+02-1.35974E+03 9.63072E+02-7.40636E+01
 -1      1195 7.28295E+00 1.21906E+04-1.19873E+03 3.77136E+03-1.11820E+01 1.03056E+03
 -1      1196 3.96551E+02 6.44831E+03-8.32050E+02 2.96066E+03-2.60608E+02-4.01368E+02
 -1      1197 4.21026E+02 2.35509E+03-5.89457E+02 1.84924E+03 3.21708E+01-2.74198E+02
 -1      1198 2.28448E+02 2.43259E+02-2.36280E+02 4.50173E+02 2.81094E+00-2.77648E+02
 -1      1199 4.21936E+01-1.46763E+02 4.04726E+01 7.32910E+01 1.84562E+01 3.35479E+00
 -1      1200 1.54575E+02-6.07091E+01-2.81620E+01-2.82290E+02 2.84247E+01 5.49200E+01
 -1      1201 8.49802E+01 7.99714E+02-1.12520E+02-6.23877E+02-7.46613E+00 5.09582E+01
 -1      1202 2.07544E+01 1.98602E+03-2.02540E+02-7.83455E+02 2.37066E+01-1.60265E+02
 -1      1203-4.16840E-03 1.63363E+04 2.51053E-03 2.37053E+02 6.35465E+03 5.99797E-03
 -1      1204-2.90461E-03 1.22717E+04 3.75693E-03 3.47991E+02 3.84362E+03-5.20067E-03
 -1      1205-1.83499E-03 8.39567E+03 3.40425E-03 3.65985E+02 2.85588E+03 2.94234E-03
 -1      1206-2.50641E-03 5.36230E+03 2.62978E-03 2.67300E+02 1.18883E+03-4.84330E-03
 -1      1207-2.82718E-03 2.68247E+03 1.89075E-03 2.03715E+02 9.19200E+02 3.32010E-03
 -1      1208-3.53683E-03 1.26525E+03 1.52761E-03 9.14643E+01-1.89195E+02-1.37653E-03
 -1      1209-2.46241E-03 3.25887E+02 1.07482E-03 4.29134E+01 3.73810E+02-7.60499E-04
 -1      1210-8.32146E-04 1.15045E+01 3.62244E-04 1.73226E+01 1.67799E+01 2.81377E-04
 -1      1211-1.28840E-03-1.85804E+02 7.56752E-04 1.45490E+01 4.34991E+01-2.69305E-04
 -1      1212-9.12809E-04-1.54717E+02-2.27741E-05 1.66147E+01-1.10417E+02-9.93626E-05
 -1      1213-5.25664E-04-2.96047E+01 1.45467E-04-1.96799E+01 1.38446E+02-9.41517E-04
 -1      1214-7.72095E-04 4.55806E+02 2.60261E-04-4.95063E+01 5.81097E+01 1.13228E-03
 -1      1215-6.07965E-04 1.03172E+03 4.31185E-04-7.10959E+01 3.94250E+02-8.51017E-04
 -1      1216-5.31844E-04 1.86306E+03 5.82860E-04-7.80760E+01 6.20028E+02 1.31985E-03
 -1      1217-7.31854E-04 2.72289E+03 2.76864E-04-7.03469E+01 1.15614E+03-1.31333E-03
 -1      1218-5.39855E+01-3.11317E+02-9.28649E+01-2.15619E+02-5.29479E+02-3.37200E+02
 -1      1219-4.37994E+01 3.47449E+01-5.69588E+00 1.42006E+00-8.91043E+00-1.35155E+02
 -1      1220-1.34867E+02 5.43790E+01 5.08728E+01 8.18978E+00-2.18247E+01-9.20458E+01
 -1      1221-2.09340E+02-5.27328E+01-1.02086E+02 1.66714E+01-2.62059E+02 2.70656E+02
 -1      1222-2.77764E+02 4.15929E+02-6.15448E+01-1.23423E+02-1.17124E+02 5.69500E+02
 -1      1223-2.00678E+03-2.71351E+03-1.27123E+03 2.86945E+03-6.23724E+03 5.50671E+03
 -1      1224 8.35346E+00 4.58794E+01-1.73788E+01 5.87159E-01 1.33109E+01 1.29751E+01
 -1      1225-3.38442E+01 1.68075E+01 3.09357E+01-7.91240E+01 9.56269E+01-2.72089E+01
 -1      1226-8.54445E+01-1.78645E+00 5.35761E+01 1.28166E+01 6.66394E+01-9.24632E+01
 -1      1227-1.49495E+02-7.00882E+00 1.76687E+01 1.47461E+02-4.02117E+00-3.04023E+01
 -1      1228-3.07639E+02-3.55891E+02 5.64916E+02 5.29160E+02 2.94111E+02-2.32596E+02
 -1      1229 3.60089E+02-2.91462E+02-1.10820E+02-1.16961E+02-4.83607E+02 9.26792E+01
 -1      1230-9.65591E+01 2.00009E+02-1.04885E+02-4.06281E+01-5.44982E+01-1.81327E+00
 -1      1231 2.37767E+01 1.45551E+02-1.00033E+02-1.38327E+02 1.16840E+02-4.09223E+01
 -1      1232 1.64948E+01 4.66669E+01-2.48513E+01-5.35627E+01 1.03421E+02-6.89355E+01
 -1      1233-3.13434E+01-4.20436E+01 2.04721E+01 5.09312E+01 9.65627E+01-7.33277E+01
 -1      1234-1.75720E-02-1.26602E+02 5.15332E-01 1.61171E+02 5.18039E+01 8.09447E+00
 -1      1235-4.66185E+01-1.68527E+02-1.51827E+02 3.97924E+01-2.79383E+02 2.20561E+02
 -1      1236 5.78001E+01 2.90452E+02 1.40582E+02-5.37620E+01-4.87362E+02 3.37623E+02
 -1      1237 2.69048E+01 2.27809E+02-3.88297E+01-2.85104E+02 2.92696E+01 5.55666E+01
 -1      1238 1.32327E+02 1.10088E+02-8.43246E+01-1.43739E+02 8.35929E+01-5.88363E+01
 -1      1239 8.18694E+01 2.46217E+01-3.92804E+01-2.69698E+01 9.23535E+01-8.39975E+01
 -1      1240 1.15324E+01-4.43619E+01 4.82373E+01 7.02207E+01 1.06872E+02-7.63059E+01
 -1      1241 6.90870E+01-7.59917E+01 8.75046E+01 1.29377E+01 4.81559E+00-6.19643E+01
 -1      1242-5.27035E+02 3.98404E+02 6.79976E+01 1.22266E+02-8.39988E+02 1.55739E+02
 -1      1243 4.76854E+02 4.14858E+02-7.52522E+02-7.67897E+02 2.84638E+02-3.10411E+02
 -1      1244 2.71458E+02 2.42296E+01-6.42435E+01-2.58386E+02-3.01557E+01 8.06648E+00
 -1      1245 2.10758E+02 1.89775E+01-1.11534E+02-7.94223E+01 3.75837E+01-1.16390E+02
 -1      1246 1.39406E+02 5.53829E+01-1.48587E+02 9.79000E+01 9.44016E+01-1.14692E+01
 -1      1247-9.70405E+01 4.37092E+01 4.23688E+00-3.19186E+01-6.23635E+01-3.41634E+01
 -1      1248 3.32219E+03 2.70264E+03 1.82112E+03-3.69108E+03-7.34760E+03 8.00854E+03
 -1      1249 4.37197E+02-4.80391E+02 1.13218E+02 1.16181E+02-1.36714E+02 7.97617E+02
 -1      1250 3.44561E+02 1.17866E+01 1.44918E+02-6.39878E+01-3.03150E+02 5.10320E+02
 -1      1251 2.79817E+02-8.93398E+01-6.78284E+01-2.17856E+01-6.68100E+01-6.79084E+01
 -1      1252 1.52398E+02-1.01954E+02 1.90812E+01-2.97491E+01-3.87739E+01-1.84502E+02
 -1      1253 5.80371E+02 5.10086E+02 3.33361E+02 6.74514E+02-1.33160E+03-1.48633E+03
 -1      1254 3.28698E+01-1.28578E+02-7.95129E+01-7.93506E+01-3.08248E+02-1.88449E+02
 -1      1255-3.42930E+01-1.54361E+01 2.38925E+00-5.88862E+01-1.26267E+01-9.35957E+01
 -1      1256-8.12175E+01 1.72091E+01 1.99963E+01-2.85607E+01-8.59647E+00-1.19650E+02
 -1      1257-1.34711E+02 3.82479E+01 4.86349E+01-1.27362E+01 8.58264E+00-5.10853E+01
 -1      1258-2.02709E+02 6.04806E+01 7.02362E+01 1.93606E+01-2.51795E+01-5.91923E+01
 -1      1259-2.60460E+02 7.27684E+01 3.73470E+01 3.87121E+01-4.65098E+01 7.16600E+01
 -1      1260-3.71072E+02 8.82641E+01-8.12069E+00 4.19120E+01-1.20761E+02 1.49764E+02
 -1      1261-3.70652E+02 1.74053E+02 2.07351E+02 1.02232E+02 3.73727E+01 2.53549E+02
 -1      1262-6.98038E+02 2.03619E+02 2.03648E+02 2.45370E+02-1.69809E+02 5.20238E+02
 -1      1263-7.20592E+02-7.82487E+01 2.56695E+02 7.17092E+02-3.29343E+02 8.94049E+02
 -1      1264-3.68006E+02-7.50288E+02-1.09061E+03 1.06486E+03-3.62744E+03 3.17743E+03
 -1      1265 3.64064E-02-6.93062E+01 4.05071E+01-6.17379E+01-6.04895E+01-1.41567E+01
 -1      1266-7.17608E+01 3.24554E+01 6.49885E+00-6.43997E+01-3.56875E+00-5.15035E+01
 -1      1267-1.93624E+02 3.58412E+01 4.96634E+01 1.87975E+01 9.71427E+00-5.43172E+01
 -1      1268-3.65962E+02 2.35952E+01 1.47678E+02 1.61137E+02 2.64776E+01-6.65528E+01
 -1      1269-4.75340E+02-2.52828E+01 6.21031E+00 4.64450E+02-2.10888E+02 1.82540E+02
 -1      1270-1.13922E+01-9.94260E+02 4.01060E+02 7.34074E+02-8.69665E+02 2.90795E+02
 -1      1271-1.30170E+01 3.88205E+01-8.28965E+00-3.45497E+01 1.49275E+01-1.93052E+00
 -1      1272-2.61948E+01 6.85063E+01-3.70912E+01-8.15824E+01 4.20134E+01-1.93223E+01
 -1      1273-3.74802E+01 4.76945E+01 1.06964E+01-1.02579E+02 7.22693E+01-2.16333E+01
 -1      1274-7.80980E+01 2.68250E+01 2.42853E+01-4.42401E+01 5.90243E+01-3.33139E+01
 -1      1275-1.18000E+02 5.19542E+00 5.36779E+01 1.08489E+01 5.20813E+01-7.28686E+01
 -1      1276-1.78675E+02-2.17205E+01 6.04748E+01 1.15473E+02 1.38615E+01-3.22557E+01
 -1      1277-2.33046E+02-5.20070E+01 8.28403E+01 2.31830E+02-9.37684E+00-2.70920E+01
 -1      1278-2.47232E+02-1.44550E+02 1.85180E+02 3.73118E+02 3.96049E+01-8.01330E+01
 -1      1279-2.49876E+02-2.73316E+02 3.96328E+02 5.85828E+02 1.87848E+02-1.56009E+02
 -1      1280-1.55980E+01-4.67594E+02-1.28950E+01 4.84048E+02-2.01198E+02 1.60381E+02
 -1      1281 1.98352E+02-7.70485E+02 1.86621E+02 2.62283E+02-4.46344E+02 1.51624E+02
 -1      1282-4.89564E+01 1.86880E+02-4.88622E+01-3.78519E+01-5.89574E+01 9.70323E+00
 -1      1283-9.70422E+00 1.27695E+02-4.75426E+01-1.42947E+02 5.33457E+01-2.85584E+01
 -1      1284-4.64428E+01 2.76523E+01 7.73612E+00-2.54372E+01 5.64663E+01-6.26595E+01
 -1      1285-1.36514E+02-7.26205E+01 8.06606E+01 1.44176E+02 5.26111E+01-6.55154E+01
 -1      1286-1.24888E+02-2.42442E+02 1.71717E+02 3.87337E+02 9.95237E+01-2.73354E+01
 -1      1287 1.68300E+02-3.40181E+02 2.12946E+02 9.17058E+01-2.25498E+02-1.58027E+01
 -1      1288-9.17649E+01 2.88413E+02-1.20387E+02-7.46032E+01-4.99603E+01 2.25495E+01
 -1      1289-4.20153E+01 2.79509E+02-7.31300E+01-1.49235E+02 6.68017E+01 2.91466E+00
 -1      1290 1.82898E+01 2.02554E+02-1.04207E+02-1.96776E+02 9.36456E+01-3.22468E+01
 -1      1291 3.06970E+01 1.31672E+02-6.32485E+01-1.40243E+02 9.14270E+01-4.10030E+01
 -1      1292 2.38318E+01 6.86618E+01-3.57340E+01-7.95390E+01 8.20527E+01-5.44010E+01
 -1      1293-1.26306E+01 2.13076E+00 2.85185E+00 5.88733E-01 8.60719E+01-5.24372E+01
 -1      1294-5.14809E+01-6.68594E+01 3.72885E+01 8.18094E+01 8.12563E+01-6.30745E+01
 -1      1295-5.43954E+01-1.31311E+02 7.11913E+01 1.58661E+02 8.56312E+01-4.09348E+01
 -1      1296-3.75132E+01-2.06328E+02 6.33493E+01 2.53775E+02 4.68803E+01 1.43860E+01
 -1      1297 2.36588E+01-3.27336E+02 1.35799E+02 1.77146E+02 9.19754E+01-2.63190E+01
 -1      1298 7.61482E+01-3.27358E+02-4.35578E+01 5.14398E+01-1.53491E+02 8.93456E+01
 -1      1299-1.09086E+02 3.72201E+02-6.39879E+01-1.00996E+02-2.13437E+02 6.09623E+01
 -1      1300 5.05730E+01 2.83069E+02-1.10674E+02-3.09198E+02 3.71507E+01 1.99150E+01
 -1      1301 1.06551E+02 1.17539E+02-8.47618E+01-1.48679E+02 6.84075E+01-5.75871E+01
 -1      1302 3.56859E+01-1.35000E+01-9.19612E+00 2.07983E+01 6.89313E+01-6.70896E+01
 -1      1303-5.28329E-01-1.33512E+02 3.92957E+01 1.68418E+02 4.05626E+01-1.98510E+01
 -1      1304 5.27151E+01-1.91768E+02 2.42469E+01 5.65248E+01-1.06846E+02 2.53777E+01
 -1      1305-1.26555E+02 5.13753E+02 7.67144E+00-1.01086E+02-3.05409E+02 1.54466E+02
 -1      1306-2.54707E+01 5.11568E+02-2.11935E+02-3.07836E+02 6.82207E+01-2.07140E+01
 -1      1307 9.22645E+01 3.54302E+02-1.35227E+02-4.38687E+02 2.91098E+01 5.37547E+01
 -1      1308 1.62046E+02 2.50704E+02-1.59217E+02-3.08691E+02 7.87410E+01-3.44332E+01
 -1      1309 2.01640E+02 1.69011E+02-1.31957E+02-2.20436E+02 7.15215E+01-5.16930E+01
 -1      1310 1.59794E+02 9.59055E+01-9.67784E+01-1.28183E+02 7.83293E+01-5.17909E+01
 -1      1311 1.22615E+02 3.69623E+01-5.89780E+01-3.82787E+01 7.44682E+01-6.54112E+01
 -1      1312 7.39718E+01-9.49227E+00-2.40356E+01 3.50489E+01 8.44939E+01-4.48629E+01
 -1      1313 3.56981E+01-5.23203E+01 2.60163E+01 9.91258E+01 8.42028E+01-6.28239E+01
 -1      1314 3.56458E+01-8.71705E+01 1.64739E+00 8.03633E+01 7.31565E+01-5.78148E+00
 -1      1315 3.40162E+01-9.58050E+01 7.74680E+01 3.77257E+01 8.71496E+00-1.33066E+01
 -1      1316-2.38908E+02 5.06560E+02-2.82119E+02-1.71370E+02-4.22720E+02-3.79583E+01
 -1      1317 2.16682E+02 3.57586E+02-2.68177E+02-6.08525E+02 1.00531E+02-7.16350E+00
 -1      1318 2.99024E+02 1.40676E+02-1.69591E+02-2.92237E+02 4.95424E+01-5.59457E+01
 -1      1319 2.06752E+02 4.34638E+01-9.73404E+01-7.73863E+01 5.37610E+01-7.39673E+01
 -1      1320 8.63987E+01-7.32160E+00-3.71729E+01 8.79479E+01 5.82599E+01-5.44701E+01
 -1      1321-1.59721E+01-2.33633E+01-1.28017E+01 2.49714E+01-3.98311E+01 4.29007E+00
 -1      1322-2.74197E+02 9.54886E+02-2.74867E+02-3.74041E+02-7.52623E+02 2.19416E+02
 -1      1323 4.46435E+01 6.35964E+02-1.11348E+01-7.01399E+02-2.54741E+02 2.70282E+02
 -1      1324 3.92511E+02 3.44521E+02-5.43710E+02-8.83226E+02 1.86782E+02-1.91622E+02
 -1      1325 4.12129E+02 1.84949E+02-2.74851E+02-5.96298E+02 1.95718E+01-9.55869E+01
 -1      1326 4.19792E+02 7.84216E+01-1.59649E+02-4.05156E+02-3.52754E+01-2.36603E+00
 -1      1327 3.69722E+02 4.59858E+01-1.37153E+02-2.47710E+02-1.41164E+01-2.67531E+01
 -1      1328 3.03198E+02 2.37252E+01-1.37083E+02-1.03678E+02 2.77721E+01-9.00798E+01
 -1      1329 2.29512E+02 2.27071E+01-1.09338E+02-6.59853E+00 3.65336E+01-2.70747E+01
 -1      1330 1.48168E+02 3.45420E+01-1.17732E+02 9.83294E+01 6.77068E+01-2.09365E+01
 -1      1331 4.69763E+01 7.47900E+01 3.54127E+00 9.26638E+01-1.81239E+00-6.76365E+01
 -1      1332-4.74271E+01 1.30677E+02-4.69016E+01 5.35382E+01-5.78338E+01-4.86221E+01
 -1      1333 7.56778E+01 1.01354E+03-3.68693E+02-9.69038E+02-1.25451E+03 4.35833E+02
 -1      1334 6.68085E+02 1.81799E+01-4.66389E+00-7.16077E+02-2.16659E+02 2.99209E+02
 -1      1335 6.06070E+02-4.85310E+01-2.34051E+02-2.79020E+02 2.31700E+01-5.96116E+01
 -1      1336 4.21139E+02-5.83655E+01-1.25151E+02-8.45663E+01 6.05633E+00-4.65427E+01
 -1      1337 2.29814E+02-2.64892E+01-3.58432E+01 8.52225E+01-2.57244E+01-1.16058E+02
 -1      1338 1.24916E+01 1.70689E+02-6.69310E+01 1.68741E+02-2.01400E+02-9.72016E+01
 -1      1339 8.85392E+02 5.56298E+02 1.49225E+03-1.38686E+03-4.27626E+03 4.68305E+03
 -1      1340 1.27170E+03 1.46067E+01-4.99368E+02-9.84961E+02-3.97486E+02 1.24023E+03
 -1      1341 1.05975E+03-2.77565E+02-2.66094E+02-3.89280E+02-2.02738E+02 7.18081E+02
 -1      1342 5.66748E+02-2.57529E+02-3.15053E+02-1.54747E+02 1.65524E+01 3.94827E+02
 -1      1343 6.08370E+02-1.56758E+02-1.12867E+01-8.55120E+01-1.37163E+02 3.14920E+02
 -1      1344 4.82091E+02-1.40283E+02-7.93206E+01-8.10364E+01-6.77413E+01 1.71958E+02
 -1      1345 4.30771E+02-1.26747E+02-1.21238E+02-5.47431E+01-5.21878E+01-2.46958E+01
 -1      1346 3.20344E+02-1.09527E+02-1.26277E+02-4.37681E+00-8.20487E+00-2.73014E+01
 -1      1347 3.03541E+02-7.87661E+01-6.89748E+01 5.77079E+01-4.21078E+01-1.70994E+02
 -1      1348 2.70880E+02-4.00452E+00-9.77817E+01 1.74778E+02-7.49058E+01-2.27800E+02
 -1      1349 1.32880E+02 1.18631E+02 2.74283E+02 2.53913E+02-7.77517E+02-8.71215E+02
 -1      1350 3.24501E+01-1.07266E+02-9.33395E+00-7.59016E+01-1.08000E+02-6.68991E+01
 -1      1351-1.07311E+02 2.01665E+01 3.90176E+01-4.96284E+01-2.65161E+00-7.00037E+01
 -1      1352-2.72371E+02 7.31339E+01 8.83776E+01 1.82545E+01-1.30082E+01-3.27293E+01
 -1      1353-4.83555E+02 1.21823E+02 1.52645E+02 1.03737E+02-2.68035E+01 2.32364E+01
 -1      1354-9.24466E+02 2.09529E+02 3.14468E+02 4.52611E+02-8.20843E+01 2.16278E+02
 -1      1355-2.83196E+02-6.07927E+02-1.42339E+02 1.01608E+03-1.32033E+03 1.14633E+03
 -1      1356-1.97891E+01 5.63931E+01-1.83206E+01-6.09091E+01 2.70749E+01-7.69577E-01
 -1      1357-4.80592E+01 6.50973E+01-6.09333E+00-1.32864E+02 3.45716E+01-2.41361E+01
 -1      1358-1.58865E+02 3.84080E+00 5.75471E+01 1.87933E+01 2.04418E+01-3.31549E+01
 -1      1359-3.16845E+02-7.61161E+01 1.40527E+02 2.99973E+02 6.07723E+00-2.14970E+01
 -1      1360-3.12219E+02-3.35898E+02 2.66837E+02 7.55268E+02-2.47981E+01 3.06699E+01
 -1      1361 2.11562E+02-1.01088E+03 3.30201E+02 4.69893E+02-1.55373E+02 7.09818E+01
 -1      1362-1.10177E+02 3.89231E+02-1.23114E+02-1.10025E+02-1.90614E+01 1.87332E+01
 -1      1363 2.60460E+01 2.69857E+02-1.14273E+02-2.62970E+02 4.24167E+01-3.53641E+00
 -1      1364 3.33307E+01 8.87601E+01-4.63765E+01-1.05199E+02 4.83063E+01-3.18824E+01
 -1      1365-6.49775E+01-8.54505E+01 6.11635E+01 1.09476E+02 4.55342E+01-3.45195E+01
 -1      1366-5.49896E+01-2.82856E+02 1.17356E+02 3.30675E+02 3.09489E+01-5.54120E+00
 -1      1367 1.06343E+02-4.22416E+02 1.33396E+02 1.14160E+02-1.27992E+01 1.68330E+01
 -1      1368-1.73458E+02 6.70083E+02-2.08451E+02-2.08836E+02-9.17370E+01 3.59539E+01
 -1      1369 1.29684E+02 4.79091E+02-2.21023E+02-5.70451E+02 2.06394E+01 1.48677E+01
 -1      1370 2.61681E+02 2.19410E+02-1.88884E+02-2.93450E+02 3.94656E+01-2.80825E+01
 -1      1371 1.59078E+02 4.96762E+01-8.06598E+01-5.02051E+01 4.31739E+01-3.93332E+01
 -1      1372 4.60804E+01-6.97891E+01 1.00075E+01 1.33492E+02 4.03289E+01-2.34640E+01
 -1      1373 3.68976E+01-1.30744E+02 4.60020E+01 5.89555E+01 2.20744E+01 3.66579E+00
 -1      1374-2.87235E+02 1.25653E+03-4.23276E+02-6.68961E+02-3.24053E+02 1.08347E+02
 -1      1375 4.87668E+02 4.31176E+02-3.80995E+02-1.13899E+03-5.14365E+01 6.21130E+01
 -1      1376 5.68344E+02 1.10869E+02-2.45752E+02-5.25750E+02-8.34101E+00-8.93139E+00
 -1      1377 4.06447E+02 3.50486E+01-1.66146E+02-1.42026E+02 4.95725E+00-3.82140E+01
 -1      1378 1.89585E+02 4.21341E+01-9.49184E+01 1.26177E+02 1.43904E+01-4.81778E+01
 -1      1379-4.57154E+01 1.73503E+02-5.75575E+01 1.00723E+02-6.91551E+00-2.51907E+01
 -1      1380 7.26309E+02 4.47464E+02 2.03800E+02-1.35487E+03-1.57047E+03 1.72921E+03
 -1      1381 1.38730E+03-3.00549E+02-4.54760E+02-6.83277E+02-9.77863E+01 2.91820E+02
 -1      1382 7.94633E+02-2.09216E+02-2.48925E+02-1.85217E+02-3.47391E+01 8.71346E+01
 -1      1383 5.72637E+02-1.57660E+02-1.82309E+02-6.72735E+01-2.50575E+01 6.76438E-01
 -1      1384 4.02057E+02-9.21142E+01-1.29887E+02 1.00214E+02-2.04036E+01-8.58926E+01
 -1      1385 1.07783E+02 9.84698E+01 3.84402E+01 2.47277E+02-2.84927E+02-3.26694E+02
 -1      1386 3.03295E+01-9.46948E+01-9.41450E-01-8.09456E+01-5.39955E+01-2.43810E+01
 -1      1387-5.39708E+01-1.13321E+01 2.05839E+01-9.12074E+01 2.17578E+01-1.97808E+01
 -1      1388-1.35232E+02 2.10076E+01 4.89954E+01-7.45120E+01-1.17393E+01-3.84256E+01
 -1      1389-2.34525E+02 5.06097E+01 6.94783E+01-2.81523E+01-8.56307E+00 2.88413E+00
 -1      1390-3.48772E+02 8.29645E+01 1.16515E+02 1.92459E+01-1.38265E+01-1.35057E+01
 -1      1391-4.93959E+02 1.17873E+02 1.34464E+02 8.84507E+01-2.35249E+00 2.50532E+01
 -1      1392-6.04081E+02 1.48444E+02 2.05542E+02 1.68046E+02 1.78372E+01-3.28367E+01
 -1      1393-7.47710E+02 2.15950E+02 2.00938E+02 2.89877E+02-7.30728E+01 1.28267E+02
 -1      1394-1.19308E+03 2.28538E+02 3.64546E+02 6.92648E+02-2.05659E+02 1.47843E+02
 -1      1395-8.75064E+02-8.00902E+01 3.77209E+02 1.04317E+03 1.01607E+02 2.34217E+02
 -1      1396-2.78199E+02-5.57381E+02-1.41902E+01 1.08078E+03-6.19560E+02 5.03212E+02
 -1      1397-4.40805E+00-4.19533E+01 2.51603E+01-9.50486E+01-2.58244E+01 2.35629E+00
 -1      1398-1.12926E+02 4.48881E+01 2.31726E+01-1.21112E+02-1.10864E+01-7.32238E-01
 -1      1399-3.15389E+02 4.30750E+01 1.06324E+02 3.27121E+01 1.98215E-01-2.07889E+01
 -1      1400-5.73233E+02 3.86833E+01 2.29251E+02 3.02127E+02 2.53049E+01-5.08877E+01
 -1      1401-8.23785E+02-6.22738E+01 2.85173E+02 8.94695E+02-8.93751E+01-3.72962E+01
 -1      1402-2.14842E+01-1.11299E+03 4.70864E+02 1.05690E+03-2.31709E+02-8.41317E+01
 -1      1403-2.37822E+01 7.17202E+01-2.87295E+01-8.96374E+01 1.41155E+01-1.34714E+01
 -1      1404-4.01364E+01 1.00975E+02-2.97321E+01-1.42788E+02 1.92682E+01-7.12225E+00
 -1      1405-5.60853E+01 8.02992E+01-6.56793E+00-1.64240E+02 1.02664E+01-1.52716E+01
 -1      1406-1.18786E+02 4.02952E+01 3.39999E+01-6.97422E+01 5.91254E+00 1.13320E+00
 -1      1407-1.97734E+02 2.19996E-01 7.54965E+01 2.75762E+01-1.89306E+00-8.58617E+00
 -1      1408-2.94992E+02-4.83462E+01 1.32025E+02 1.92336E+02 4.29764E-01 8.05404E+00
 -1      1409-3.99555E+02-1.05731E+02 1.79685E+02 3.70872E+02-3.33621E+00 1.50118E+01
 -1      1410-4.11599E+02-2.26782E+02 2.71923E+02 5.87816E+02-2.47947E+01 1.36915E+01
 -1      1411-3.68870E+02-3.92915E+02 3.40902E+02 9.30214E+02-5.06896E+01 6.19300E+01
 -1      1412-5.08786E+01-8.45026E+02 2.86113E+02 9.04580E+02 2.51034E+01 7.28526E+01
 -1      1413 2.35647E+02-1.29664E+03 3.80193E+02 7.05638E+02-1.27683E+02 1.87967E+02
 -1      1414-7.28023E+01 3.10746E+02-9.20953E+01-9.76488E+01-4.91583E+01 6.57927E+00
 -1      1415-1.14057E+01 2.00439E+02-7.43199E+01-2.32096E+02-1.33846E+01-1.89141E+00
 -1      1416-7.64312E+01 3.97095E+01 1.50987E+01-4.39673E+01-1.60486E+00-8.87481E+00
 -1      1417-2.29222E+02-1.34985E+02 1.31456E+02 2.38941E+02 5.36282E+00-3.58292E+00
 -1      1418-1.99072E+02-4.11295E+02 2.61019E+02 6.03720E+02-8.38422E+00 2.87736E+01
 -1      1419 2.15652E+02-7.09776E+02 1.88329E+02 2.86100E+02-1.42415E+02 7.05759E+01
 -1      1420-1.27595E+02 4.99118E+02-1.57834E+02-1.51377E+02-9.87484E-01 2.61620E+01
 -1      1421-5.38488E+01 4.61293E+02-1.54602E+02-2.65404E+02 4.56972E+01 2.58854E+00
 -1      1422 3.49989E+01 3.35221E+02-1.45822E+02-3.31726E+02 1.79866E+00 1.17293E+01
 -1      1423 5.50413E+01 2.15908E+02-1.07233E+02-2.28852E+02 1.28850E+01 1.06237E+00
 -1      1424 4.36612E+01 1.08111E+02-5.76317E+01-1.30693E+02 1.28030E+01-5.10474E+00
 -1      1425-1.79440E+01 2.10671E+00 7.05680E+00 2.14840E+00 1.38900E+01 2.44550E+00
 -1      1426-8.03037E+01-1.06058E+02 7.93465E+01 1.36364E+02 9.56882E+00-6.12560E+00
 -1      1427-1.03519E+02-2.22701E+02 1.15979E+02 2.60560E+02 4.97420E+00-6.71975E+00
 -1      1428-7.72934E+01-3.59524E+02 1.51049E+02 4.10536E+02-1.68119E+01-1.59111E+00
 -1      1429 4.29311E+01-5.02794E+02 2.03842E+02 3.32397E+02 6.60388E+01-2.46053E+01
 -1      1430 1.30804E+02-5.21494E+02 1.78814E+02 1.81189E+02 4.58286E+01-2.56446E+01
 -1      1431-1.76066E+02 6.90240E+02-1.86872E+02-2.30974E+02-6.08813E+01 7.34568E+00
 -1      1432 9.43396E+01 4.69097E+02-2.17813E+02-5.09079E+02-1.97799E+01 7.39137E+00
 -1      1433 1.74726E+02 1.94110E+02-1.44388E+02-2.46243E+02-1.74960E+00-6.62389E+00
 -1      1434 5.70660E+01-2.02819E+01-1.38889E+01 3.55859E+01-2.95052E+00-1.07057E+01
 -1      1435-8.81911E+00-2.19265E+02 8.78971E+01 2.80516E+02-1.25653E+01-3.36714E+00
 -1      1436 8.49941E+01-3.60962E+02 9.48497E+01 1.25577E+02-3.48387E+01 2.31641E-01
 -1      1437-2.13642E+02 8.35386E+02-2.77165E+02-3.23053E+02 1.75780E+01-2.42775E+01
 -1      1438-4.99264E+01 8.03807E+02-3.22628E+02-5.67491E+02 7.66299E+01-3.55885E+01
 -1      1439 1.72815E+02 6.03118E+02-2.79414E+02-7.06858E+02-3.10838E+01 8.73418E+00
 -1      1440 2.84616E+02 4.18235E+02-2.59220E+02-5.09349E+02-5.27999E-01-1.21722E+01
 -1      1441 3.24309E+02 2.72596E+02-2.39418E+02-3.65178E+02 6.24872E+00-4.48035E+00
 -1      1442 2.64136E+02 1.57754E+02-1.64988E+02-2.12015E+02 9.03954E+00 1.11590E+00
 -1      1443 1.95573E+02 6.37061E+01-1.01342E+02-6.22475E+01 7.45575E+00-1.15621E+01
 -1      1444 1.20968E+02-1.46804E+01-3.73784E+01 5.60282E+01 1.05552E+01 4.74551E+00
 -1      1445 5.56672E+01-8.54520E+01 1.50708E+01 1.69654E+02 4.24721E+00-3.74996E-01
 -1      1446 4.10990E+01-1.47819E+02 3.55779E+01 1.46633E+02 3.77397E+01 8.17270E+00
 -1      1447 3.85923E+01-1.70099E+02 5.88149E+01 8.29607E+01 2.13895E+01 1.87574E+01
 -1      1448-3.05284E+02 1.01026E+03-2.68674E+02-4.70991E+02-1.92426E+02 9.95291E+01
 -1      1449 3.40651E+02 5.97015E+02-3.96316E+02-9.63302E+02-2.26790E+01 4.41159E+01
 -1      1450 4.99593E+02 2.50691E+02-2.77663E+02-4.81236E+02 1.25081E+01 5.43611E+00
 -1      1451 3.41811E+02 8.01577E+01-1.62392E+02-1.25475E+02 8.43198E-01-1.41313E+01
 -1      1452 1.33831E+02-6.09005E-01-5.58072E+01 1.39755E+02-6.68351E+00-1.54463E+01
 -1      1453-1.60720E+01-9.49765E+00 9.77880E+00 7.45631E+01-4.65246E+01-1.57668E+01
 -1      1454-3.18847E+02 1.61277E+03-4.82683E+02-1.00897E+03-2.13103E+02 2.73595E+02
 -1      1455 9.48562E+01 1.10160E+03-3.83973E+02-1.32395E+03 5.36473E+01 1.17935E+02
 -1      1456 5.74180E+02 5.10337E+02-4.83465E+02-1.40378E+03-9.09753E+01 8.72182E+01
 -1      1457 6.88825E+02 2.95316E+02-4.15529E+02-9.35921E+02-4.57093E+01 1.36276E+01
 -1      1458 7.16238E+02 1.49332E+02-3.12378E+02-6.50292E+02-7.46675E+00 3.61587E+01
 -1      1459 6.11323E+02 8.83089E+01-2.70762E+02-4.08009E+02-5.85439E+00 1.64210E+01
 -1      1460 5.07643E+02 4.91126E+01-2.11982E+02-1.81944E+02-1.18603E+01-1.08110E+01
 -1      1461 3.71356E+02 4.07321E+01-1.68833E+02-1.91569E+01-8.22316E+00 1.09498E+01
 -1      1462 2.26857E+02 5.04921E+01-1.19589E+02 1.54941E+02-5.80921E+00-2.92068E+01
 -1      1463 7.39021E+01 1.38014E+02-6.64070E+01 1.80430E+02 1.55455E+01-1.86518E+01
 -1      1464-5.07829E+01 2.27655E+02-6.19724E+01 1.55260E+02-1.06493E+01-5.59590E+01
 -1      1465 8.28052E+01 1.22440E+03-5.24195E+02-1.45266E+03-3.29477E+02-1.30553E+02
 -1      1466 1.18296E+03 5.88579E+01-3.99639E+02-1.32812E+03-1.02990E+02-3.60985E+01
 -1      1467 9.51932E+02-8.33091E+01-3.69907E+02-5.18259E+02 3.42646E+01-7.33390E+01
 -1      1468 6.82002E+02-8.11727E+01-2.38136E+02-1.44628E+02 5.37941E+00-2.62421E+01
 -1      1469 3.91188E+02-3.26810E+01-1.25585E+02 1.64480E+02-1.53718E+01-1.31378E+01
 -1      1470 1.74894E+01 2.04192E+02-9.18938E+01 2.47693E+02-5.74171E+01 1.10096E+01
 -1      1471 6.82121E+02 4.43762E+02 2.19052E+01-1.47501E+03-6.95703E+02 8.01235E+02
 -1      1472 1.46074E+03 2.74004E+01-6.14557E+02-1.46532E+03 1.18915E+02 3.25472E+02
 -1      1473 1.77233E+03-3.38598E+02-5.19713E+02-1.01820E+03-2.55727E+02 2.08224E+02
 -1      1474 1.12543E+03-3.39554E+02-3.01485E+02-4.49455E+02-1.00948E+02 1.91999E+02
 -1      1475 9.90285E+02-2.55001E+02-3.27801E+02-2.91128E+02 2.12807E+01-2.60888E+01
 -1      1476 8.90163E+02-2.25863E+02-2.36929E+02-1.82926E+02-7.71081E+00 4.77518E+01
 -1      1477 7.25440E+02-1.85681E+02-2.35450E+02-8.37930E+01-1.90357E+01 9.73598E+00
 -1      1478 5.78276E+02-1.53738E+02-1.63956E+02 4.25654E+00-2.93161E+01 3.48763E+00
 -1      1479 5.12446E+02-1.05858E+02-1.56504E+02 1.49296E+02-4.46774E+01-6.04654E+01
 -1      1480 3.38800E+02-4.37305E+00-1.34015E+02 2.52145E+02 2.40464E+01-5.03631E+01
 -1      1481 1.03247E+02 1.00658E+02 3.96278E+00 2.68390E+02-1.26636E+02-1.51976E+02
 -3
    1PSTEP                        28           1           1          
    1PGM                1.000000E+00                                  
    1PGK                1.579256E+12                                  
    1PHID                         -1                                  
    1PSUBC                         0                                  
    1PMODE                         7                                  
  100CL  107 200007.5647        1481                     2    7MODAL      1
 -4  ERROR       1    1
 -5  STR(%)      1    1    0    0
 -1         1 1.15327E+01
 -1         2 1.24425E+01
 -1         3 1.33524E+01
 -1         4 1.33524E+01
 -1         5 1.33524E+01
 -1         6 1.30288E+01
 -1         7 1.27052E+01
 -1         8 1.20340E+01
 -1         9 1.13629E+01
 -1        10 1.11943E+01
 -1        11 1.10257E+01
 -1        12 1.26673E+01
 -1        13 1.73873E+01
 -1        14 1.73873E+01
 -1        15 1.64958E+01
 -1        16 1.31812E+01
 -1        17 1.16155E+01
 -1        18 1.38020E+01
 -1        19 1.76121E+01
 -1        20 2.14222E+01
 -1        21 2.14222E+01
 -1        22 2.14222E+01
 -1        23 2.08543E+01
 -1        24 2.02864E+01
 -1        25 1.76430E+01
 -1        26 1.49995E+01
 -1        27 1.36024E+01
 -1        28 1.22053E+01
 -1        29 1.38020E+01
 -1        30 2.14222E+01
 -1        31 2.14222E+01
 -1        32 2.06407E+01
 -1        33 1.79973E+01
 -1        34 1.29549E+01
 -1        35 1.38020E+01
 -1        36 1.76121E+01
 -1        37 2.14222E+01
 -1        38 2.14222E+01
 -1        39 2.14222E+01
 -1        40 2.12086E+01
 -1        41 2.09951E+01
 -1        42 2.09951E+01
 -1        43 2.09951E+01
 -1        44 1.73498E+01
 -1        45 1.37045E+01
 -1        46 1.27801E+01
 -1        47 1.82276E+01
 -1        48 2.11103E+01
 -1        49 2.09951E+01
 -1        50 2.09951E+01
 -1        51 1.64790E+01
 -1        52 1.17582E+01
 -1        53 1.33956E+01
 -1        54 1.50330E+01
 -1        55 1.79157E+01
 -1        56 2.07984E+01
 -1        57 2.08967E+01
 -1        58 2.09951E+01
 -1        59 2.09951E+01
 -1        60 2.09951E+01
 -1        61 2.01243E+01
 -1        62 1.92536E+01
 -1        63 1.17582E+01
 -1        64 1.34782E+01
 -1        65 1.78000E+01
 -1        66 1.88754E+01
 -1        67 2.01243E+01
 -1        68 1.92536E+01
 -1        69 1.17582E+01
 -1        70 1.18408E+01
 -1        71 1.19233E+01
 -1        72 1.33625E+01
 -1        73 1.48016E+01
 -1        74 1.57786E+01
 -1        75 1.67557E+01
 -1        76 1.80046E+01
 -1        77 1.92536E+01
 -1        78 1.92536E+01
 -1        79 1.92536E+01
 -1        80 1.10150E+01
 -1        81 1.17484E+01
 -1        82 1.31875E+01
 -1        83 1.39068E+01
 -1        84 1.53785E+01
 -1        85 1.53785E+01
 -1        86 1.02718E+01
 -1        87 1.09226E+01
 -1        88 1.15734E+01
 -1        89 1.15734E+01
 -1        90 1.15734E+01
 -1        91 1.13157E+01
 -1        92 1.10580E+01
 -1        93 1.12807E+01
 -1        94 1.15035E+01
 -1        95 1.15035E+01
 -1        96 1.15035E+01
 -1        97 1.67787E+01
 -1        98 1.76885E+01
 -1        99 1.42803E+01
 -1       100 1.59099E+01
 -1       101 1.68070E+01
 -1       102 1.66384E+01
 -1       103 1.79133E+01
 -1       104 2.17234E+01
 -1       105 2.14222E+01
 -1       106 2.20140E+01
 -1       107 1.93705E+01
 -1       108 1.72282E+01
 -1       109 1.61298E+01
 -1       110 2.14222E+01
 -1       111 2.14222E+01
 -1       112 2.23683E+01
 -1       113 2.23683E+01
 -1       114 1.68085E+01
 -1       115 1.47495E+01
 -1       116 1.84787E+01
 -1       117 2.13613E+01
 -1       118 2.09951E+01
 -1       119 2.32220E+01
 -1       120 2.23512E+01
 -1       121 1.69940E+01
 -1       122 1.70766E+01
 -1       123 1.83630E+01
 -1       124 1.79551E+01
 -1       125 2.23512E+01
 -1       126 2.23512E+01
 -1       127 1.62509E+01
 -1       128 1.69016E+01
 -1       129 1.46966E+01
 -1       130 1.31684E+01
 -1       131 1.68915E+01
 -1       132 1.68915E+01
 -1       133 2.20247E+01
 -1       134 2.20247E+01
 -1       135 2.20247E+01
 -1       136 1.86164E+01
 -1       137 1.52081E+01
 -1       138 1.71613E+01
 -1       139 1.91146E+01
 -1       140 2.06829E+01
 -1       141 2.22512E+01
 -1       142 2.22512E+01
 -1       143 2.22512E+01
 -1       144 2.20247E+01
 -1       145 2.20247E+01
 -1       146 1.83151E+01
 -1       147 2.14280E+01
 -1       148 2.29963E+01
 -1       149 2.22512E+01
 -1       150 2.20247E+01
 -1       151 2.20247E+01
 -1       152 2.20247E+01
 -1       153 2.17234E+01
 -1       154 2.14222E+01
 -1       155 2.25819E+01
 -1       156 2.37415E+01
 -1       157 2.37415E+01
 -1       158 2.37415E+01
 -1       159 2.29963E+01
 -1       160 2.22512E+01
 -1       161 2.02412E+01
 -1       162 2.17234E+01
 -1       163 2.14222E+01
 -1       164 2.37415E+01
 -1       165 2.37415E+01
 -1       166 2.10818E+01
 -1       167 1.84577E+01
 -1       168 1.99399E+01
 -1       169 2.14222E+01
 -1       170 2.14222E+01
 -1       171 2.14222E+01
 -1       172 2.25819E+01
 -1       173 2.37415E+01
 -1       174 2.37415E+01
 -1       175 2.37415E+01
 -1       176 2.18270E+01
 -1       177 1.99125E+01
 -1       178 1.80992E+01
 -1       179 2.16732E+01
 -1       180 2.16732E+01
 -1       181 2.23683E+01
 -1       182 2.45952E+01
 -1       183 2.26807E+01
 -1       184 1.77407E+01
 -1       185 1.98325E+01
 -1       186 2.19243E+01
 -1       187 2.19243E+01
 -1       188 2.19243E+01
 -1       189 2.14597E+01
 -1       190 2.09951E+01
 -1       191 2.32220E+01
 -1       192 2.54489E+01
 -1       193 2.54489E+01
 -1       194 2.54489E+01
 -1       195 1.99853E+01
 -1       196 2.20771E+01
 -1       197 2.19243E+01
 -1       198 2.00748E+01
 -1       199 2.54489E+01
 -1       200 2.54489E+01
 -1       201 2.22299E+01
 -1       202 2.22299E+01
 -1       203 2.22299E+01
 -1       204 2.20771E+01
 -1       205 2.19243E+01
 -1       206 2.05394E+01
 -1       207 1.91546E+01
 -1       208 2.23017E+01
 -1       209 2.54489E+01
 -1       210 2.54489E+01
 -1       211 2.54489E+01
 -1       212 2.22299E+01
 -1       213 2.22299E+01
 -1       214 1.98720E+01
 -1       215 1.72167E+01
 -1       216 2.38642E+01
 -1       217 2.38642E+01
 -1       218 2.22299E+01
 -1       219 2.22299E+01
 -1       220 2.22299E+01
 -1       221 2.00248E+01
 -1       222 1.78197E+01
 -1       223 1.65493E+01
 -1       224 1.52788E+01
 -1       225 1.87791E+01
 -1       226 2.22794E+01
 -1       227 2.22794E+01
 -1       228 2.22794E+01
 -1       229 2.25005E+01
 -1       230 2.20247E+01
 -1       231 1.85819E+01
 -1       232 2.05499E+01
 -1       233 2.22512E+01
 -1       234 2.31034E+01
 -1       235 2.20247E+01
 -1       236 2.20247E+01
 -1       237 2.16890E+01
 -1       238 2.37415E+01
 -1       239 2.37415E+01
 -1       240 2.25712E+01
 -1       241 2.01298E+01
 -1       242 2.16121E+01
 -1       243 2.13356E+01
 -1       244 2.37415E+01
 -1       245 2.37415E+01
 -1       246 2.14019E+01
 -1       247 1.98517E+01
 -1       248 2.19435E+01
 -1       249 2.26125E+01
 -1       250 2.21479E+01
 -1       251 2.54489E+01
 -1       252 2.54489E+01
 -1       253 2.22299E+01
 -1       254 2.23873E+01
 -1       255 2.26125E+01
 -1       256 2.12277E+01
 -1       257 2.54489E+01
 -1       258 2.54489E+01
 -1       259 2.28369E+01
 -1       260 2.23873E+01
 -1       261 2.01822E+01
 -1       262 1.84799E+01
 -1       263 2.22794E+01
 -1       264 2.28645E+01
 -1       265 3.01466E+01
 -1       266 3.05022E+01
 -1       267 3.08578E+01
 -1       268 3.08578E+01
 -1       269 3.08578E+01
 -1       270 2.91753E+01
 -1       271 2.74929E+01
 -1       272 2.91689E+01
 -1       273 3.08450E+01
 -1       274 3.08646E+01
 -1       275 3.08843E+01
 -1       276 3.08843E+01
 -1       277 3.08843E+01
 -1       278 3.06881E+01
 -1       279 3.04918E+01
 -1       280 3.01466E+01
 -1       281 3.08578E+01
 -1       282 3.08578E+01
 -1       283 2.74929E+01
 -1       284 3.08450E+01
 -1       285 3.08843E+01
 -1       286 3.08843E+01
 -1       287 3.04918E+01
 -1       288 3.01466E+01
 -1       289 3.05022E+01
 -1       290 3.08578E+01
 -1       291 3.08578E+01
 -1       292 3.08578E+01
 -1       293 2.91753E+01
 -1       294 2.74929E+01
 -1       295 2.91689E+01
 -1       296 3.08450E+01
 -1       297 3.08646E+01
 -1       298 3.08843E+01
 -1       299 3.08843E+01
 -1       300 3.08843E+01
 -1       301 3.06881E+01
 -1       302 3.04918E+01
 -1       303 2.81877E+01
 -1       304 2.84004E+01
 -1       305 2.67173E+01
 -1       306 2.50348E+01
 -1       307 2.70736E+01
 -1       308 2.70933E+01
 -1       309 2.78323E+01
 -1       310 2.87818E+01
 -1       311 2.62288E+01
 -1       312 2.62288E+01
 -1       313 2.62288E+01
 -1       314 2.60859E+01
 -1       315 2.59430E+01
 -1       316 2.42599E+01
 -1       317 2.25768E+01
 -1       318 2.25768E+01
 -1       319 2.25768E+01
 -1       320 2.33023E+01
 -1       321 2.33023E+01
 -1       322 2.33023E+01
 -1       323 2.40413E+01
 -1       324 2.47804E+01
 -1       325 2.59260E+01
 -1       326 2.70717E+01
 -1       327 2.70717E+01
 -1       328 2.70717E+01
 -1       329 2.62288E+01
 -1       330 2.62288E+01
 -1       331 2.59430E+01
 -1       332 2.22841E+01
 -1       333 2.47804E+01
 -1       334 2.70717E+01
 -1       335 2.70717E+01
 -1       336 3.08204E+01
 -1       337 3.08204E+01
 -1       338 3.08204E+01
 -1       339 2.85246E+01
 -1       340 2.62288E+01
 -1       341 2.62288E+01
 -1       342 2.62288E+01
 -1       343 2.60859E+01
 -1       344 2.59430E+01
 -1       345 2.12658E+01
 -1       346 2.30231E+01
 -1       347 2.47804E+01
 -1       348 2.59260E+01
 -1       349 2.70717E+01
 -1       350 2.70717E+01
 -1       351 2.70717E+01
 -1       352 2.88498E+01
 -1       353 3.06279E+01
 -1       354 3.06279E+01
 -1       355 3.06279E+01
 -1       356 3.08204E+01
 -1       357 3.08204E+01
 -1       358 2.61410E+01
 -1       359 2.46026E+01
 -1       360 2.44597E+01
 -1       361 2.43680E+01
 -1       362 2.68975E+01
 -1       363 2.68975E+01
 -1       364 3.07577E+01
 -1       365 3.07577E+01
 -1       366 3.08204E+01
 -1       367 3.08204E+01
 -1       368 3.08204E+01
 -1       369 2.84368E+01
 -1       370 2.60532E+01
 -1       371 2.45147E+01
 -1       372 2.29763E+01
 -1       373 2.29763E+01
 -1       374 2.29763E+01
 -1       375 2.25005E+01
 -1       376 2.20247E+01
 -1       377 2.19902E+01
 -1       378 2.19557E+01
 -1       379 2.19705E+01
 -1       380 2.19852E+01
 -1       381 2.21182E+01
 -1       382 2.22512E+01
 -1       383 2.31034E+01
 -1       384 2.39556E+01
 -1       385 2.53395E+01
 -1       386 2.67233E+01
 -1       387 2.67233E+01
 -1       388 2.67233E+01
 -1       389 2.88054E+01
 -1       390 3.08874E+01
 -1       391 3.08874E+01
 -1       392 3.08874E+01
 -1       393 3.06642E+01
 -1       394 3.06642E+01
 -1       395 2.59969E+01
 -1       396 2.26467E+01
 -1       397 2.25005E+01
 -1       398 2.20247E+01
 -1       399 2.19557E+01
 -1       400 2.28634E+01
 -1       401 2.29963E+01
 -1       402 2.34234E+01
 -1       403 2.42113E+01
 -1       404 3.08874E+01
 -1       405 3.08874E+01
 -1       406 3.05079E+01
 -1       407 3.05079E+01
 -1       408 3.05079E+01
 -1       409 2.82243E+01
 -1       410 2.59406E+01
 -1       411 2.41288E+01
 -1       412 2.23171E+01
 -1       413 2.20247E+01
 -1       414 2.20247E+01
 -1       415 2.20247E+01
 -1       416 2.19902E+01
 -1       417 2.19557E+01
 -1       418 2.28486E+01
 -1       419 2.37415E+01
 -1       420 2.37415E+01
 -1       421 2.37415E+01
 -1       422 2.33164E+01
 -1       423 2.28912E+01
 -1       424 2.16992E+01
 -1       425 2.62933E+01
 -1       426 3.08874E+01
 -1       427 3.08874E+01
 -1       428 3.08874E+01
 -1       429 2.96224E+01
 -1       430 2.96224E+01
 -1       431 2.44086E+01
 -1       432 2.19134E+01
 -1       433 2.19134E+01
 -1       434 2.16023E+01
 -1       435 2.37415E+01
 -1       436 2.37415E+01
 -1       437 2.28912E+01
 -1       438 2.97526E+01
 -1       439 2.97526E+01
 -1       440 2.87368E+01
 -1       441 2.87368E+01
 -1       442 2.87368E+01
 -1       443 2.58067E+01
 -1       444 2.28766E+01
 -1       445 2.18020E+01
 -1       446 2.18020E+01
 -1       447 2.18020E+01
 -1       448 2.15255E+01
 -1       449 2.12489E+01
 -1       450 2.24952E+01
 -1       451 2.37415E+01
 -1       452 2.37415E+01
 -1       453 2.37415E+01
 -1       454 2.33164E+01
 -1       455 2.28912E+01
 -1       456 2.86178E+01
 -1       457 2.86178E+01
 -1       458 2.86178E+01
 -1       459 2.98819E+01
 -1       460 2.98819E+01
 -1       461 2.18823E+01
 -1       462 2.18823E+01
 -1       463 2.22749E+01
 -1       464 2.35212E+01
 -1       465 2.45952E+01
 -1       466 2.41701E+01
 -1       467 2.98163E+01
 -1       468 2.98163E+01
 -1       469 3.10271E+01
 -1       470 3.10271E+01
 -1       471 3.10271E+01
 -1       472 2.71400E+01
 -1       473 2.32529E+01
 -1       474 2.19626E+01
 -1       475 2.19626E+01
 -1       476 2.19626E+01
 -1       477 2.26317E+01
 -1       478 2.33008E+01
 -1       479 2.33008E+01
 -1       480 2.33008E+01
 -1       481 2.43748E+01
 -1       482 2.54489E+01
 -1       483 2.54489E+01
 -1       484 2.54489E+01
 -1       485 2.60853E+01
 -1       486 2.85501E+01
 -1       487 3.10148E+01
 -1       488 3.10148E+01
 -1       489 3.10148E+01
 -1       490 3.10271E+01
 -1       491 3.10271E+01
 -1       492 2.32529E+01
 -1       493 2.20962E+01
 -1       494 2.22537E+01
 -1       495 2.33008E+01
 -1       496 2.33008E+01
 -1       497 2.54489E+01
 -1       498 2.54489E+01
 -1       499 2.60853E+01
 -1       500 3.10157E+01
 -1       501 3.10157E+01
 -1       502 3.10271E+01
 -1       503 3.10271E+01
 -1       504 3.10271E+01
 -1       505 2.71400E+01
 -1       506 2.32529E+01
 -1       507 2.21864E+01
 -1       508 2.11200E+01
 -1       509 2.22299E+01
 -1       510 2.23873E+01
 -1       511 2.25447E+01
 -1       512 2.29228E+01
 -1       513 2.33008E+01
 -1       514 2.33008E+01
 -1       515 2.33008E+01
 -1       516 2.43748E+01
 -1       517 2.54489E+01
 -1       518 2.54489E+01
 -1       519 2.54489E+01
 -1       520 2.25552E+01
 -1       521 2.43203E+01
 -1       522 2.60853E+01
 -1       523 2.85510E+01
 -1       524 3.10166E+01
 -1       525 3.10166E+01
 -1       526 3.10166E+01
 -1       527 3.09842E+01
 -1       528 3.09842E+01
 -1       529 2.38728E+01
 -1       530 2.28064E+01
 -1       531 2.28369E+01
 -1       532 2.25447E+01
 -1       533 2.29228E+01
 -1       534 2.24909E+01
 -1       535 2.38642E+01
 -1       536 2.44492E+01
 -1       537 2.30024E+01
 -1       538 2.59850E+01
 -1       539 3.10166E+01
 -1       540 3.10166E+01
 -1       541 3.09413E+01
 -1       542 3.09413E+01
 -1       543 3.09413E+01
 -1       544 2.77171E+01
 -1       545 2.44928E+01
 -1       546 2.44928E+01
 -1       547 2.44928E+01
 -1       548 2.39684E+01
 -1       549 2.34439E+01
 -1       550 2.29943E+01
 -1       551 2.25447E+01
 -1       552 2.25447E+01
 -1       553 2.25447E+01
 -1       554 2.21129E+01
 -1       555 2.16810E+01
 -1       556 2.19802E+01
 -1       557 2.22794E+01
 -1       558 2.28645E+01
 -1       559 2.34495E+01
 -1       560 2.34495E+01
 -1       561 2.34495E+01
 -1       562 2.46671E+01
 -1       563 2.58847E+01
 -1       564 2.84507E+01
 -1       565 3.10166E+01
 -1       566 3.10166E+01
 -1       567 3.10166E+01
 -1       568 3.07772E+01
 -1       569 3.07772E+01
 -1       570 2.58880E+01
 -1       571 2.58880E+01
 -1       572 2.40967E+01
 -1       573 2.46242E+01
 -1       574 2.50233E+01
 -1       575 2.62409E+01
 -1       576 3.09155E+01
 -1       577 3.09155E+01
 -1       578 3.06130E+01
 -1       579 3.06130E+01
 -1       580 3.06130E+01
 -1       581 2.89481E+01
 -1       582 2.72832E+01
 -1       583 2.72832E+01
 -1       584 2.72832E+01
 -1       585 2.60164E+01
 -1       586 2.47496E+01
 -1       587 2.27683E+01
 -1       588 2.07870E+01
 -1       589 2.08603E+01
 -1       590 2.33297E+01
 -1       591 2.57990E+01
 -1       592 2.61980E+01
 -1       593 2.65971E+01
 -1       594 2.65971E+01
 -1       595 2.65971E+01
 -1       596 2.87057E+01
 -1       597 3.08144E+01
 -1       598 3.08144E+01
 -1       599 3.08144E+01
 -1       600 2.72832E+01
 -1       601 2.72832E+01
 -1       602 2.47496E+01
 -1       603 2.07870E+01
 -1       604 2.08671E+01
 -1       605 2.57990E+01
 -1       606 2.65971E+01
 -1       607 2.65971E+01
 -1       608 2.72832E+01
 -1       609 2.72832E+01
 -1       610 2.72832E+01
 -1       611 2.60164E+01
 -1       612 2.47496E+01
 -1       613 2.27683E+01
 -1       614 2.07870E+01
 -1       615 2.08738E+01
 -1       616 2.33364E+01
 -1       617 2.57990E+01
 -1       618 2.61980E+01
 -1       619 2.65971E+01
 -1       620 2.65971E+01
 -1       621 2.65971E+01
 -1       622 2.88643E+01
 -1       623 2.77974E+01
 -1       624 2.58161E+01
 -1       625 2.50938E+01
 -1       626 2.79422E+01
 -1       627 2.83413E+01
 -1       628 3.04455E+01
 -1       629 3.06453E+01
 -1       630 3.08452E+01
 -1       631 3.08452E+01
 -1       632 3.08452E+01
 -1       633 2.93495E+01
 -1       634 2.78538E+01
 -1       635 2.60151E+01
 -1       636 2.41765E+01
 -1       637 2.67452E+01
 -1       638 2.93138E+01
 -1       639 2.96996E+01
 -1       640 3.00855E+01
 -1       641 3.00855E+01
 -1       642 3.00855E+01
 -1       643 3.04455E+01
 -1       644 3.08452E+01
 -1       645 3.08452E+01
 -1       646 2.78538E+01
 -1       647 2.41765E+01
 -1       648 2.93138E+01
 -1       649 3.00855E+01
 -1       650 3.00855E+01
 -1       651 3.04455E+01
 -1       652 3.06453E+01
 -1       653 3.08452E+01
 -1       654 3.08452E+01
 -1       655 3.08452E+01
 -1       656 2.93495E+01
 -1       657 2.78538E+01
 -1       658 2.60151E+01
 -1       659 2.41765E+01
 -1       660 2.67452E+01
 -1       661 2.93138E+01
 -1       662 2.96996E+01
 -1       663 3.00855E+01
 -1       664 3.00855E+01
 -1       665 3.00855E+01
 -1       666 3.01466E+01
 -1       667 3.08578E+01
 -1       668 3.08578E+01
 -1       669 2.74929E+01
 -1       670 3.08450E+01
 -1       671 3.08843E+01
 -1       672 3.08843E+01
 -1       673 3.04918E+01
 -1       674 3.01466E+01
 -1       675 3.08578E+01
 -1       676 3.08578E+01
 -1       677 2.74929E+01
 -1       678 3.08450E+01
 -1       679 3.08843E+01
 -1       680 3.08843E+01
 -1       681 3.04918E+01
 -1       682 2.62288E+01
 -1       683 2.62288E+01
 -1       684 2.59430E+01
 -1       685 2.25768E+01
 -1       686 2.25768E+01
 -1       687 2.33023E+01
 -1       688 2.33023E+01
 -1       689 2.47804E+01
 -1       690 2.70717E+01
 -1       691 2.70717E+01
 -1       692 3.08204E+01
 -1       693 3.08204E+01
 -1       694 2.62288E+01
 -1       695 2.62288E+01
 -1       696 2.59430E+01
 -1       697 2.12658E+01
 -1       698 2.47804E+01
 -1       699 2.70717E+01
 -1       700 2.70717E+01
 -1       701 3.06279E+01
 -1       702 3.06279E+01
 -1       703 3.08204E+01
 -1       704 3.08204E+01
 -1       705 2.60532E+01
 -1       706 2.29763E+01
 -1       707 2.29763E+01
 -1       708 2.20247E+01
 -1       709 2.19557E+01
 -1       710 2.19852E+01
 -1       711 2.22512E+01
 -1       712 2.39556E+01
 -1       713 2.67233E+01
 -1       714 2.67233E+01
 -1       715 3.08874E+01
 -1       716 3.08874E+01
 -1       717 3.05079E+01
 -1       718 3.05079E+01
 -1       719 2.59406E+01
 -1       720 2.23171E+01
 -1       721 2.20247E+01
 -1       722 2.20247E+01
 -1       723 2.19557E+01
 -1       724 2.37415E+01
 -1       725 2.37415E+01
 -1       726 2.28912E+01
 -1       727 2.16992E+01
 -1       728 3.08874E+01
 -1       729 3.08874E+01
 -1       730 2.87368E+01
 -1       731 2.87368E+01
 -1       732 2.28766E+01
 -1       733 2.18020E+01
 -1       734 2.18020E+01
 -1       735 2.12489E+01
 -1       736 2.37415E+01
 -1       737 2.37415E+01
 -1       738 2.28912E+01
 -1       739 2.86178E+01
 -1       740 2.86178E+01
 -1       741 3.10271E+01
 -1       742 3.10271E+01
 -1       743 2.32529E+01
 -1       744 2.19626E+01
 -1       745 2.19626E+01
 -1       746 2.33008E+01
 -1       747 2.33008E+01
 -1       748 2.54489E+01
 -1       749 2.54489E+01
 -1       750 2.60853E+01
 -1       751 3.10148E+01
 -1       752 3.10148E+01
 -1       753 3.10271E+01
 -1       754 3.10271E+01
 -1       755 2.32529E+01
 -1       756 2.11200E+01
 -1       757 2.22299E+01
 -1       758 2.25447E+01
 -1       759 2.33008E+01
 -1       760 2.33008E+01
 -1       761 2.54489E+01
 -1       762 2.54489E+01
 -1       763 2.25552E+01
 -1       764 2.60853E+01
 -1       765 3.10166E+01
 -1       766 3.10166E+01
 -1       767 3.09413E+01
 -1       768 3.09413E+01
 -1       769 2.44928E+01
 -1       770 2.44928E+01
 -1       771 2.34439E+01
 -1       772 2.25447E+01
 -1       773 2.25447E+01
 -1       774 2.16810E+01
 -1       775 2.22794E+01
 -1       776 2.34495E+01
 -1       777 2.34495E+01
 -1       778 2.58847E+01
 -1       779 3.10166E+01
 -1       780 3.10166E+01
 -1       781 3.06130E+01
 -1       782 3.06130E+01
 -1       783 2.72832E+01
 -1       784 2.72832E+01
 -1       785 2.47496E+01
 -1       786 2.07870E+01
 -1       787 2.08603E+01
 -1       788 2.57990E+01
 -1       789 2.65971E+01
 -1       790 2.65971E+01
 -1       791 3.08144E+01
 -1       792 3.08144E+01
 -1       793 2.72832E+01
 -1       794 2.72832E+01
 -1       795 2.47496E+01
 -1       796 2.07870E+01
 -1       797 2.08738E+01
 -1       798 2.57990E+01
 -1       799 2.65971E+01
 -1       800 2.65971E+01
 -1       801 3.04455E+01
 -1       802 3.08452E+01
 -1       803 3.08452E+01
 -1       804 2.78538E+01
 -1       805 2.41765E+01
 -1       806 2.93138E+01
 -1       807 3.00855E+01
 -1       808 3.00855E+01
 -1       809 3.04455E+01
 -1       810 3.08452E+01
 -1       811 3.08452E+01
 -1       812 2.78538E+01
 -1       813 2.41765E+01
 -1       814 2.93138E+01
 -1       815 3.00855E+01
 -1       816 3.00855E+01
 -1       817 3.01466E+01
 -1       818 3.05022E+01
 -1       819 3.08578E+01
 -1       820 3.08578E+01
 -1       821 3.08578E+01
 -1       822 2.91753E+01
 -1       823 2.74929E+01
 -1       824 2.91689E+01
 -1       825 3.08450E+01
 -1       826 3.08646E+01
 -1       827 3.08843E+01
 -1       828 3.08843E+01
 -1       829 3.08843E+01
 -1       830 3.06881E+01
 -1       831 3.04918E+01
 -1       832 3.01466E+01
 -1       833 3.08578E+01
 -1       834 3.08578E+01
 -1       835 2.74929E+01
 -1       836 3.08450E+01
 -1       837 3.08843E+01
 -1       838 3.08843E+01
 -1       839 3.04918E+01
 -1       840 3.01466E+01
 -1       841 3.05022E+01
 -1       842 3.08578E+01
 -1       843 3.08578E+01
 -1       844 3.08578E+01
 -1       845 2.91753E+01
 -1       846 2.74929E+01
 -1       847 2.91689E+01
 -1       848 3.08450E+01
 -1       849 3.08646E+01
 -1       850 3.08843E+01
 -1       851 3.08843E+01
 -1       852 3.08843E+01
 -1       853 3.06881E+01
 -1       854 3.04918E+01
 -1       855 2.81877E+01
 -1       856 2.84004E+01
 -1       857 2.67173E+01
 -1       858 2.50348E+01
 -1       859 2.70736E+01
 -1       860 2.70933E+01
 -1       861 2.78323E+01
 -1       862 2.87818E+01
 -1       863 2.62288E+01
 -1       864 2.62288E+01
 -1       865 2.62288E+01
 -1       866 2.60859E+01
 -1       867 2.59430E+01
 -1       868 2.42599E+01
 -1       869 2.25768E+01
 -1       870 2.25768E+01
 -1       871 2.25768E+01
 -1       872 2.33023E+01
 -1       873 2.33023E+01
 -1       874 2.33023E+01
 -1       875 2.40413E+01
 -1       876 2.47804E+01
 -1       877 2.59260E+01
 -1       878 2.70717E+01
 -1       879 2.70717E+01
 -1       880 2.70717E+01
 -1       881 2.62288E+01
 -1       882 2.62288E+01
 -1       883 2.59430E+01
 -1       884 2.22841E+01
 -1       885 2.47804E+01
 -1       886 2.70717E+01
 -1       887 2.70717E+01
 -1       888 3.08204E+01
 -1       889 3.08204E+01
 -1       890 3.08204E+01
 -1       891 2.85246E+01
 -1       892 2.62288E+01
 -1       893 2.62288E+01
 -1       894 2.62288E+01
 -1       895 2.60859E+01
 -1       896 2.59430E+01
 -1       897 2.12658E+01
 -1       898 2.30231E+01
 -1       899 2.47804E+01
 -1       900 2.59260E+01
 -1       901 2.70717E+01
 -1       902 2.70717E+01
 -1       903 2.70717E+01
 -1       904 2.88498E+01
 -1       905 3.06279E+01
 -1       906 3.06279E+01
 -1       907 3.06279E+01
 -1       908 3.08204E+01
 -1       909 3.08204E+01
 -1       910 2.61410E+01
 -1       911 2.46026E+01
 -1       912 2.44597E+01
 -1       913 2.43680E+01
 -1       914 2.68975E+01
 -1       915 2.68975E+01
 -1       916 3.07577E+01
 -1       917 3.07577E+01
 -1       918 3.08204E+01
 -1       919 3.08204E+01
 -1       920 3.08204E+01
 -1       921 2.84368E+01
 -1       922 2.60532E+01
 -1       923 2.45147E+01
 -1       924 2.29763E+01
 -1       925 2.29763E+01
 -1       926 2.29763E+01
 -1       927 2.25005E+01
 -1       928 2.20247E+01
 -1       929 2.19902E+01
 -1       930 2.19557E+01
 -1       931 2.19705E+01
 -1       932 2.19852E+01
 -1       933 2.21182E+01
 -1       934 2.22512E+01
 -1       935 2.31034E+01
 -1       936 2.39556E+01
 -1       937 2.53395E+01
 -1       938 2.67233E+01
 -1       939 2.67233E+01
 -1       940 2.67233E+01
 -1       941 2.88054E+01
 -1       942 3.08874E+01
 -1       943 3.08874E+01
 -1       944 3.08874E+01
 -1       945 3.06642E+01
 -1       946 3.06642E+01
 -1       947 2.59969E+01
 -1       948 2.26467E+01
 -1       949 2.25005E+01
 -1       950 2.20247E+01
 -1       951 2.19557E+01
 -1       952 2.28634E+01
 -1       953 2.29963E+01
 -1       954 2.34234E+01
 -1       955 2.42113E+01
 -1       956 3.08874E+01
 -1       957 3.08874E+01
 -1       958 3.05079E+01
 -1       959 3.05079E+01
 -1       960 3.05079E+01
 -1       961 2.82243E+01
 -1       962 2.59406E+01
 -1       963 2.41288E+01
 -1       964 2.23171E+01
 -1       965 2.20247E+01
 -1       966 2.20247E+01
 -1       967 2.20247E+01
 -1       968 2.19902E+01
 -1       969 2.19557E+01
 -1       970 2.28486E+01
 -1       971 2.37415E+01
 -1       972 2.37415E+01
 -1       973 2.37415E+01
 -1       974 2.33164E+01
 -1       975 2.28912E+01
 -1       976 2.16992E+01
 -1       977 2.62933E+01
 -1       978 3.08874E+01
 -1       979 3.08874E+01
 -1       980 3.08874E+01
 -1       981 2.96224E+01
 -1       982 2.96224E+01
 -1       983 2.44086E+01
 -1       984 2.19134E+01
 -1       985 2.19134E+01
 -1       986 2.16023E+01
 -1       987 2.37415E+01
 -1       988 2.37415E+01
 -1       989 2.28912E+01
 -1       990 2.97526E+01
 -1       991 2.97526E+01
 -1       992 2.87368E+01
 -1       993 2.87368E+01
 -1       994 2.87368E+01
 -1       995 2.58067E+01
 -1       996 2.28766E+01
 -1       997 2.18020E+01
 -1       998 2.18020E+01
 -1       999 2.18020E+01
 -1      1000 2.15255E+01
 -1      1001 2.12489E+01
 -1      1002 2.24952E+01
 -1      1003 2.37415E+01
 -1      1004 2.37415E+01
 -1      1005 2.37415E+01
 -1      1006 2.33164E+01
 -1      1007 2.28912E+01
 -1      1008 2.86178E+01
 -1      1009 2.86178E+01
 -1      1010 2.86178E+01
 -1      1011 2.98819E+01
 -1      1012 2.98819E+01
 -1      1013 2.18823E+01
 -1      1014 2.18823E+01
 -1      1015 2.22749E+01
 -1      1016 2.35212E+01
 -1      1017 2.45952E+01
 -1      1018 2.41701E+01
 -1      1019 2.98163E+01
 -1      1020 2.98163E+01
 -1      1021 3.10271E+01
 -1      1022 3.10271E+01
 -1      1023 3.10271E+01
 -1      1024 2.71400E+01
 -1      1025 2.32529E+01
 -1      1026 2.19626E+01
 -1      1027 2.19626E+01
 -1      1028 2.19626E+01
 -1      1029 2.26317E+01
 -1      1030 2.33008E+01
 -1      1031 2.33008E+01
 -1      1032 2.33008E+01
 -1      1033 2.43748E+01
 -1      1034 2.54489E+01
 -1      1035 2.54489E+01
 -1      1036 2.54489E+01
 -1      1037 2.60853E+01
 -1      1038 2.85501E+01
 -1      1039 3.10148E+01
 -1      1040 3.10148E+01
 -1      1041 3.10148E+01
 -1      1042 3.10271E+01
 -1      1043 3.10271E+01
 -1      1044 2.32529E+01
 -1      1045 2.20962E+01
 -1      1046 2.22537E+01
 -1      1047 2.33008E+01
 -1      1048 2.33008E+01
 -1      1049 2.54489E+01
 -1      1050 2.54489E+01
 -1      1051 2.60853E+01
 -1      1052 3.10157E+01
 -1      1053 3.10157E+01
 -1      1054 3.10271E+01
 -1      1055 3.10271E+01
 -1      1056 3.10271E+01
 -1      1057 2.71400E+01
 -1      1058 2.32529E+01
 -1      1059 2.21864E+01
 -1      1060 2.11200E+01
 -1      1061 2.22299E+01
 -1      1062 2.23873E+01
 -1      1063 2.25447E+01
 -1      1064 2.29228E+01
 -1      1065 2.33008E+01
 -1      1066 2.33008E+01
 -1      1067 2.33008E+01
 -1      1068 2.43748E+01
 -1      1069 2.54489E+01
 -1      1070 2.54489E+01
 -1      1071 2.54489E+01
 -1      1072 2.25552E+01
 -1      1073 2.43203E+01
 -1      1074 2.60853E+01
 -1      1075 2.85510E+01
 -1      1076 3.10166E+01
 -1      1077 3.10166E+01
 -1      1078 3.10166E+01
 -1      1079 3.09842E+01
 -1      1080 3.09842E+01
 -1      1081 2.38728E+01
 -1      1082 2.28064E+01
 -1      1083 2.28369E+01
 -1      1084 2.25447E+01
 -1      1085 2.29228E+01
 -1      1086 2.24909E+01
 -1      1087 2.38642E+01
 -1      1088 2.44492E+01
 -1      1089 2.30024E+01
 -1      1090 2.59850E+01
 -1      1091 3.10166E+01
 -1      1092 3.10166E+01
 -1      1093 3.09413E+01
 -1      1094 3.09413E+01
 -1      1095 3.09413E+01
 -1      1096 2.77171E+01
 -1      1097 2.44928E+01
 -1      1098 2.44928E+01
 -1      1099 2.44928E+01
 -1      1100 2.39684E+01
 -1      1101 2.34439E+01
 -1      1102 2.29943E+01
 -1      1103 2.25447E+01
 -1      1104 2.25447E+01
 -1      1105 2.25447E+01
 -1      1106 2.21129E+01
 -1      1107 2.16810E+01
 -1      1108 2.19802E+01
 -1      1109 2.22794E+01
 -1      1110 2.28645E+01
 -1      1111 2.34495E+01
 -1      1112 2.34495E+01
 -1      1113 2.34495E+01
 -1      1114 2.46671E+01
 -1      1115 2.58847E+01
 -1      1116 2.84507E+01
 -1      1117 3.10166E+01
 -1      1118 3.10166E+01
 -1      1119 3.10166E+01
 -1      1120 3.07772E+01
 -1      1121 3.07772E+01
 -1      1122 2.58880E+01
 -1      1123 2.58880E+01
 -1      1124 2.40967E+01
 -1      1125 2.46242E+01
 -1      1126 2.50233E+01
 -1      1127 2.62409E+01
 -1      1128 3.09155E+01
 -1      1129 3.09155E+01
 -1      1130 3.06130E+01
 -1      1131 3.06130E+01
 -1      1132 3.06130E+01
 -1      1133 2.89481E+01
 -1      1134 2.72832E+01
 -1      1135 2.72832E+01
 -1      1136 2.72832E+01
 -1      1137 2.60164E+01
 -1      1138 2.47496E+01
 -1      1139 2.27683E+01
 -1      1140 2.07870E+01
 -1      1141 2.08603E+01
 -1      1142 2.33297E+01
 -1      1143 2.57990E+01
 -1      1144 2.61980E+01
 -1      1145 2.65971E+01
 -1      1146 2.65971E+01
 -1      1147 2.65971E+01
 -1      1148 2.87057E+01
 -1      1149 3.08144E+01
 -1      1150 3.08144E+01
 -1      1151 3.08144E+01
 -1      1152 2.72832E+01
 -1      1153 2.72832E+01
 -1      1154 2.47496E+01
 -1      1155 2.07870E+01
 -1      1156 2.08671E+01
 -1      1157 2.57990E+01
 -1      1158 2.65971E+01
 -1      1159 2.65971E+01
 -1      1160 2.72832E+01
 -1      1161 2.72832E+01
 -1      1162 2.72832E+01
 -1      1163 2.60164E+01
 -1      1164 2.47496E+01
 -1      1165 2.27683E+01
 -1      1166 2.07870E+01
 -1      1167 2.08738E+01
 -1      1168 2.33364E+01
 -1      1169 2.57990E+01
 -1      1170 2.61980E+01
 -1      1171 2.65971E+01
 -1      1172 2.65971E+01
 -1      1173 2.65971E+01
 -1      1174 2.88643E+01
 -1      1175 2.77974E+01
 -1      1176 2.58161E+01
 -1      1177 2.50938E+01
 -1      1178 2.79422E+01
 -1      1179 2.83413E+01
 -1      1180 3.04455E+01
 -1      1181 3.06453E+01
 -1      1182 3.08452E+01
 -1      1183 3.08452E+01
 -1      1184 3.08452E+01
 -1      1185 2.93495E+01
 -1      1186 2.78538E+01
 -1      1187 2.60151E+01
 -1      1188 2.41765E+01
 -1      1189 2.67452E+01
 -1      1190 2.93138E+01
 -1      1191 2.96996E+01
 -1      1192 3.00855E+01
 -1      1193 3.00855E+01
 -1      1194 3.00855E+01
 -1      1195 3.04455E+01
 -1      1196 3.08452E+01
 -1      1197 3.08452E+01
 -1      1198 2.78538E+01
 -1      1199 2.41765E+01
 -1      1200 2.93138E+01
 -1      1201 3.00855E+01
 -1      1202 3.00855E+01
 -1      1203 3.04455E+01
 -1      1204 3.06453E+01
 -1      1205 3.08452E+01
 -1      1206 3.08452E+01
 -1      1207 3.08452E+01
 -1      1208 2.93495E+01
 -1      1209 2.78538E+01
 -1      1210 2.60151E+01
 -1      1211 2.41765E+01
 -1      1212 2.67452E+01
 -1      1213 2.93138E+01
 -1      1214 2.96996E+01
 -1      1215 3.00855E+01
 -1      1216 3.00855E+01
 -1      1217 3.00855E+01
 -1      1218 2.25005E+01
 -1      1219 2.20247E+01
 -1      1220 1.85819E+01
 -1      1221 2.05499E+01
 -1      1222 2.22512E+01
 -1      1223 2.31034E+01
 -1      1224 2.20247E+01
 -1      1225 2.20247E+01
 -1      1226 2.16890E+01
 -1      1227 2.37415E+01
 -1      1228 2.37415E+01
 -1      1229 2.25712E+01
 -1      1230 2.01298E+01
 -1      1231 2.16121E+01
 -1      1232 2.13356E+01
 -1      1233 2.37415E+01
 -1      1234 2.37415E+01
 -1      1235 2.14019E+01
 -1      1236 1.98517E+01
 -1      1237 2.19435E+01
 -1      1238 2.26125E+01
 -1      1239 2.21479E+01
 -1      1240 2.54489E+01
 -1      1241 2.54489E+01
 -1      1242 2.22299E+01
 -1      1243 2.23873E+01
 -1      1244 2.26125E+01
 -1      1245 2.12277E+01
 -1      1246 2.54489E+01
 -1      1247 2.54489E+01
 -1      1248 2.28369E+01
 -1      1249 2.23873E+01
 -1      1250 2.01822E+01
 -1      1251 1.84799E+01
 -1      1252 2.22794E+01
 -1      1253 2.28645E+01
 -1      1254 2.20247E+01
 -1      1255 2.20247E+01
 -1      1256 2.20247E+01
 -1      1257 1.86164E+01
 -1      1258 1.52081E+01
 -1      1259 1.71613E+01
 -1      1260 1.91146E+01
 -1      1261 2.06829E+01
 -1      1262 2.22512E+01
 -1      1263 2.22512E+01
 -1      1264 2.22512E+01
 -1      1265 2.20247E+01
 -1      1266 2.20247E+01
 -1      1267 1.83151E+01
 -1      1268 2.14280E+01
 -1      1269 2.29963E+01
 -1      1270 2.22512E+01
 -1      1271 2.20247E+01
 -1      1272 2.20247E+01
 -1      1273 2.20247E+01
 -1      1274 2.17234E+01
 -1      1275 2.14222E+01
 -1      1276 2.25819E+01
 -1      1277 2.37415E+01
 -1      1278 2.37415E+01
 -1      1279 2.37415E+01
 -1      1280 2.29963E+01
 -1      1281 2.22512E+01
 -1      1282 2.02412E+01
 -1      1283 2.17234E+01
 -1      1284 2.14222E+01
 -1      1285 2.37415E+01
 -1      1286 2.37415E+01
 -1      1287 2.10818E+01
 -1      1288 1.84577E+01
 -1      1289 1.99399E+01
 -1      1290 2.14222E+01
 -1      1291 2.14222E+01
 -1      1292 2.14222E+01
 -1      1293 2.25819E+01
 -1      1294 2.37415E+01
 -1      1295 2.37415E+01
 -1      1296 2.37415E+01
 -1      1297 2.18270E+01
 -1      1298 1.99125E+01
 -1      1299 1.80992E+01
 -1      1300 2.16732E+01
 -1      1301 2.16732E+01
 -1      1302 2.23683E+01
 -1      1303 2.45952E+01
 -1      1304 2.26807E+01
 -1      1305 1.77407E+01
 -1      1306 1.98325E+01
 -1      1307 2.19243E+01
 -1      1308 2.19243E+01
 -1      1309 2.19243E+01
 -1      1310 2.14597E+01
 -1      1311 2.09951E+01
 -1      1312 2.32220E+01
 -1      1313 2.54489E+01
 -1      1314 2.54489E+01
 -1      1315 2.54489E+01
 -1      1316 1.99853E+01
 -1      1317 2.20771E+01
 -1      1318 2.19243E+01
 -1      1319 2.00748E+01
 -1      1320 2.54489E+01
 -1      1321 2.54489E+01
 -1      1322 2.22299E+01
 -1      1323 2.22299E+01
 -1      1324 2.22299E+01
 -1      1325 2.20771E+01
 -1      1326 2.19243E+01
 -1      1327 2.05394E+01
 -1      1328 1.91546E+01
 -1      1329 2.23017E+01
 -1      1330 2.54489E+01
 -1      1331 2.54489E+01
 -1      1332 2.54489E+01
 -1      1333 2.22299E+01
 -1      1334 2.22299E+01
 -1      1335 1.98720E+01
 -1      1336 1.72167E+01
 -1      1337 2.38642E+01
 -1      1338 2.38642E+01
 -1      1339 2.22299E+01
 -1      1340 2.22299E+01
 -1      1341 2.22299E+01
 -1      1342 2.00248E+01
 -1      1343 1.78197E+01
 -1      1344 1.65493E+01
 -1      1345 1.52788E+01
 -1      1346 1.87791E+01
 -1      1347 2.22794E+01
 -1      1348 2.22794E+01
 -1      1349 2.22794E+01
 -1      1350 1.67787E+01
 -1      1351 1.76885E+01
 -1      1352 1.42803E+01
 -1      1353 1.59099E+01
 -1      1354 1.68070E+01
 -1      1355 1.66384E+01
 -1      1356 1.79133E+01
 -1      1357 2.17234E+01
 -1      1358 2.14222E+01
 -1      1359 2.20140E+01
 -1      1360 1.93705E+01
 -1      1361 1.72282E+01
 -1      1362 1.61298E+01
 -1      1363 2.14222E+01
 -1      1364 2.14222E+01
 -1      1365 2.23683E+01
 -1      1366 2.23683E+01
 -1      1367 1.68085E+01
 -1      1368 1.47495E+01
 -1      1369 1.84787E+01
 -1      1370 2.13613E+01
 -1      1371 2.09951E+01
 -1      1372 2.32220E+01
 -1      1373 2.23512E+01
 -1      1374 1.69940E+01
 -1      1375 1.70766E+01
 -1      1376 1.83630E+01
 -1      1377 1.79551E+01
 -1      1378 2.23512E+01
 -1      1379 2.23512E+01
 -1      1380 1.62509E+01
 -1      1381 1.69016E+01
 -1      1382 1.46966E+01
 -1      1383 1.31684E+01
 -1      1384 1.68915E+01
 -1      1385 1.68915E+01
 -1      1386 1.15327E+01
 -1      1387 1.24425E+01
 -1      1388 1.33524E+01
 -1      1389 1.33524E+01
 -1      1390 1.33524E+01
 -1      1391 1.30288E+01
 -1      1392 1.27052E+01
 -1      1393 1.20340E+01
 -1      1394 1.13629E+01
 -1      1395 1.11943E+01
 -1      1396 1.10257E+01
 -1      1397 1.26673E+01
 -1      1398 1.73873E+01
 -1      1399 1.73873E+01
 -1      1400 1.64958E+01
 -1      1401 1.31812E+01
 -1      1402 1.16155E+01
 -1      1403 1.38020E+01
 -1      1404 1.76121E+01
 -1      1405 2.14222E+01
 -1      1406 2.14222E+01
 -1      1407 2.14222E+01
 -1      1408 2.08543E+01
 -1      1409 2.02864E+01
 -1      1410 1.76430E+01
 -1      1411 1.49995E+01
 -1      1412 1.36024E+01
 -1      1413 1.22053E+01
 -1      1414 1.38020E+01
 -1      1415 2.14222E+01
 -1      1416 2.14222E+01
 -1      1417 2.06407E+01
 -1      1418 1.79973E+01
 -1      1419 1.29549E+01
 -1      1420 1.38020E+01
 -1      1421 1.76121E+01
 -1      1422 2.14222E+01
 -1      1423 2.14222E+01
 -1      1424 2.14222E+01
 -1      1425 2.12086E+01
 -1      1426 2.09951E+01
 -1      1427 2.09951E+01
 -1      1428 2.09951E+01
 -1      1429 1.73498E+01
 -1      1430 1.37045E+01
 -1      1431 1.27801E+01
 -1      1432 1.82276E+01
 -1      1433 2.11103E+01
 -1      1434 2.09951E+01
 -1      1435 2.09951E+01
 -1      1436 1.64790E+01
 -1      1437 1.17582E+01
 -1      1438 1.33956E+01
 -1      1439 1.50330E+01
 -1      1440 1.79157E+01
 -1      1441 2.07984E+01
 -1      1442 2.08967E+01
 -1      1443 2.09951E+01
 -1      1444 2.09951E+01
 -1      1445 2.09951E+01
 -1      1446 2.01243E+01
 -1      1447 1.92536E+01
 -1      1448 1.17582E+01
 -1      1449 1.34782E+01
 -1      1450 1.78000E+01
 -1      1451 1.88754E+01
 -1      1452 2.01243E+01
 -1      1453 1.92536E+01
 -1      1454 1.17582E+01
 -1      1455 1.18408E+01
 -1      1456 1.19233E+01
 -1      1457 1.33625E+01
 -1      1458 1.48016E+01
 -1      1459 1.57786E+01
 -1      1460 1.67557E+01
 -1      1461 1.80046E+01
 -1      1462 1.92536E+01
 -1      1463 1.92536E+01
 -1      1464 1.92536E+01
 -1      1465 1.10150E+01
 -1      1466 1.17484E+01
 -1      1467 1.31875E+01
 -1      1468 1.39068E+01
 -1      1469 1.53785E+01
 -1      1470 1.53785E+01
 -1      1471 1.02718E+01
 -1      1472 1.09226E+01
 -1      1473 1.15734E+01
 -1      1474 1.15734E+01
 -1      1475 1.15734E+01
 -1      1476 1.13157E+01
 -1      1477 1.10580E+01
 -1      1478 1.12807E+01
 -1      1479 1.15035E+01
 -1      1480 1.15035E+01
 -1      1481 1.15035E+01
 -3
    1PSTEP                        29           1           1          
    1PGM                1.000000E+00                                  
    1PGK                1.952310E+12                                  
    1PHID                         -1                                  
    1PSUBC                         0                                  
    1PMODE                         8                                  
  100CL  108 222379.3981        1481                     2    8MODAL      1
 -4  DISP        4    1
 -5  D1          1    2    1    0
 -5  D2          1    2    2    0
 -5  D3          1    2    3    0
 -5  ALL         1    2    0    0    1ALL
 -1         1 4.50403E+02-2.89524E+02 1.61339E+03
 -1         2 2.19775E+02-8.77466E+01 1.88313E+03
 -1         3-2.25429E+01-1.51483E+02 2.00790E+03
 -1         4-1.01159E+02-2.07928E+02 1.96769E+03
 -1         5-1.65997E+02-2.37337E+02 1.83574E+03
 -1         6-2.28287E+02-2.65200E+02 1.60725E+03
 -1         7-2.75902E+02-2.90325E+02 1.30893E+03
 -1         8-3.08975E+02-3.15979E+02 9.60948E+02
 -1         9-3.32001E+02-3.37756E+02 5.80837E+02
 -1        10-3.77051E+02-3.77443E+02 1.81803E+02
 -1        11-4.25418E+02-4.71435E+02-2.29355E+02
 -1        12 1.00876E+02-1.32532E+02 1.69007E+03
 -1        13-2.79809E+01-1.30929E+02 1.82733E+03
 -1        14-1.79289E+02-2.19325E+02 1.54395E+03
 -1        15-2.83951E+02-2.78245E+02 9.52358E+02
 -1        16-3.43823E+02-3.30337E+02 1.58265E+02
 -1        17-3.69220E+02-4.09020E+02-7.40126E+02
 -1        18-4.54666E+01-2.08115E+01 1.77339E+03
 -1        19-5.49662E+01-5.48942E+01 1.72540E+03
 -1        20-8.90030E+01-1.17789E+02 1.65876E+03
 -1        21-1.54328E+02-1.62570E+02 1.51014E+03
 -1        22-2.14714E+02-2.01182E+02 1.27872E+03
 -1        23-2.65390E+02-2.34894E+02 9.74463E+02
 -1        24-3.09237E+02-2.63995E+02 6.08736E+02
 -1        25-3.42012E+02-2.90704E+02 1.95340E+02
 -1        26-3.67772E+02-3.16002E+02-2.54906E+02
 -1        27-3.80917E+02-3.39688E+02-7.31249E+02
 -1        28-3.89789E+02-3.42898E+02-1.21668E+03
 -1        29-1.07511E+02-3.14846E+01 1.81817E+03
 -1        30-1.46836E+02-1.01359E+02 1.51921E+03
 -1        31-2.47521E+02-1.84851E+02 1.03180E+03
 -1        32-3.35664E+02-2.43957E+02 2.86588E+02
 -1        33-3.88634E+02-2.90025E+02-6.39391E+02
 -1        34-4.13883E+02-3.14939E+02-1.65037E+03
 -1        35-1.65834E+02-4.25425E+01 1.82348E+03
 -1        36-1.73186E+02-5.24720E+01 1.61922E+03
 -1        37-1.94586E+02-9.17099E+01 1.39805E+03
 -1        38-2.33994E+02-1.30432E+02 1.13173E+03
 -1        39-2.80024E+02-1.64731E+02 8.09191E+02
 -1        40-3.23381E+02-1.93859E+02 4.26605E+02
 -1        41-3.61220E+02-2.19958E+02-8.18085E+00
 -1        42-3.88479E+02-2.42238E+02-4.83992E+02
 -1        43-4.08113E+02-2.60988E+02-9.89097E+02
 -1        44-4.21081E+02-2.78533E+02-1.51211E+03
 -1        45-4.31448E+02-2.83858E+02-2.04790E+03
 -1        46-2.02671E+02-4.47612E+01 1.80402E+03
 -1        47-2.30426E+02-8.24768E+01 1.28564E+03
 -1        48-3.10116E+02-1.41197E+02 6.13605E+02
 -1        49-3.83909E+02-1.91597E+02-2.69389E+02
 -1        50-4.25067E+02-2.27958E+02-1.29927E+03
 -1        51-4.47019E+02-2.45088E+02-2.39587E+03
 -1        52-2.22931E+02-3.84424E+01 1.76345E+03
 -1        53-2.33676E+02-4.86184E+01 1.48922E+03
 -1        54-2.57254E+02-6.97388E+01 1.18940E+03
 -1        55-2.93899E+02-9.05785E+01 8.46891E+02
 -1        56-3.36582E+02-1.15156E+02 4.51132E+02
 -1        57-3.74425E+02-1.40263E+02 1.09238E+00
 -1        58-4.05061E+02-1.62070E+02-4.93570E+02
 -1        59-4.24638E+02-1.79752E+02-1.01938E+03
 -1        60-4.38040E+02-1.92515E+02-1.56548E+03
 -1        61-4.47937E+02-2.01483E+02-2.12166E+03
 -1        62-4.58131E+02-2.04035E+02-2.68878E+03
 -1        63-2.22605E+02-3.22283E+01 1.72484E+03
 -1        64-2.73932E+02-4.51251E+01 1.11533E+03
 -1        65-3.62181E+02-8.70375E+01 3.23553E+02
 -1        66-4.23952E+02-1.33535E+02-6.79052E+02
 -1        67-4.46401E+02-1.57515E+02-1.78477E+03
 -1        68-4.62567E+02-1.62400E+02-2.92128E+03
 -1        69-2.31987E+02-9.95225E+00 1.67916E+03
 -1        70-2.49529E+02 6.57364E+00 1.39168E+03
 -1        71-2.82813E+02-6.33523E+00 1.08510E+03
 -1        72-3.42049E+02-3.43473E+01 6.94654E+02
 -1        73-3.88820E+02-6.31969E+01 2.32054E+02
 -1        74-4.19384E+02-8.79300E+01-2.81768E+02
 -1        75-4.40837E+02-1.08386E+02-8.30310E+02
 -1        76-4.48485E+02-1.22141E+02-1.39421E+03
 -1        77-4.49201E+02-1.26908E+02-1.96159E+03
 -1        78-4.49581E+02-1.21407E+02-2.52643E+03
 -1        79-4.56554E+02-1.19684E+02-3.09164E+03
 -1        80-1.74644E+02 2.29689E+02 1.68512E+03
 -1        81-2.98789E+02 1.85944E+01 1.11480E+03
 -1        82-4.14234E+02-4.21531E+01 1.69645E+02
 -1        83-4.58235E+02-9.58803E+01-9.53144E+02
 -1        84-4.44916E+02-1.11245E+02-2.10719E+03
 -1        85-4.22198E+02-7.16734E+01-3.18146E+03
 -1        86 2.27524E+02 5.04027E+02 1.77936E+03
 -1        87-5.82410E+01 1.04658E+02 1.53536E+03
 -1        88-3.23590E+02 3.90368E+01 1.16179E+03
 -1        89-3.78832E+02 1.75533E+01 6.73883E+02
 -1        90-4.17815E+02-2.67834E+01 1.36623E+02
 -1        91-4.51225E+02-6.27127E+01-4.58026E+02
 -1        92-4.62570E+02-9.10982E+01-1.06979E+03
 -1        93-4.59090E+02-1.06808E+02-1.66787E+03
 -1        94-4.43009E+02-1.09641E+02-2.24002E+03
 -1        95-4.12435E+02-7.91895E+01-2.75325E+03
 -1        96-3.97040E+02-4.57799E+01-3.22697E+03
 -1        97 4.41849E+02-3.20497E+02 1.61247E+03
 -1        98-2.90642E+01-1.23470E+02 2.01367E+03
 -1        99-1.37495E+02-1.90477E+02 1.83868E+03
 -1       100-2.23042E+02-2.33420E+02 1.31094E+03
 -1       101-2.67831E+02-2.72131E+02 5.81793E+02
 -1       102-3.66522E+02-4.00370E+02-2.29115E+02
 -1       103-3.40136E+01-2.20520E+01 1.77300E+03
 -1       104-7.40974E+01-9.15430E+01 1.66145E+03
 -1       105-1.71095E+02-1.61728E+02 1.28050E+03
 -1       106-2.47814E+02-2.11512E+02 6.09849E+02
 -1       107-2.94085E+02-2.52951E+02-2.55121E+02
 -1       108-3.13655E+02-2.71733E+02-1.21834E+03
 -1       109-1.34072E+02-3.77790E+01 1.82332E+03
 -1       110-1.57061E+02-7.39770E+01 1.39962E+03
 -1       111-2.24852E+02-1.31716E+02 8.10590E+02
 -1       112-2.89483E+02-1.76301E+02-7.83136E+00
 -1       113-3.27429E+02-2.09533E+02-9.89860E+02
 -1       114-3.46714E+02-2.25642E+02-2.04944E+03
 -1       115-1.80205E+02-3.31645E+01 1.76277E+03
 -1       116-2.06940E+02-5.43968E+01 1.19066E+03
 -1       117-2.70344E+02-9.27397E+01 4.51912E+02
 -1       118-3.24684E+02-1.29931E+02-4.93855E+02
 -1       119-3.51573E+02-1.54518E+02-1.56685E+03
 -1       120-3.68405E+02-1.63551E+02-2.69066E+03
 -1       121-1.83418E+02-1.23625E+01 1.67565E+03
 -1       122-2.31307E+02-8.77446E+00 1.08607E+03
 -1       123-3.10598E+02-5.06200E+01 2.32485E+02
 -1       124-3.53296E+02-8.76871E+01-8.30597E+02
 -1       125-3.60421E+02-1.02162E+02-1.96331E+03
 -1       126-3.66806E+02-9.89982E+01-3.09381E+03
 -1       127 3.03421E+02 5.28089E+02 1.77923E+03
 -1       128-2.63101E+02 3.47697E+01 1.16660E+03
 -1       129-3.33020E+02-2.24340E+01 1.38325E+02
 -1       130-3.69169E+02-7.32286E+01-1.06934E+03
 -1       131-3.57554E+02-8.82731E+01-2.24136E+03
 -1       132-3.19154E+02-3.39657E+01-3.22664E+03
 -1       133 4.53147E+02-3.52284E+02 1.60998E+03
 -1       134 1.80915E+02-5.59124E+01 1.91032E+03
 -1       135-3.97588E+01-9.49623E+01 2.01883E+03
 -1       136-6.68681E+01-1.27886E+02 1.97242E+03
 -1       137-1.06124E+02-1.43859E+02 1.84098E+03
 -1       138-1.40773E+02-1.60440E+02 1.60998E+03
 -1       139-1.70231E+02-1.76734E+02 1.31257E+03
 -1       140-1.90413E+02-1.92168E+02 9.62936E+02
 -1       141-2.01198E+02-2.05570E+02 5.82544E+02
 -1       142-2.45544E+02-2.28929E+02 1.87346E+02
 -1       143-3.08583E+02-3.34235E+02-2.28480E+02
 -1       144 6.01187E+01-1.38831E+02 1.67285E+03
 -1       145-1.42743E+01-8.35988E+01 1.83262E+03
 -1       146-1.10740E+02-1.32178E+02 1.54958E+03
 -1       147-1.71777E+02-1.68792E+02 9.55113E+02
 -1       148-2.09697E+02-2.01731E+02 1.59058E+02
 -1       149-2.24899E+02-2.60556E+02-7.47416E+02
 -1       150-2.62503E+01-1.39897E+01 1.77265E+03
 -1       151-2.86669E+01-4.00694E+01 1.72725E+03
 -1       152-5.74395E+01-6.81927E+01 1.66353E+03
 -1       153-9.67634E+01-9.66659E+01 1.51490E+03
 -1       154-1.28693E+02-1.21931E+02 1.28172E+03
 -1       155-1.60623E+02-1.42454E+02 9.77461E+02
 -1       156-1.86730E+02-1.59501E+02 6.10678E+02
 -1       157-2.06417E+02-1.75416E+02 1.96352E+02
 -1       158-2.21654E+02-1.90547E+02-2.55289E+02
 -1       159-2.32356E+02-2.06514E+02-7.32430E+02
 -1       160-2.37281E+02-2.00093E+02-1.21980E+03
 -1       161-6.58815E+01-2.74973E+01 1.81883E+03
 -1       162-9.14957E+01-5.89425E+01 1.52234E+03
 -1       163-1.49210E+02-1.11991E+02 1.03464E+03
 -1       164-2.02838E+02-1.47695E+02 2.87908E+02
 -1       165-2.34676E+02-1.74886E+02-6.40430E+02
 -1       166-2.51669E+02-1.88179E+02-1.65237E+03
 -1       167-1.01121E+02-3.26783E+01 1.82288E+03
 -1       168-1.06252E+02-3.11593E+01 1.62032E+03
 -1       169-1.19320E+02-5.60055E+01 1.40091E+03
 -1       170-1.41723E+02-7.91481E+01 1.13439E+03
 -1       171-1.69785E+02-9.92076E+01 8.11652E+02
 -1       172-1.95778E+02-1.16872E+02 4.28080E+02
 -1       173-2.18290E+02-1.32996E+02-7.55233E+00
 -1       174-2.35338E+02-1.46643E+02-4.84409E+02
 -1       175-2.47009E+02-1.58077E+02-9.90389E+02
 -1       176-2.55307E+02-1.67878E+02-1.51463E+03
 -1       177-2.62154E+02-1.68988E+02-2.05061E+03
 -1       178-1.24739E+02-3.01895E+01 1.80541E+03
 -1       179-1.40413E+02-4.98160E+01 1.28740E+03
 -1       180-1.88330E+02-8.53807E+01 6.15641E+02
 -1       181-2.32014E+02-1.15936E+02-2.69359E+02
 -1       182-2.57586E+02-1.38139E+02-1.30126E+03
 -1       183-2.71331E+02-1.47159E+02-2.39826E+03
 -1       184-1.36389E+02-2.51684E+01 1.76196E+03
 -1       185-1.43533E+02-3.15957E+01 1.48860E+03
 -1       186-1.56959E+02-4.03821E+01 1.19178E+03
 -1       187-1.77995E+02-5.38693E+01 8.48720E+02
 -1       188-2.04284E+02-7.00894E+01 4.52508E+02
 -1       189-2.26852E+02-8.52332E+01 1.50958E+00
 -1       190-2.44971E+02-9.80890E+01-4.94057E+02
 -1       191-2.57130E+02-1.08893E+02-1.02083E+03
 -1       192-2.65471E+02-1.16675E+02-1.56788E+03
 -1       193-2.72041E+02-1.22164E+02-2.12484E+03
 -1       194-2.78351E+02-1.23286E+02-2.69204E+03
 -1       195-1.34837E+02-1.93715E+01 1.72395E+03
 -1       196-1.69316E+02-3.12897E+01 1.11628E+03
 -1       197-2.18400E+02-5.22803E+01 3.24637E+02
 -1       198-2.56269E+02-8.11294E+01-6.79606E+02
 -1       199-2.70322E+02-9.59001E+01-1.78764E+03
 -1       200-2.81847E+02-9.86779E+01-2.92406E+03
 -1       201-1.37873E+02-2.43535E+01 1.67236E+03
 -1       202-1.45167E+02 1.15219E+01 1.39086E+03
 -1       203-1.76520E+02-8.14700E+00 1.08683E+03
 -1       204-2.11446E+02-2.32857E+01 6.96921E+02
 -1       205-2.33406E+02-3.85573E+01 2.32628E+02
 -1       206-2.53666E+02-5.36064E+01-2.81205E+02
 -1       207-2.65950E+02-6.66187E+01-8.30774E+02
 -1       208-2.71985E+02-7.46719E+01-1.39602E+03
 -1       209-2.72108E+02-7.73817E+01-1.96462E+03
 -1       210-2.72548E+02-7.48627E+01-2.52939E+03
 -1       211-2.77831E+02-7.82733E+01-3.09557E+03
 -1       212-1.05787E+02 2.16525E+02 1.65379E+03
 -1       213-1.74157E+02 1.80025E+01 1.11827E+03
 -1       214-2.52443E+02-2.71250E+01 1.72995E+02
 -1       215-2.76998E+02-5.82399E+01-9.53605E+02
 -1       216-2.70228E+02-6.72946E+01-2.10929E+03
 -1       217-2.56914E+02-4.19248E+01-3.18519E+03
 -1       218 3.94994E+02 5.66306E+02 1.77882E+03
 -1       219 4.15179E+01 6.54553E+01 1.56815E+03
 -1       220-2.13009E+02 2.74209E+01 1.17083E+03
 -1       221-2.24734E+02 1.14787E+01 6.76928E+02
 -1       222-2.48627E+02-1.68910E+01 1.39833E+02
 -1       223-2.66949E+02-3.89171E+01-4.57393E+02
 -1       224-2.77926E+02-5.52922E+01-1.06888E+03
 -1       225-2.76710E+02-6.56725E+01-1.66829E+03
 -1       226-2.72430E+02-6.76503E+01-2.24242E+03
 -1       227-2.50155E+02-4.87238E+01-2.75570E+03
 -1       228-2.36369E+02-1.67094E+01-3.22574E+03
 -1       229 6.15500E+02-4.53287E+02 1.59423E+03
 -1       230-3.64685E+01-6.79281E+01 2.01366E+03
 -1       231-6.45108E+01-1.04149E+02 1.83716E+03
 -1       232-1.18750E+02-1.21609E+02 1.31339E+03
 -1       233-1.34528E+02-1.41381E+02 5.80749E+02
 -1       234-2.74903E+02-3.05521E+02-2.24564E+02
 -1       235-1.00165E+01-4.58067E+00 1.77933E+03
 -1       236-5.65507E+01-3.47776E+01 1.66774E+03
 -1       237-8.39554E+01-8.34971E+01 1.28286E+03
 -1       238-1.27522E+02-1.07843E+02 6.11805E+02
 -1       239-1.46200E+02-1.24557E+02-2.55958E+02
 -1       240-1.61857E+02-1.32699E+02-1.21842E+03
 -1       241-5.96668E+01-3.05929E+01 1.82480E+03
 -1       242-8.00927E+01-4.04735E+01 1.40083E+03
 -1       243-1.14943E+02-6.66925E+01 8.12423E+02
 -1       244-1.47534E+02-9.00501E+01-7.38565E+00
 -1       245-1.67654E+02-1.07819E+02-9.90997E+02
 -1       246-1.79792E+02-1.16117E+02-2.05016E+03
 -1       247-8.10225E+01-6.49397E+00 1.76717E+03
 -1       248-1.05084E+02-2.33151E+01 1.19184E+03
 -1       249-1.38480E+02-4.78871E+01 4.52982E+02
 -1       250-1.65623E+02-6.61053E+01-4.94201E+02
 -1       251-1.79279E+02-7.83727E+01-1.56850E+03
 -1       252-1.87141E+02-8.19282E+01-2.69218E+03
 -1       253-8.53421E+01-2.68265E+01 1.68121E+03
 -1       254-1.40376E+02-2.65678E+01 1.08752E+03
 -1       255-1.54589E+02-2.41459E+01 2.33391E+02
 -1       256-1.80296E+02-4.58334E+01-8.30507E+02
 -1       257-1.86617E+02-5.54642E+01-1.96737E+03
 -1       258-1.87122E+02-5.43811E+01-3.09569E+03
 -1       259 6.46677E+02 7.63460E+02 1.77701E+03
 -1       260-1.54042E+02 2.64092E+01 1.16278E+03
 -1       261-1.57772E+02 7.71367E-01 1.34664E+02
 -1       262-1.88554E+02-3.71683E+01-1.06707E+03
 -1       263-1.84597E+02-4.37561E+01-2.24292E+03
 -1       264-1.24779E+02 3.41065E+01-3.21905E+03
 -1       265 0.00000E+00 0.00000E+00 0.00000E+00
 -1       266 0.00000E+00 0.00000E+00 0.00000E+00
 -1       267 0.00000E+00 0.00000E+00 0.00000E+00
 -1       268 0.00000E+00 0.00000E+00 0.00000E+00
 -1       269 0.00000E+00 0.00000E+00 0.00000E+00
 -1       270 0.00000E+00 0.00000E+00 0.00000E+00
 -1       271 0.00000E+00 0.00000E+00 0.00000E+00
 -1       272 0.00000E+00 0.00000E+00 0.00000E+00
 -1       273 0.00000E+00 0.00000E+00 0.00000E+00
 -1       274 0.00000E+00 0.00000E+00 0.00000E+00
 -1       275 0.00000E+00 0.00000E+00 0.00000E+00
 -1       276 0.00000E+00 0.00000E+00 0.00000E+00
 -1       277 0.00000E+00 0.00000E+00 0.00000E+00
 -1       278 0.00000E+00 0.00000E+00 0.00000E+00
 -1       279 0.00000E+00 0.00000E+00 0.00000E+00
 -1       280 1.01239E+02 1.26362E+03 3.82057E+03
 -1       281 5.34542E+01 1.45161E+03 4.58423E+03
 -1       282 1.17674E+01 1.58003E+03 4.85726E+03
 -1       283-1.55691E+02 1.38793E+03 4.18097E+03
 -1       284-4.62308E+01 9.76811E+02 3.07641E+03
 -1       285-8.53390E+01 7.29255E+02 2.27118E+03
 -1       286-1.18861E+02 3.81343E+02 1.17008E+03
 -1       287-1.42186E+02-3.25837E+01-2.65678E+02
 -1       288 2.09835E+02 2.24286E+03 1.40230E+04
 -1       289 2.07057E+02 2.32519E+03 1.52596E+04
 -1       290 2.16578E+02 2.56026E+03 1.64821E+04
 -1       291 1.28549E+02 2.74488E+03 1.75167E+04
 -1       292 4.47147E+01 2.87007E+03 1.81783E+04
 -1       293-1.78520E+02 2.85027E+03 1.76955E+04
 -1       294-4.41367E+02 2.65930E+03 1.60014E+04
 -1       295-3.69543E+02 2.11685E+03 1.31974E+04
 -1       296-2.23587E+02 1.74726E+03 1.11870E+04
 -1       297-2.46290E+02 1.56254E+03 9.89387E+03
 -1       298-2.83654E+02 1.32426E+03 8.38681E+03
 -1       299-3.51287E+02 1.00674E+03 6.49843E+03
 -1       300-4.00858E+02 6.66098E+02 4.26278E+03
 -1       301-4.17030E+02 3.09611E+02 1.92979E+03
 -1       302-4.37340E+02-3.46997E+00-5.55760E+02
 -1       303 2.52324E+02 1.10408E+03 2.43355E+04
 -1       304 7.03583E+02 2.01836E+03 3.00486E+04
 -1       305 2.33381E+02 3.08265E+03 3.54497E+04
 -1       306-3.82279E+02 3.48578E+03 3.43775E+04
 -1       307-3.55741E+02 1.87021E+03 2.17391E+04
 -1       308-6.58076E+02 1.30038E+03 1.61020E+04
 -1       309-7.61990E+02 5.38615E+02 7.85778E+03
 -1       310-7.17091E+02-7.32796E+01-8.39977E+02
 -1       311 9.31986E+02-2.14181E+03 1.82372E+04
 -1       312 7.29658E+02-1.57378E+03 2.28231E+04
 -1       313 6.90953E+02-5.07156E+02 2.65779E+04
 -1       314 1.16177E+03 2.91083E+02 3.18972E+04
 -1       315 1.50663E+03 1.19277E+03 3.98349E+04
 -1       316 1.15529E+03 2.44498E+03 4.81674E+04
 -1       317 6.78537E+02 3.29653E+03 5.40640E+04
 -1       318 1.60962E+02 3.70403E+03 5.64444E+04
 -1       319-2.59741E+02 3.96257E+03 5.62403E+04
 -1       320-5.71565E+02 1.94199E+03 3.29344E+04
 -1       321-8.02632E+02 1.64522E+03 2.88952E+04
 -1       322-1.09807E+03 1.14881E+03 2.33095E+04
 -1       323-1.10261E+03 6.94413E+02 1.68649E+04
 -1       324-1.10550E+03 3.30489E+02 1.03408E+04
 -1       325-1.04782E+03 2.18715E+01 4.08754E+03
 -1       326-9.53806E+02-1.59736E+02-1.66739E+03
 -1       327-8.69972E+02-1.68936E+02-7.07293E+03
 -1       328-8.50211E+02-4.02444E+01-1.21123E+04
 -1       329 9.68308E+02-2.13867E+03 5.77750E+03
 -1       330 1.44649E+03-1.66611E+03 1.99560E+04
 -1       331 2.03158E+03-1.05133E+03 3.95983E+04
 -1       332-1.56402E+03 5.30592E+02 2.82361E+04
 -1       333-1.38886E+03-1.41162E+02 1.09609E+04
 -1       334-1.01516E+03-2.80329E+02-2.94008E+03
 -1       335-5.63174E+02 4.42675E+01-1.19902E+04
 -1       336 0.00000E+00 0.00000E+00 0.00000E+00
 -1       337-4.42423E+02-3.48025E+02-1.00728E+03
 -1       338-9.02919E+02-1.02981E+03-4.58116E+03
 -1       339-2.92268E+02-1.66986E+03-8.09113E+03
 -1       340 5.43713E+02-2.31648E+03-7.22799E+03
 -1       341 1.28887E+03-2.71239E+03-1.79802E+03
 -1       342 1.82424E+03-2.67860E+03 7.17488E+03
 -1       343 1.64204E+03-2.61350E+03 1.74240E+04
 -1       344 1.90656E+03-2.97495E+03 2.79865E+04
 -1       345-1.99816E+03 9.58640E+01 3.01653E+04
 -1       346-1.80220E+03-2.57034E+02 1.89504E+04
 -1       347-1.48221E+03-6.80681E+02 8.85731E+03
 -1       348-1.15576E+03-4.89775E+02 1.28252E+03
 -1       349-9.44566E+02-3.56858E+02-4.73674E+03
 -1       350-5.72475E+02-1.85675E+02-9.21741E+03
 -1       351-1.39519E+02 9.21884E+01-1.13993E+04
 -1       352 4.81032E+02 1.84621E+02-1.01593E+04
 -1       353 9.05674E+02 9.29415E+01-5.88181E+03
 -1       354 5.18872E+02 1.57806E+01-1.64257E+03
 -1       355 0.00000E+00 0.00000E+00 0.00000E+00
 -1       356 0.00000E+00 0.00000E+00 0.00000E+00
 -1       357-1.62890E+03-9.91049E+02-1.04611E+04
 -1       358-1.00247E+02-2.67871E+03-2.16134E+04
 -1       359 2.07629E+03-3.20620E+03-9.71984E+03
 -1       360 1.33021E+03-2.29964E+03 1.16447E+04
 -1       361-8.69330E+02-7.27195E+02 3.73814E+03
 -1       362-8.62131E+02-2.86471E+02-6.67894E+03
 -1       363 1.22496E+02-3.35739E+01-1.12363E+04
 -1       364 8.10110E+02 9.48201E+01-5.34484E+03
 -1       365 0.00000E+00 0.00000E+00 0.00000E+00
 -1       366 0.00000E+00 0.00000E+00 0.00000E+00
 -1       367-1.42866E+03-2.90298E+02-4.45186E+03
 -1       368-2.48804E+03-9.80086E+02-1.60717E+04
 -1       369-1.92014E+03-1.90998E+03-2.92250E+04
 -1       370-1.07313E+03-2.88481E+03-3.78192E+04
 -1       371 6.58513E+02-3.77507E+03-3.92618E+04
 -1       372 2.60380E+03-4.13624E+03-3.07274E+04
 -1       373 2.61417E+03-2.30941E+03-1.21209E+04
 -1       374 7.92894E+02-5.53816E+02 1.58026E+03
 -1       375 1.34167E+02-2.90141E+01 1.96228E+03
 -1       376-3.98294E+01-4.07777E+01 2.00757E+03
 -1       377-4.67477E+01-3.07264E+01 1.98380E+03
 -1       378-2.10983E+01-6.40813E+01 1.83302E+03
 -1       379-4.63643E+01-5.95836E+01 1.61010E+03
 -1       380-6.74191E+01-6.67995E+01 1.31381E+03
 -1       381-6.45249E+01-6.14567E+01 9.66004E+02
 -1       382-6.60921E+01-7.62387E+01 5.78896E+02
 -1       383-1.01830E+02-8.54116E+01 1.99144E+02
 -1       384-2.42116E+02-2.80155E+02-2.20605E+02
 -1       385-7.37521E+02-2.87368E+02-3.58795E+03
 -1       386-8.94247E+02-3.53714E+02-8.59552E+03
 -1       387-2.81776E+02-3.12884E+02-1.19495E+04
 -1       388 3.88409E+02-1.04615E+02-1.17203E+04
 -1       389 5.91075E+02 6.66403E+01-8.75852E+03
 -1       390 7.41462E+02 8.92131E+01-4.81507E+03
 -1       391 4.25006E+02 3.04628E+01-1.33853E+03
 -1       392 0.00000E+00 0.00000E+00 0.00000E+00
 -1       393 0.00000E+00 0.00000E+00 0.00000E+00
 -1       394-3.31404E+03-8.27564E+02-2.14806E+04
 -1       395-2.15801E+03-2.84471E+03-5.47934E+04
 -1       396 1.09367E+03-5.12286E+03-5.94741E+04
 -1       397 3.87243E+01-9.88072E+01 1.63387E+03
 -1       398 3.73130E+01-6.17327E+01 1.82148E+03
 -1       399-4.55814E+01-4.51713E+01 1.55208E+03
 -1       400-5.79835E+01-6.04646E+01 9.55056E+02
 -1       401-8.37720E+01-8.35399E+01 1.58316E+02
 -1       402-8.27870E+01-1.10536E+02-7.61170E+02
 -1       403 6.59661E+02 7.48999E+00-1.20452E+04
 -1       404 6.62626E+02 1.24070E+02-4.19231E+03
 -1       405 0.00000E+00 0.00000E+00 0.00000E+00
 -1       406 0.00000E+00 0.00000E+00 0.00000E+00
 -1       407-2.24635E+03-1.70574E+02-6.95325E+03
 -1       408-4.04472E+03-6.06678E+02-2.57398E+04
 -1       409-3.96728E+03-1.53577E+03-4.93076E+04
 -1       410-3.52574E+03-2.79396E+03-7.13231E+04
 -1       411-1.54448E+03-4.25578E+03-8.62460E+04
 -1       412-1.52879E+02-5.72394E+03-9.15706E+04
 -1       413 2.04405E+00 1.03485E+01 1.78523E+03
 -1       414 3.75985E+01-4.46466E+01 1.73132E+03
 -1       415-5.34316E+01-2.87007E+00 1.67147E+03
 -1       416-4.42437E+01-2.89673E+01 1.51516E+03
 -1       417-3.99081E+01-4.50479E+01 1.28344E+03
 -1       418-5.49873E+01-5.25686E+01 9.78687E+02
 -1       419-6.84505E+01-5.63023E+01 6.12672E+02
 -1       420-7.14076E+01-6.00579E+01 1.96020E+02
 -1       421-7.14876E+01-5.92248E+01-2.56591E+02
 -1       422-9.23246E+01-8.40989E+01-7.29703E+02
 -1       423-8.61166E+01-6.39970E+01-1.21691E+03
 -1       424 8.33997E+02 9.65084E+01-1.18136E+04
 -1       425 7.22434E+02 1.89538E+02-7.18706E+03
 -1       426 5.62593E+02 1.74266E+02-3.36807E+03
 -1       427 2.91496E+02 5.75240E+01-8.78901E+02
 -1       428 0.00000E+00 0.00000E+00 0.00000E+00
 -1       429 0.00000E+00 0.00000E+00 0.00000E+00
 -1       430-4.51784E+03-3.38563E+02-2.84244E+04
 -1       431-4.96872E+03-1.76173E+03-8.47425E+04
 -1       432-4.86461E+01 2.27682E+00 1.81402E+03
 -1       433-3.97229E+01-1.43586E+01 1.52758E+03
 -1       434-5.18022E+01-4.02193E+01 1.03609E+03
 -1       435-7.23191E+01-5.20908E+01 2.88773E+02
 -1       436-8.15705E+01-5.94986E+01-6.40404E+02
 -1       437-8.48879E+01-6.05952E+01-1.65577E+03
 -1       438 3.64666E+02 1.52204E+02-2.26939E+03
 -1       439 0.00000E+00 0.00000E+00 0.00000E+00
 -1       440 0.00000E+00 0.00000E+00 0.00000E+00
 -1       441-2.57395E+03 3.55896E+01-7.93892E+03
 -1       442-4.73816E+03-4.64188E+01-2.95950E+04
 -1       443-5.43870E+03-3.75475E+02-5.95758E+04
 -1       444-5.89438E+03-9.78927E+02-9.28836E+04
 -1       445-1.72950E+01-2.80663E+01 1.82676E+03
 -1       446-3.84708E+01-5.10023E+00 1.62338E+03
 -1       447-4.10095E+01-2.49601E+01 1.40046E+03
 -1       448-5.02616E+01-2.93716E+01 1.13561E+03
 -1       449-6.01297E+01-3.43157E+01 8.12904E+02
 -1       450-6.92617E+01-4.06861E+01 4.28916E+02
 -1       451-7.70646E+01-4.73332E+01-7.28984E+00
 -1       452-8.35455E+01-5.22670E+01-4.84617E+02
 -1       453-8.83920E+01-5.75113E+01-9.91405E+02
 -1       454-8.95048E+01-5.76182E+01-1.51549E+03
 -1       455-9.75652E+01-6.41804E+01-2.04938E+03
 -1       456 2.12810E+02 9.57947E+01-1.39707E+03
 -1       457 1.23501E+02 2.73228E+01-4.05944E+02
 -1       458 0.00000E+00 0.00000E+00 0.00000E+00
 -1       459 0.00000E+00 0.00000E+00 0.00000E+00
 -1       460-4.82549E+03-1.79140E+02-3.01928E+04
 -1       461-3.72168E+01-8.54210E+00 1.80717E+03
 -1       462-4.49272E+01-1.62902E+01 1.28769E+03
 -1       463-6.76994E+01-3.03027E+01 6.16645E+02
 -1       464-8.17408E+01-4.09059E+01-2.69435E+02
 -1       465-9.15144E+01-4.91462E+01-1.30188E+03
 -1       466-9.62330E+01-5.24729E+01-2.39887E+03
 -1       467 1.68766E+02 4.18135E+01-1.07267E+03
 -1       468 0.00000E+00 0.00000E+00 0.00000E+00
 -1       469 0.00000E+00 0.00000E+00 0.00000E+00
 -1       470-2.77563E+03-1.28172E+02-8.47063E+03
 -1       471-5.18461E+03-2.53451E+02-3.19627E+04
 -1       472-6.17137E+03 1.06263E+02-6.55872E+04
 -1       473-6.81869E+03 7.72810E+02-1.03782E+05
 -1       474-2.53672E+01 1.34671E+01 1.77226E+03
 -1       475-5.28980E+01-1.95669E+01 1.48989E+03
 -1       476-5.33961E+01-6.80334E+00 1.19180E+03
 -1       477-6.24897E+01-1.74757E+01 8.49622E+02
 -1       478-7.28298E+01-2.56919E+01 4.53287E+02
 -1       479-8.05411E+01-3.08858E+01 1.75445E+00
 -1       480-8.65359E+01-3.41759E+01-4.94297E+02
 -1       481-9.09065E+01-3.83876E+01-1.02170E+03
 -1       482-9.34222E+01-4.03074E+01-1.56877E+03
 -1       483-9.74387E+01-4.45839E+01-2.12655E+03
 -1       484-9.54649E+01-4.02618E+01-2.69217E+03
 -1       485 2.16551E+02 6.80405E+01-3.22971E+03
 -1       486 1.98484E+02 5.66055E+01-2.01705E+03
 -1       487 1.55740E+02 1.26930E+01-9.45772E+02
 -1       488 8.12842E+01 3.43293E+00-2.50356E+02
 -1       489 0.00000E+00 0.00000E+00 0.00000E+00
 -1       490 0.00000E+00 0.00000E+00 0.00000E+00
 -1       491-5.08256E+03 2.12742E+02-3.18884E+04
 -1       492-5.75135E+03 1.74322E+03-9.62599E+04
 -1       493-7.68393E+01-3.29857E+01 1.71353E+03
 -1       494-6.89963E+01-2.33101E+01 1.12114E+03
 -1       495-7.59288E+01-1.75144E+01 3.25001E+02
 -1       496-9.12476E+01-2.94889E+01-6.79599E+02
 -1       497-9.60758E+01-3.52224E+01-1.78958E+03
 -1       498-1.03488E+02-3.81341E+01-2.92702E+03
 -1       499 2.07899E+02 1.33241E+02-2.65706E+03
 -1       500 1.18727E+02 5.54643E+01-7.30202E+02
 -1       501 0.00000E+00 0.00000E+00 0.00000E+00
 -1       502 0.00000E+00 0.00000E+00 0.00000E+00
 -1       503-2.58376E+03 1.66860E+02-7.96402E+03
 -1       504-4.63595E+03 6.14735E+02-2.95480E+04
 -1       505-4.57496E+03 1.60898E+03-5.66406E+04
 -1       506-4.12485E+03 3.04349E+03-8.21816E+04
 -1       507-1.86220E+03 4.76699E+03-9.98234E+04
 -1       508-2.76270E+02 6.53105E+03-1.06503E+05
 -1       509-3.58099E+01-3.80311E+01 1.69002E+03
 -1       510 6.57801E+00 5.68027E+01 1.40255E+03
 -1       511-1.01598E+02-4.24430E+01 1.08800E+03
 -1       512-8.75473E+01-1.68574E+01 6.93770E+02
 -1       513-7.62524E+01-1.00083E+01 2.33857E+02
 -1       514-8.66126E+01-1.59475E+01-2.80577E+02
 -1       515-9.49214E+01-2.50397E+01-8.30098E+02
 -1       516-9.81868E+01-2.79228E+01-1.39738E+03
 -1       517-1.00828E+02-3.29655E+01-1.96990E+03
 -1       518-9.02733E+01-2.02855E+01-2.52736E+03
 -1       519-9.80787E+01-3.21870E+01-3.09477E+03
 -1       520 3.07650E+02 3.09070E+02-4.66210E+03
 -1       521 2.60561E+02 3.01128E+02-2.99996E+03
 -1       522 1.87129E+02 2.30306E+02-1.63230E+03
 -1       523 1.12480E+02 1.67999E+02-7.80694E+02
 -1       524 5.24371E+01 9.45381E+01-3.10035E+02
 -1       525 2.80023E+01 2.76308E+01-6.42532E+01
 -1       526 0.00000E+00 0.00000E+00 0.00000E+00
 -1       527 0.00000E+00 0.00000E+00 0.00000E+00
 -1       528-3.86481E+03 8.89319E+02-2.50852E+04
 -1       529-2.53084E+03 3.16223E+03-6.39676E+04
 -1       530 1.25352E+03 5.90820E+03-6.96909E+04
 -1       531-1.80422E+01 1.63582E+02 1.58816E+03
 -1       532-9.38642E+00 6.47773E+01 1.10720E+03
 -1       533-9.61996E+01-1.33871E+01 1.73753E+02
 -1       534-9.64936E+01-1.86318E+01-9.55350E+02
 -1       535-9.15211E+01-1.67284E+01-2.10687E+03
 -1       536-8.71098E+01-5.72402E+00-3.19186E+03
 -1       537 3.29073E+02 3.73098E+02-2.70754E+03
 -1       538 1.23756E+02 3.22395E+02-2.20710E+01
 -1       539-5.13429E+01 1.31367E+02 3.54764E+02
 -1       540 0.00000E+00 0.00000E+00 0.00000E+00
 -1       541 0.00000E+00 0.00000E+00 0.00000E+00
 -1       542-1.70178E+03 3.23134E+02-5.31144E+03
 -1       543-2.96502E+03 1.08821E+03-1.91628E+04
 -1       544-2.27462E+03 2.12633E+03-3.48065E+04
 -1       545-1.24288E+03 3.24000E+03-4.49315E+04
 -1       546 8.00729E+02 4.36211E+03-4.64915E+04
 -1       547 3.09980E+03 4.88557E+03-3.61954E+04
 -1       548 3.14104E+03 2.91524E+03-1.42173E+04
 -1       549 9.08963E+02 9.70952E+02 1.77497E+03
 -1       550 1.01546E+02 4.24158E+01 1.63419E+03
 -1       551-1.04143E+02 2.22677E+01 1.15459E+03
 -1       552-1.05815E+02-2.38202E+01 6.87976E+02
 -1       553-6.71426E+01 1.87040E+01 1.29359E+02
 -1       554-8.71208E+01-9.39619E+00-4.57807E+02
 -1       555-9.98708E+01-1.85209E+01-1.06554E+03
 -1       556-1.01751E+02-2.91558E+01-1.66881E+03
 -1       557-9.85357E+01-2.16087E+01-2.24253E+03
 -1       558-8.18041E+01-1.27903E+01-2.76031E+03
 -1       559-7.28452E+00 9.12584E+01-3.21526E+03
 -1       560 2.49529E+02 4.09234E+02-2.12942E+03
 -1       561 3.65798E+02 4.78394E+02-3.13814E+02
 -1       562 2.06749E+02 4.58857E+02 1.36782E+03
 -1       563 4.66060E+01 3.96520E+02 2.10518E+03
 -1       564-7.11055E+01 3.08704E+02 2.00328E+03
 -1       565-1.81887E+02 1.73786E+02 1.24438E+03
 -1       566-1.07954E+02 5.39380E+01 3.66697E+02
 -1       567 0.00000E+00 0.00000E+00 0.00000E+00
 -1       568 0.00000E+00 0.00000E+00 0.00000E+00
 -1       569-2.00712E+03 1.10227E+03-1.29260E+04
 -1       570-1.11793E+02 3.04656E+03-2.66043E+04
 -1       571 2.60986E+03 3.64714E+03-1.16751E+04
 -1       572 2.10483E+03 3.14368E+03 1.76641E+04
 -1       573 2.71713E+02 3.89700E+02-1.32333E+03
 -1       574 3.43937E+02 4.68969E+02 2.53975E+03
 -1       575 4.90425E-01 4.66880E+02 4.59501E+03
 -1       576-3.50740E+02 2.14043E+02 2.36965E+03
 -1       577 0.00000E+00 0.00000E+00 0.00000E+00
 -1       578 0.00000E+00 0.00000E+00 0.00000E+00
 -1       579-6.03157E+02 3.96368E+02-1.46270E+03
 -1       580-1.19487E+03 1.15998E+03-6.34454E+03
 -1       581-4.11641E+02 1.87368E+03-1.10800E+04
 -1       582 6.53510E+02 2.60698E+03-1.02524E+04
 -1       583 1.61436E+03 3.13112E+03-3.56711E+03
 -1       584 2.32590E+03 3.10575E+03 7.85912E+03
 -1       585 2.50387E+03 2.93276E+03 2.20048E+04
 -1       586 3.38964E+03 3.01913E+03 3.89256E+04
 -1       587 4.15198E+03 1.04895E+03 6.27987E+04
 -1       588 4.51656E+03-3.26258E+02 8.85865E+04
 -1       589 1.27408E+02 2.70575E+02-8.61187E+02
 -1       590 1.95169E+02 3.62996E+02 2.49221E+01
 -1       591 3.06396E+02 4.78129E+02 1.32998E+03
 -1       592 3.31254E+02 4.61145E+02 3.29313E+03
 -1       593 3.50707E+02 4.72012E+02 5.21976E+03
 -1       594 1.92058E+02 4.88986E+02 6.86344E+03
 -1       595-5.46360E+00 5.38370E+02 7.48869E+03
 -1       596-3.18270E+02 4.24734E+02 6.31611E+03
 -1       597-5.29306E+02 2.43946E+02 3.69973E+03
 -1       598-3.17159E+02 7.22219E+01 1.09504E+03
 -1       599 0.00000E+00 0.00000E+00 0.00000E+00
 -1       600 1.24964E+03 2.38879E+03 4.27226E+03
 -1       601 1.90533E+03 1.96049E+03 2.27818E+04
 -1       602 2.69382E+03 7.13352E+02 4.88579E+04
 -1       603 3.13302E+03-1.61016E+03 8.24993E+04
 -1       604 1.92523E+02 1.84430E+02 4.50323E+02
 -1       605 3.21307E+02 2.34865E+02 3.39253E+03
 -1       606 3.77997E+02 2.70747E+02 7.45001E+03
 -1       607 1.87222E+02 5.14912E+02 1.06990E+04
 -1       608 1.26490E+03 2.43818E+03 1.82168E+04
 -1       609 1.04550E+03 1.75060E+03 2.46555E+04
 -1       610 1.03233E+03 5.15329E+02 3.01861E+04
 -1       611 1.48872E+03-3.35922E+02 3.75649E+04
 -1       612 1.64973E+03-1.35851E+03 4.68470E+04
 -1       613 1.74073E+03-2.26986E+03 5.68468E+04
 -1       614 2.04545E+03-3.42663E+03 6.78907E+04
 -1       615 1.85833E+02 5.66572E+01 1.17985E+03
 -1       616 2.48088E+02 3.20408E+01 2.42992E+03
 -1       617 3.03305E+02-5.08304E+00 4.04930E+03
 -1       618 3.74851E+02-7.79493E+00 6.00045E+03
 -1       619 4.57150E+02 2.17471E+01 8.38785E+03
 -1       620 4.37630E+02 2.54616E+02 1.11527E+04
 -1       621 4.22922E+02 5.03636E+02 1.37582E+04
 -1       622 5.55937E+02-1.31579E+03 2.74096E+04
 -1       623 8.83986E+02-2.27328E+03 3.61632E+04
 -1       624 7.14358E+02-3.97596E+03 4.51926E+04
 -1       625 1.51104E+02-4.87360E+01 1.18021E+03
 -1       626 2.52564E+02-1.67965E+02 3.51861E+03
 -1       627 3.72058E+02-3.55194E+02 7.18072E+03
 -1       628 4.11073E+02-2.52406E+03 1.57166E+04
 -1       629 3.80843E+02-2.75345E+03 1.80375E+04
 -1       630 4.26802E+02-3.06492E+03 2.02734E+04
 -1       631 8.19637E+01-3.41841E+03 2.18931E+04
 -1       632-4.86382E+02-3.59940E+03 2.12493E+04
 -1       633-9.53788E+02-2.43070E+03 1.53288E+04
 -1       634-1.01583E+03-1.33225E+03 8.67553E+03
 -1       635-5.94750E+02-6.52816E+02 4.19996E+03
 -1       636-2.29940E+02-2.23495E+02 1.45028E+03
 -1       637-6.39958E+01-1.12718E+02 7.06443E+02
 -1       638 8.25369E+01-1.09922E+02 7.14458E+02
 -1       639 1.15302E+02-1.99745E+02 1.31165E+03
 -1       640 1.49209E+02-3.13244E+02 2.08644E+03
 -1       641 1.85621E+02-4.55644E+02 3.05388E+03
 -1       642 2.11750E+02-6.12063E+02 4.20724E+03
 -1       643 1.83156E+02-1.38878E+03 4.23893E+03
 -1       644 1.14508E+02-1.80578E+03 5.66465E+03
 -1       645-2.01427E+02-1.86439E+03 5.44657E+03
 -1       646-2.88418E+02-7.74196E+02 2.45055E+03
 -1       647-7.81955E+01-1.18335E+02 5.07207E+02
 -1       648 2.39667E+01-6.26626E+01 2.15465E+02
 -1       649 4.66162E+01-1.82233E+02 5.97681E+02
 -1       650 6.10836E+01-3.63526E+02 1.22926E+03
 -1       651 0.00000E+00 0.00000E+00 0.00000E+00
 -1       652 0.00000E+00 0.00000E+00 0.00000E+00
 -1       653 0.00000E+00 0.00000E+00 0.00000E+00
 -1       654 0.00000E+00 0.00000E+00 0.00000E+00
 -1       655 0.00000E+00 0.00000E+00 0.00000E+00
 -1       656 0.00000E+00 0.00000E+00 0.00000E+00
 -1       657 0.00000E+00 0.00000E+00 0.00000E+00
 -1       658 0.00000E+00 0.00000E+00 0.00000E+00
 -1       659 0.00000E+00 0.00000E+00 0.00000E+00
 -1       660 0.00000E+00 0.00000E+00 0.00000E+00
 -1       661 0.00000E+00 0.00000E+00 0.00000E+00
 -1       662 0.00000E+00 0.00000E+00 0.00000E+00
 -1       663 0.00000E+00 0.00000E+00 0.00000E+00
 -1       664 0.00000E+00 0.00000E+00 0.00000E+00
 -1       665 0.00000E+00 0.00000E+00 0.00000E+00
 -1       666 0.00000E+00 0.00000E+00 0.00000E+00
 -1       667 0.00000E+00 0.00000E+00 0.00000E+00
 -1       668 0.00000E+00 0.00000E+00 0.00000E+00
 -1       669 0.00000E+00 0.00000E+00 0.00000E+00
 -1       670 0.00000E+00 0.00000E+00 0.00000E+00
 -1       671 0.00000E+00 0.00000E+00 0.00000E+00
 -1       672 0.00000E+00 0.00000E+00 0.00000E+00
 -1       673 0.00000E+00 0.00000E+00 0.00000E+00
 -1       674 1.09102E-10 1.13142E-10 1.40124E+04
 -1       675 1.29958E-10 1.26826E-10 1.64517E+04
 -1       676 1.07036E-10 6.24985E-11 1.81433E+04
 -1       677 4.09099E-11 4.69557E-12 1.59477E+04
 -1       678 2.52544E-11 4.14172E-11 1.11515E+04
 -1       679 3.02128E-11 9.44405E-12 8.37289E+03
 -1       680 1.12527E-11-7.61301E-12 4.25587E+03
 -1       681 2.33930E-11-2.38153E-11-5.54012E+02
 -1       682 1.94373E-10-5.89097E-12 1.82422E+04
 -1       683 1.69508E-10 1.10003E-10 2.66218E+04
 -1       684 1.71173E-10 1.50309E-10 3.98960E+04
 -1       685 2.38060E-10 1.37029E-10 5.40893E+04
 -1       686 1.18829E-10 3.73301E-11 5.62572E+04
 -1       687 1.65971E-10 1.09578E-10 3.29553E+04
 -1       688 7.35868E-11-2.48105E-11 2.33309E+04
 -1       689 4.68720E-11-3.72677E-11 1.03550E+04
 -1       690 6.26023E-11-2.44839E-11-1.66671E+03
 -1       691 4.07408E-11 7.25243E-12-1.21146E+04
 -1       692 0.00000E+00 0.00000E+00 0.00000E+00
 -1       693 1.53497E-12-5.98868E-11-4.58007E+03
 -1       694 8.20932E-11 2.17336E-12-7.24969E+03
 -1       695 1.27735E-10 1.08899E-10 7.19469E+03
 -1       696 1.71959E-10 2.21784E-10 2.80057E+04
 -1       697 3.63590E-11-9.53135E-12 3.01754E+04
 -1       698 3.83492E-11-5.10987E-11 8.86033E+03
 -1       699 3.74117E-11-2.08480E-11-4.74587E+03
 -1       700 2.75469E-13 5.03260E-12-1.14181E+04
 -1       701 1.79973E-11-4.71878E-12-5.87655E+03
 -1       702 0.00000E+00 0.00000E+00 0.00000E+00
 -1       703 0.00000E+00 0.00000E+00 0.00000E+00
 -1       704-4.79652E-11-4.50750E-11-1.60466E+04
 -1       705-9.70384E-11-1.08528E-11-3.78742E+04
 -1       706-3.08330E-11 2.94408E-11-3.07443E+04
 -1       707 2.17237E-11 3.22696E-10 1.58668E+03
 -1       708 2.03855E-11 2.53048E-10 2.00932E+03
 -1       709 2.58876E-11 1.32739E-10 1.83328E+03
 -1       710 2.46335E-11 1.84309E-11 1.31398E+03
 -1       711 2.07789E-11-1.04895E-10 5.79486E+02
 -1       712 6.76521E-12-1.88772E-10-2.20398E+02
 -1       713-8.45517E-12-1.72299E-11-8.60357E+03
 -1       714 3.87951E-12-1.88929E-11-1.17383E+04
 -1       715 1.67319E-11-9.02027E-12-4.80689E+03
 -1       716 0.00000E+00 0.00000E+00 0.00000E+00
 -1       717 0.00000E+00 0.00000E+00 0.00000E+00
 -1       718-4.08548E-11-6.32023E-11-2.56980E+04
 -1       719-8.16414E-11-8.63437E-11-7.13928E+04
 -1       720-5.25425E-11-2.36943E-11-9.16043E+04
 -1       721 1.36588E-10 3.76156E-10 1.78180E+03
 -1       722 1.40891E-10 2.46501E-10 1.67198E+03
 -1       723 1.41887E-10 1.32362E-10 1.28359E+03
 -1       724 1.45832E-10 1.58976E-11 6.12826E+02
 -1       725 1.42170E-10-1.02395E-10-2.56550E+02
 -1       726 1.38296E-10-2.21992E-10-1.21793E+03
 -1       727-4.41865E-12-4.43489E-11-1.18150E+04
 -1       728-1.94720E-12-2.08682E-12-3.35782E+03
 -1       729 0.00000E+00 0.00000E+00 0.00000E+00
 -1       730 0.00000E+00 0.00000E+00 0.00000E+00
 -1       731-1.73303E-11 1.34671E-11-2.95022E+04
 -1       732 2.05144E-10-3.40682E-10-9.29349E+04
 -1       733 2.74624E-10 3.77471E-10 1.82727E+03
 -1       734 2.72386E-10 2.50403E-10 1.40064E+03
 -1       735 2.74107E-10 1.35556E-10 8.13082E+02
 -1       736 2.68323E-10 2.02353E-11-7.23104E+00
 -1       737 2.67744E-10-9.99527E-11-9.91560E+02
 -1       738 2.71582E-10-2.30639E-10-2.04918E+03
 -1       739-5.87685E-13 2.54679E-12-1.38933E+03
 -1       740 0.00000E+00 0.00000E+00 0.00000E+00
 -1       741 0.00000E+00 0.00000E+00 0.00000E+00
 -1       742-1.21434E-10-1.00394E-10-3.18633E+04
 -1       743-4.42197E-10-6.49715E-10-1.03836E+05
 -1       744 4.03561E-10 3.76857E-10 1.77271E+03
 -1       745 4.05351E-10 2.59858E-10 1.19197E+03
 -1       746 3.98660E-10 1.42648E-10 4.53412E+02
 -1       747 4.01977E-10 2.41441E-11-4.94389E+02
 -1       748 4.04771E-10-9.43856E-11-1.56874E+03
 -1       749 4.03327E-10-2.22920E-10-2.69328E+03
 -1       750-3.22870E-11 8.72065E-11-3.23208E+03
 -1       751-8.28753E-12 1.55642E-11-9.43451E+02
 -1       752 0.00000E+00 0.00000E+00 0.00000E+00
 -1       753 0.00000E+00 0.00000E+00 0.00000E+00
 -1       754 1.00687E-10-1.70572E-10-2.95006E+04
 -1       755 1.18722E-10-4.54890E-10-8.22628E+04
 -1       756-2.51476E-10-8.08859E-10-1.06547E+05
 -1       757 5.24929E-10 3.62945E-10 1.68589E+03
 -1       758 5.28210E-10 2.62765E-10 1.08827E+03
 -1       759 5.14479E-10 1.48483E-10 2.33749E+02
 -1       760 5.18158E-10 3.01962E-11-8.29873E+02
 -1       761 5.25389E-10-9.74538E-11-1.97090E+03
 -1       762 5.18932E-10-2.00549E-10-3.09178E+03
 -1       763 2.10363E-11 1.96746E-10-4.66228E+03
 -1       764 2.88949E-11 8.78549E-11-1.63333E+03
 -1       765 1.85187E-11 2.65907E-11-3.09628E+02
 -1       766 0.00000E+00 0.00000E+00 0.00000E+00
 -1       767 0.00000E+00 0.00000E+00 0.00000E+00
 -1       768 1.06906E-10-1.55402E-10-1.91333E+04
 -1       769 2.38931E-10-3.22176E-10-4.49996E+04
 -1       770 3.65006E-10-3.68099E-10-3.62138E+04
 -1       771 5.71988E-10 3.20328E-10 1.77672E+03
 -1       772 6.22389E-10 2.59764E-10 1.15787E+03
 -1       773 6.32374E-10 1.54718E-10 1.29367E+02
 -1       774 6.37338E-10 3.56489E-11-1.06629E+03
 -1       775 6.21759E-10-9.15606E-11-2.23940E+03
 -1       776 5.36719E-10-1.55916E-10-3.22895E+03
 -1       777 1.94545E-10 1.69129E-10-3.13086E+02
 -1       778 1.11249E-10 1.11581E-10 2.10923E+03
 -1       779 5.36037E-11 3.66749E-11 1.24209E+03
 -1       780 0.00000E+00 0.00000E+00 0.00000E+00
 -1       781 0.00000E+00 0.00000E+00 0.00000E+00
 -1       782 1.99576E-10-2.35977E-10-6.34329E+03
 -1       783 1.79227E-10-3.98294E-10-1.02792E+04
 -1       784 7.77180E-11-1.97984E-10 7.87180E+03
 -1       785 1.62804E-11 1.53970E-10 3.89581E+04
 -1       786 3.06451E-10 4.01816E-10 8.86249E+04
 -1       787 1.11774E-10-5.78507E-11-8.60086E+02
 -1       788 1.38423E-10 1.93769E-12 1.33236E+03
 -1       789 1.47044E-10 1.46461E-10 5.22489E+03
 -1       790 1.66007E-10 1.88216E-10 7.49873E+03
 -1       791 1.00090E-10 5.80481E-11 3.69557E+03
 -1       792 0.00000E+00 0.00000E+00 0.00000E+00
 -1       793-1.48699E-10-4.34849E-10 1.82216E+04
 -1       794-1.16445E-10-9.59996E-11 3.02424E+04
 -1       795-1.65420E-11 8.07916E-11 4.69121E+04
 -1       796 6.82771E-11 3.11793E-10 6.79392E+04
 -1       797 4.79820E-11-5.13983E-11 1.18272E+03
 -1       798 5.48069E-11 4.12427E-12 4.05650E+03
 -1       799 3.39807E-11 9.47732E-11 8.39988E+03
 -1       800 6.73806E-11 2.55937E-10 1.37579E+04
 -1       801-4.52471E-11 5.18713E-11 1.57010E+04
 -1       802-4.59619E-11 5.89796E-11 2.02488E+04
 -1       803 1.29605E-12 1.19982E-10 2.11992E+04
 -1       804-8.85131E-12 1.69587E-12 8.63227E+03
 -1       805-3.55966E-12 3.78199E-12 1.44004E+03
 -1       806-8.82147E-13-1.40143E-11 7.11589E+02
 -1       807-2.89159E-12 5.63104E-12 2.08342E+03
 -1       808 9.94908E-12 3.68256E-11 4.20264E+03
 -1       809 0.00000E+00 0.00000E+00 0.00000E+00
 -1       810 0.00000E+00 0.00000E+00 0.00000E+00
 -1       811 0.00000E+00 0.00000E+00 0.00000E+00
 -1       812 0.00000E+00 0.00000E+00 0.00000E+00
 -1       813 0.00000E+00 0.00000E+00 0.00000E+00
 -1       814 0.00000E+00 0.00000E+00 0.00000E+00
 -1       815 0.00000E+00 0.00000E+00 0.00000E+00
 -1       816 0.00000E+00 0.00000E+00 0.00000E+00
 -1       817 0.00000E+00 0.00000E+00 0.00000E+00
 -1       818 0.00000E+00 0.00000E+00 0.00000E+00
 -1       819 0.00000E+00 0.00000E+00 0.00000E+00
 -1       820 0.00000E+00 0.00000E+00 0.00000E+00
 -1       821 0.00000E+00 0.00000E+00 0.00000E+00
 -1       822 0.00000E+00 0.00000E+00 0.00000E+00
 -1       823 0.00000E+00 0.00000E+00 0.00000E+00
 -1       824 0.00000E+00 0.00000E+00 0.00000E+00
 -1       825 0.00000E+00 0.00000E+00 0.00000E+00
 -1       826 0.00000E+00 0.00000E+00 0.00000E+00
 -1       827 0.00000E+00 0.00000E+00 0.00000E+00
 -1       828 0.00000E+00 0.00000E+00 0.00000E+00
 -1       829 0.00000E+00 0.00000E+00 0.00000E+00
 -1       830 0.00000E+00 0.00000E+00 0.00000E+00
 -1       831 0.00000E+00 0.00000E+00 0.00000E+00
 -1       832-1.01239E+02-1.26362E+03 3.82057E+03
 -1       833-5.34542E+01-1.45161E+03 4.58423E+03
 -1       834-1.17674E+01-1.58003E+03 4.85726E+03
 -1       835 1.55691E+02-1.38793E+03 4.18097E+03
 -1       836 4.62308E+01-9.76811E+02 3.07641E+03
 -1       837 8.53390E+01-7.29255E+02 2.27118E+03
 -1       838 1.18861E+02-3.81343E+02 1.17008E+03
 -1       839 1.42186E+02 3.25837E+01-2.65678E+02
 -1       840-2.09835E+02-2.24286E+03 1.40230E+04
 -1       841-2.07057E+02-2.32519E+03 1.52596E+04
 -1       842-2.16578E+02-2.56026E+03 1.64821E+04
 -1       843-1.28549E+02-2.74488E+03 1.75167E+04
 -1       844-4.47147E+01-2.87007E+03 1.81783E+04
 -1       845 1.78520E+02-2.85027E+03 1.76955E+04
 -1       846 4.41367E+02-2.65930E+03 1.60014E+04
 -1       847 3.69543E+02-2.11685E+03 1.31974E+04
 -1       848 2.23587E+02-1.74726E+03 1.11870E+04
 -1       849 2.46290E+02-1.56254E+03 9.89387E+03
 -1       850 2.83654E+02-1.32426E+03 8.38681E+03
 -1       851 3.51287E+02-1.00674E+03 6.49843E+03
 -1       852 4.00858E+02-6.66098E+02 4.26278E+03
 -1       853 4.17030E+02-3.09611E+02 1.92979E+03
 -1       854 4.37340E+02 3.46997E+00-5.55760E+02
 -1       855-2.52324E+02-1.10408E+03 2.43355E+04
 -1       856-7.03583E+02-2.01836E+03 3.00486E+04
 -1       857-2.33381E+02-3.08265E+03 3.54497E+04
 -1       858 3.82279E+02-3.48578E+03 3.43775E+04
 -1       859 3.55741E+02-1.87021E+03 2.17391E+04
 -1       860 6.58076E+02-1.30038E+03 1.61020E+04
 -1       861 7.61990E+02-5.38615E+02 7.85778E+03
 -1       862 7.17091E+02 7.32796E+01-8.39977E+02
 -1       863-9.31986E+02 2.14181E+03 1.82372E+04
 -1       864-7.29658E+02 1.57378E+03 2.28231E+04
 -1       865-6.90953E+02 5.07156E+02 2.65779E+04
 -1       866-1.16177E+03-2.91083E+02 3.18972E+04
 -1       867-1.50663E+03-1.19277E+03 3.98349E+04
 -1       868-1.15529E+03-2.44498E+03 4.81674E+04
 -1       869-6.78537E+02-3.29653E+03 5.40640E+04
 -1       870-1.60962E+02-3.70403E+03 5.64444E+04
 -1       871 2.59741E+02-3.96257E+03 5.62403E+04
 -1       872 5.71565E+02-1.94199E+03 3.29344E+04
 -1       873 8.02632E+02-1.64522E+03 2.88952E+04
 -1       874 1.09807E+03-1.14881E+03 2.33095E+04
 -1       875 1.10261E+03-6.94413E+02 1.68649E+04
 -1       876 1.10550E+03-3.30489E+02 1.03408E+04
 -1       877 1.04782E+03-2.18715E+01 4.08754E+03
 -1       878 9.53806E+02 1.59736E+02-1.66739E+03
 -1       879 8.69972E+02 1.68936E+02-7.07293E+03
 -1       880 8.50211E+02 4.02444E+01-1.21123E+04
 -1       881-9.68308E+02 2.13867E+03 5.77750E+03
 -1       882-1.44649E+03 1.66611E+03 1.99560E+04
 -1       883-2.03158E+03 1.05133E+03 3.95983E+04
 -1       884 1.56402E+03-5.30592E+02 2.82361E+04
 -1       885 1.38886E+03 1.41162E+02 1.09609E+04
 -1       886 1.01516E+03 2.80329E+02-2.94008E+03
 -1       887 5.63174E+02-4.42675E+01-1.19902E+04
 -1       888 0.00000E+00 0.00000E+00 0.00000E+00
 -1       889 4.42423E+02 3.48025E+02-1.00728E+03
 -1       890 9.02919E+02 1.02981E+03-4.58116E+03
 -1       891 2.92268E+02 1.66986E+03-8.09113E+03
 -1       892-5.43713E+02 2.31648E+03-7.22799E+03
 -1       893-1.28887E+03 2.71239E+03-1.79802E+03
 -1       894-1.82424E+03 2.67860E+03 7.17488E+03
 -1       895-1.64204E+03 2.61350E+03 1.74240E+04
 -1       896-1.90656E+03 2.97495E+03 2.79865E+04
 -1       897 1.99816E+03-9.58640E+01 3.01653E+04
 -1       898 1.80220E+03 2.57034E+02 1.89504E+04
 -1       899 1.48221E+03 6.80681E+02 8.85731E+03
 -1       900 1.15576E+03 4.89775E+02 1.28252E+03
 -1       901 9.44566E+02 3.56858E+02-4.73674E+03
 -1       902 5.72475E+02 1.85675E+02-9.21741E+03
 -1       903 1.39519E+02-9.21884E+01-1.13993E+04
 -1       904-4.81032E+02-1.84621E+02-1.01593E+04
 -1       905-9.05674E+02-9.29415E+01-5.88181E+03
 -1       906-5.18872E+02-1.57806E+01-1.64257E+03
 -1       907 0.00000E+00 0.00000E+00 0.00000E+00
 -1       908 0.00000E+00 0.00000E+00 0.00000E+00
 -1       909 1.62890E+03 9.91049E+02-1.04611E+04
 -1       910 1.00247E+02 2.67871E+03-2.16134E+04
 -1       911-2.07629E+03 3.20620E+03-9.71984E+03
 -1       912-1.33021E+03 2.29964E+03 1.16447E+04
 -1       913 8.69330E+02 7.27195E+02 3.73814E+03
 -1       914 8.62131E+02 2.86471E+02-6.67894E+03
 -1       915-1.22496E+02 3.35739E+01-1.12363E+04
 -1       916-8.10110E+02-9.48201E+01-5.34484E+03
 -1       917 0.00000E+00 0.00000E+00 0.00000E+00
 -1       918 0.00000E+00 0.00000E+00 0.00000E+00
 -1       919 1.42866E+03 2.90298E+02-4.45186E+03
 -1       920 2.48804E+03 9.80086E+02-1.60717E+04
 -1       921 1.92014E+03 1.90998E+03-2.92250E+04
 -1       922 1.07313E+03 2.88481E+03-3.78192E+04
 -1       923-6.58513E+02 3.77507E+03-3.92618E+04
 -1       924-2.60380E+03 4.13624E+03-3.07274E+04
 -1       925-2.61417E+03 2.30941E+03-1.21209E+04
 -1       926-7.92894E+02 5.53816E+02 1.58026E+03
 -1       927-1.34167E+02 2.90141E+01 1.96228E+03
 -1       928 3.98294E+01 4.07777E+01 2.00757E+03
 -1       929 4.67477E+01 3.07264E+01 1.98380E+03
 -1       930 2.10983E+01 6.40813E+01 1.83302E+03
 -1       931 4.63643E+01 5.95836E+01 1.61010E+03
 -1       932 6.74191E+01 6.67995E+01 1.31381E+03
 -1       933 6.45249E+01 6.14567E+01 9.66004E+02
 -1       934 6.60921E+01 7.62387E+01 5.78896E+02
 -1       935 1.01830E+02 8.54116E+01 1.99144E+02
 -1       936 2.42116E+02 2.80155E+02-2.20605E+02
 -1       937 7.37521E+02 2.87368E+02-3.58795E+03
 -1       938 8.94247E+02 3.53714E+02-8.59552E+03
 -1       939 2.81776E+02 3.12884E+02-1.19495E+04
 -1       940-3.88409E+02 1.04615E+02-1.17203E+04
 -1       941-5.91075E+02-6.66403E+01-8.75852E+03
 -1       942-7.41462E+02-8.92131E+01-4.81507E+03
 -1       943-4.25006E+02-3.04628E+01-1.33853E+03
 -1       944 0.00000E+00 0.00000E+00 0.00000E+00
 -1       945 0.00000E+00 0.00000E+00 0.00000E+00
 -1       946 3.31404E+03 8.27564E+02-2.14806E+04
 -1       947 2.15801E+03 2.84471E+03-5.47934E+04
 -1       948-1.09367E+03 5.12286E+03-5.94741E+04
 -1       949-3.87243E+01 9.88072E+01 1.63387E+03
 -1       950-3.73130E+01 6.17327E+01 1.82148E+03
 -1       951 4.55814E+01 4.51713E+01 1.55208E+03
 -1       952 5.79835E+01 6.04646E+01 9.55056E+02
 -1       953 8.37720E+01 8.35399E+01 1.58316E+02
 -1       954 8.27870E+01 1.10536E+02-7.61170E+02
 -1       955-6.59661E+02-7.48999E+00-1.20452E+04
 -1       956-6.62626E+02-1.24070E+02-4.19231E+03
 -1       957 0.00000E+00 0.00000E+00 0.00000E+00
 -1       958 0.00000E+00 0.00000E+00 0.00000E+00
 -1       959 2.24635E+03 1.70574E+02-6.95325E+03
 -1       960 4.04472E+03 6.06678E+02-2.57398E+04
 -1       961 3.96728E+03 1.53577E+03-4.93076E+04
 -1       962 3.52574E+03 2.79396E+03-7.13231E+04
 -1       963 1.54448E+03 4.25578E+03-8.62460E+04
 -1       964 1.52879E+02 5.72394E+03-9.15706E+04
 -1       965-2.04405E+00-1.03485E+01 1.78523E+03
 -1       966-3.75985E+01 4.46466E+01 1.73132E+03
 -1       967 5.34316E+01 2.87007E+00 1.67147E+03
 -1       968 4.42437E+01 2.89673E+01 1.51516E+03
 -1       969 3.99081E+01 4.50479E+01 1.28344E+03
 -1       970 5.49873E+01 5.25686E+01 9.78687E+02
 -1       971 6.84505E+01 5.63023E+01 6.12672E+02
 -1       972 7.14076E+01 6.00579E+01 1.96020E+02
 -1       973 7.14876E+01 5.92248E+01-2.56591E+02
 -1       974 9.23246E+01 8.40989E+01-7.29703E+02
 -1       975 8.61166E+01 6.39970E+01-1.21691E+03
 -1       976-8.33997E+02-9.65084E+01-1.18136E+04
 -1       977-7.22434E+02-1.89538E+02-7.18706E+03
 -1       978-5.62593E+02-1.74266E+02-3.36807E+03
 -1       979-2.91496E+02-5.75240E+01-8.78901E+02
 -1       980 0.00000E+00 0.00000E+00 0.00000E+00
 -1       981 0.00000E+00 0.00000E+00 0.00000E+00
 -1       982 4.51784E+03 3.38563E+02-2.84244E+04
 -1       983 4.96872E+03 1.76173E+03-8.47425E+04
 -1       984 4.86461E+01-2.27682E+00 1.81402E+03
 -1       985 3.97229E+01 1.43586E+01 1.52758E+03
 -1       986 5.18022E+01 4.02193E+01 1.03609E+03
 -1       987 7.23191E+01 5.20908E+01 2.88773E+02
 -1       988 8.15705E+01 5.94986E+01-6.40404E+02
 -1       989 8.48879E+01 6.05952E+01-1.65577E+03
 -1       990-3.64666E+02-1.52204E+02-2.26939E+03
 -1       991 0.00000E+00 0.00000E+00 0.00000E+00
 -1       992 0.00000E+00 0.00000E+00 0.00000E+00
 -1       993 2.57395E+03-3.55896E+01-7.93892E+03
 -1       994 4.73816E+03 4.64188E+01-2.95950E+04
 -1       995 5.43870E+03 3.75475E+02-5.95758E+04
 -1       996 5.89438E+03 9.78927E+02-9.28836E+04
 -1       997 1.72950E+01 2.80663E+01 1.82676E+03
 -1       998 3.84708E+01 5.10023E+00 1.62338E+03
 -1       999 4.10095E+01 2.49601E+01 1.40046E+03
 -1      1000 5.02616E+01 2.93716E+01 1.13561E+03
 -1      1001 6.01297E+01 3.43157E+01 8.12904E+02
 -1      1002 6.92617E+01 4.06861E+01 4.28916E+02
 -1      1003 7.70646E+01 4.73332E+01-7.28984E+00
 -1      1004 8.35455E+01 5.22670E+01-4.84617E+02
 -1      1005 8.83920E+01 5.75113E+01-9.91405E+02
 -1      1006 8.95048E+01 5.76182E+01-1.51549E+03
 -1      1007 9.75652E+01 6.41804E+01-2.04938E+03
 -1      1008-2.12810E+02-9.57947E+01-1.39707E+03
 -1      1009-1.23501E+02-2.73228E+01-4.05944E+02
 -1      1010 0.00000E+00 0.00000E+00 0.00000E+00
 -1      1011 0.00000E+00 0.00000E+00 0.00000E+00
 -1      1012 4.82549E+03 1.79140E+02-3.01928E+04
 -1      1013 3.72168E+01 8.54210E+00 1.80717E+03
 -1      1014 4.49272E+01 1.62902E+01 1.28769E+03
 -1      1015 6.76994E+01 3.03027E+01 6.16645E+02
 -1      1016 8.17408E+01 4.09059E+01-2.69435E+02
 -1      1017 9.15144E+01 4.91462E+01-1.30188E+03
 -1      1018 9.62330E+01 5.24729E+01-2.39887E+03
 -1      1019-1.68766E+02-4.18135E+01-1.07267E+03
 -1      1020 0.00000E+00 0.00000E+00 0.00000E+00
 -1      1021 0.00000E+00 0.00000E+00 0.00000E+00
 -1      1022 2.77563E+03 1.28172E+02-8.47063E+03
 -1      1023 5.18461E+03 2.53451E+02-3.19627E+04
 -1      1024 6.17137E+03-1.06263E+02-6.55872E+04
 -1      1025 6.81869E+03-7.72810E+02-1.03782E+05
 -1      1026 2.53672E+01-1.34671E+01 1.77226E+03
 -1      1027 5.28980E+01 1.95669E+01 1.48989E+03
 -1      1028 5.33961E+01 6.80334E+00 1.19180E+03
 -1      1029 6.24897E+01 1.74757E+01 8.49622E+02
 -1      1030 7.28298E+01 2.56919E+01 4.53287E+02
 -1      1031 8.05411E+01 3.08858E+01 1.75445E+00
 -1      1032 8.65359E+01 3.41759E+01-4.94297E+02
 -1      1033 9.09065E+01 3.83876E+01-1.02170E+03
 -1      1034 9.34222E+01 4.03074E+01-1.56877E+03
 -1      1035 9.74387E+01 4.45839E+01-2.12655E+03
 -1      1036 9.54649E+01 4.02618E+01-2.69217E+03
 -1      1037-2.16551E+02-6.80405E+01-3.22971E+03
 -1      1038-1.98484E+02-5.66055E+01-2.01705E+03
 -1      1039-1.55740E+02-1.26930E+01-9.45772E+02
 -1      1040-8.12842E+01-3.43293E+00-2.50356E+02
 -1      1041 0.00000E+00 0.00000E+00 0.00000E+00
 -1      1042 0.00000E+00 0.00000E+00 0.00000E+00
 -1      1043 5.08256E+03-2.12742E+02-3.18884E+04
 -1      1044 5.75135E+03-1.74322E+03-9.62599E+04
 -1      1045 7.68393E+01 3.29857E+01 1.71353E+03
 -1      1046 6.89963E+01 2.33101E+01 1.12114E+03
 -1      1047 7.59288E+01 1.75144E+01 3.25001E+02
 -1      1048 9.12476E+01 2.94889E+01-6.79599E+02
 -1      1049 9.60758E+01 3.52224E+01-1.78958E+03
 -1      1050 1.03488E+02 3.81341E+01-2.92702E+03
 -1      1051-2.07899E+02-1.33241E+02-2.65706E+03
 -1      1052-1.18727E+02-5.54643E+01-7.30202E+02
 -1      1053 0.00000E+00 0.00000E+00 0.00000E+00
 -1      1054 0.00000E+00 0.00000E+00 0.00000E+00
 -1      1055 2.58376E+03-1.66860E+02-7.96402E+03
 -1      1056 4.63595E+03-6.14735E+02-2.95480E+04
 -1      1057 4.57496E+03-1.60898E+03-5.66406E+04
 -1      1058 4.12485E+03-3.04349E+03-8.21816E+04
 -1      1059 1.86220E+03-4.76699E+03-9.98234E+04
 -1      1060 2.76270E+02-6.53105E+03-1.06503E+05
 -1      1061 3.58099E+01 3.80311E+01 1.69002E+03
 -1      1062-6.57801E+00-5.68027E+01 1.40255E+03
 -1      1063 1.01598E+02 4.24430E+01 1.08800E+03
 -1      1064 8.75473E+01 1.68574E+01 6.93770E+02
 -1      1065 7.62524E+01 1.00083E+01 2.33857E+02
 -1      1066 8.66126E+01 1.59475E+01-2.80577E+02
 -1      1067 9.49214E+01 2.50397E+01-8.30098E+02
 -1      1068 9.81868E+01 2.79228E+01-1.39738E+03
 -1      1069 1.00828E+02 3.29655E+01-1.96990E+03
 -1      1070 9.02733E+01 2.02855E+01-2.52736E+03
 -1      1071 9.80787E+01 3.21870E+01-3.09477E+03
 -1      1072-3.07650E+02-3.09070E+02-4.66210E+03
 -1      1073-2.60561E+02-3.01128E+02-2.99996E+03
 -1      1074-1.87129E+02-2.30306E+02-1.63230E+03
 -1      1075-1.12480E+02-1.67999E+02-7.80694E+02
 -1      1076-5.24371E+01-9.45381E+01-3.10035E+02
 -1      1077-2.80023E+01-2.76308E+01-6.42532E+01
 -1      1078 0.00000E+00 0.00000E+00 0.00000E+00
 -1      1079 0.00000E+00 0.00000E+00 0.00000E+00
 -1      1080 3.86481E+03-8.89319E+02-2.50852E+04
 -1      1081 2.53084E+03-3.16223E+03-6.39676E+04
 -1      1082-1.25352E+03-5.90820E+03-6.96909E+04
 -1      1083 1.80422E+01-1.63582E+02 1.58816E+03
 -1      1084 9.38642E+00-6.47773E+01 1.10720E+03
 -1      1085 9.61996E+01 1.33871E+01 1.73753E+02
 -1      1086 9.64936E+01 1.86318E+01-9.55350E+02
 -1      1087 9.15211E+01 1.67284E+01-2.10687E+03
 -1      1088 8.71098E+01 5.72402E+00-3.19186E+03
 -1      1089-3.29073E+02-3.73098E+02-2.70754E+03
 -1      1090-1.23756E+02-3.22395E+02-2.20710E+01
 -1      1091 5.13429E+01-1.31367E+02 3.54764E+02
 -1      1092 0.00000E+00 0.00000E+00 0.00000E+00
 -1      1093 0.00000E+00 0.00000E+00 0.00000E+00
 -1      1094 1.70178E+03-3.23134E+02-5.31144E+03
 -1      1095 2.96502E+03-1.08821E+03-1.91628E+04
 -1      1096 2.27462E+03-2.12633E+03-3.48065E+04
 -1      1097 1.24288E+03-3.24000E+03-4.49315E+04
 -1      1098-8.00729E+02-4.36211E+03-4.64915E+04
 -1      1099-3.09980E+03-4.88557E+03-3.61954E+04
 -1      1100-3.14104E+03-2.91524E+03-1.42173E+04
 -1      1101-9.08963E+02-9.70952E+02 1.77497E+03
 -1      1102-1.01546E+02-4.24158E+01 1.63419E+03
 -1      1103 1.04143E+02-2.22677E+01 1.15459E+03
 -1      1104 1.05815E+02 2.38202E+01 6.87976E+02
 -1      1105 6.71426E+01-1.87040E+01 1.29359E+02
 -1      1106 8.71208E+01 9.39619E+00-4.57807E+02
 -1      1107 9.98708E+01 1.85209E+01-1.06554E+03
 -1      1108 1.01751E+02 2.91558E+01-1.66881E+03
 -1      1109 9.85357E+01 2.16087E+01-2.24253E+03
 -1      1110 8.18041E+01 1.27903E+01-2.76031E+03
 -1      1111 7.28452E+00-9.12584E+01-3.21526E+03
 -1      1112-2.49529E+02-4.09234E+02-2.12942E+03
 -1      1113-3.65798E+02-4.78394E+02-3.13814E+02
 -1      1114-2.06749E+02-4.58857E+02 1.36782E+03
 -1      1115-4.66060E+01-3.96520E+02 2.10518E+03
 -1      1116 7.11055E+01-3.08704E+02 2.00328E+03
 -1      1117 1.81887E+02-1.73786E+02 1.24438E+03
 -1      1118 1.07954E+02-5.39380E+01 3.66697E+02
 -1      1119 0.00000E+00 0.00000E+00 0.00000E+00
 -1      1120 0.00000E+00 0.00000E+00 0.00000E+00
 -1      1121 2.00712E+03-1.10227E+03-1.29260E+04
 -1      1122 1.11793E+02-3.04656E+03-2.66043E+04
 -1      1123-2.60986E+03-3.64714E+03-1.16751E+04
 -1      1124-2.10483E+03-3.14368E+03 1.76641E+04
 -1      1125-2.71713E+02-3.89700E+02-1.32333E+03
 -1      1126-3.43937E+02-4.68969E+02 2.53975E+03
 -1      1127-4.90425E-01-4.66880E+02 4.59501E+03
 -1      1128 3.50740E+02-2.14043E+02 2.36965E+03
 -1      1129 0.00000E+00 0.00000E+00 0.00000E+00
 -1      1130 0.00000E+00 0.00000E+00 0.00000E+00
 -1      1131 6.03157E+02-3.96368E+02-1.46270E+03
 -1      1132 1.19487E+03-1.15998E+03-6.34454E+03
 -1      1133 4.11641E+02-1.87368E+03-1.10800E+04
 -1      1134-6.53510E+02-2.60698E+03-1.02524E+04
 -1      1135-1.61436E+03-3.13112E+03-3.56711E+03
 -1      1136-2.32590E+03-3.10575E+03 7.85912E+03
 -1      1137-2.50387E+03-2.93276E+03 2.20048E+04
 -1      1138-3.38964E+03-3.01913E+03 3.89256E+04
 -1      1139-4.15198E+03-1.04895E+03 6.27987E+04
 -1      1140-4.51656E+03 3.26258E+02 8.85865E+04
 -1      1141-1.27408E+02-2.70575E+02-8.61187E+02
 -1      1142-1.95169E+02-3.62996E+02 2.49221E+01
 -1      1143-3.06396E+02-4.78129E+02 1.32998E+03
 -1      1144-3.31254E+02-4.61145E+02 3.29313E+03
 -1      1145-3.50707E+02-4.72012E+02 5.21976E+03
 -1      1146-1.92058E+02-4.88986E+02 6.86344E+03
 -1      1147 5.46360E+00-5.38370E+02 7.48869E+03
 -1      1148 3.18270E+02-4.24734E+02 6.31611E+03
 -1      1149 5.29306E+02-2.43946E+02 3.69973E+03
 -1      1150 3.17159E+02-7.22219E+01 1.09504E+03
 -1      1151 0.00000E+00 0.00000E+00 0.00000E+00
 -1      1152-1.24964E+03-2.38879E+03 4.27226E+03
 -1      1153-1.90533E+03-1.96049E+03 2.27818E+04
 -1      1154-2.69382E+03-7.13352E+02 4.88579E+04
 -1      1155-3.13302E+03 1.61016E+03 8.24993E+04
 -1      1156-1.92523E+02-1.84430E+02 4.50323E+02
 -1      1157-3.21307E+02-2.34865E+02 3.39253E+03
 -1      1158-3.77997E+02-2.70747E+02 7.45001E+03
 -1      1159-1.87222E+02-5.14912E+02 1.06990E+04
 -1      1160-1.26490E+03-2.43818E+03 1.82168E+04
 -1      1161-1.04550E+03-1.75060E+03 2.46555E+04
 -1      1162-1.03233E+03-5.15329E+02 3.01861E+04
 -1      1163-1.48872E+03 3.35922E+02 3.75649E+04
 -1      1164-1.64973E+03 1.35851E+03 4.68470E+04
 -1      1165-1.74073E+03 2.26986E+03 5.68468E+04
 -1      1166-2.04545E+03 3.42663E+03 6.78907E+04
 -1      1167-1.85833E+02-5.66572E+01 1.17985E+03
 -1      1168-2.48088E+02-3.20408E+01 2.42992E+03
 -1      1169-3.03305E+02 5.08304E+00 4.04930E+03
 -1      1170-3.74851E+02 7.79493E+00 6.00045E+03
 -1      1171-4.57150E+02-2.17471E+01 8.38785E+03
 -1      1172-4.37630E+02-2.54616E+02 1.11527E+04
 -1      1173-4.22922E+02-5.03636E+02 1.37582E+04
 -1      1174-5.55937E+02 1.31579E+03 2.74096E+04
 -1      1175-8.83986E+02 2.27328E+03 3.61632E+04
 -1      1176-7.14358E+02 3.97596E+03 4.51926E+04
 -1      1177-1.51104E+02 4.87360E+01 1.18021E+03
 -1      1178-2.52564E+02 1.67965E+02 3.51861E+03
 -1      1179-3.72058E+02 3.55194E+02 7.18072E+03
 -1      1180-4.11073E+02 2.52406E+03 1.57166E+04
 -1      1181-3.80843E+02 2.75345E+03 1.80375E+04
 -1      1182-4.26802E+02 3.06492E+03 2.02734E+04
 -1      1183-8.19637E+01 3.41841E+03 2.18931E+04
 -1      1184 4.86382E+02 3.59940E+03 2.12493E+04
 -1      1185 9.53788E+02 2.43070E+03 1.53288E+04
 -1      1186 1.01583E+03 1.33225E+03 8.67553E+03
 -1      1187 5.94750E+02 6.52816E+02 4.19996E+03
 -1      1188 2.29940E+02 2.23495E+02 1.45028E+03
 -1      1189 6.39958E+01 1.12718E+02 7.06443E+02
 -1      1190-8.25369E+01 1.09922E+02 7.14458E+02
 -1      1191-1.15302E+02 1.99745E+02 1.31165E+03
 -1      1192-1.49209E+02 3.13244E+02 2.08644E+03
 -1      1193-1.85621E+02 4.55644E+02 3.05388E+03
 -1      1194-2.11750E+02 6.12063E+02 4.20724E+03
 -1      1195-1.83156E+02 1.38878E+03 4.23893E+03
 -1      1196-1.14508E+02 1.80578E+03 5.66465E+03
 -1      1197 2.01427E+02 1.86439E+03 5.44657E+03
 -1      1198 2.88418E+02 7.74196E+02 2.45055E+03
 -1      1199 7.81955E+01 1.18335E+02 5.07207E+02
 -1      1200-2.39667E+01 6.26626E+01 2.15465E+02
 -1      1201-4.66162E+01 1.82233E+02 5.97681E+02
 -1      1202-6.10836E+01 3.63526E+02 1.22926E+03
 -1      1203 0.00000E+00 0.00000E+00 0.00000E+00
 -1      1204 0.00000E+00 0.00000E+00 0.00000E+00
 -1      1205 0.00000E+00 0.00000E+00 0.00000E+00
 -1      1206 0.00000E+00 0.00000E+00 0.00000E+00
 -1      1207 0.00000E+00 0.00000E+00 0.00000E+00
 -1      1208 0.00000E+00 0.00000E+00 0.00000E+00
 -1      1209 0.00000E+00 0.00000E+00 0.00000E+00
 -1      1210 0.00000E+00 0.00000E+00 0.00000E+00
 -1      1211 0.00000E+00 0.00000E+00 0.00000E+00
 -1      1212 0.00000E+00 0.00000E+00 0.00000E+00
 -1      1213 0.00000E+00 0.00000E+00 0.00000E+00
 -1      1214 0.00000E+00 0.00000E+00 0.00000E+00
 -1      1215 0.00000E+00 0.00000E+00 0.00000E+00
 -1      1216 0.00000E+00 0.00000E+00 0.00000E+00
 -1      1217 0.00000E+00 0.00000E+00 0.00000E+00
 -1      1218-6.15500E+02 4.53287E+02 1.59423E+03
 -1      1219 3.64685E+01 6.79281E+01 2.01366E+03
 -1      1220 6.45108E+01 1.04149E+02 1.83716E+03
 -1      1221 1.18750E+02 1.21609E+02 1.31339E+03
 -1      1222 1.34528E+02 1.41381E+02 5.80749E+02
 -1      1223 2.74903E+02 3.05521E+02-2.24564E+02
 -1      1224 1.00165E+01 4.58067E+00 1.77933E+03
 -1      1225 5.65507E+01 3.47776E+01 1.66774E+03
 -1      1226 8.39554E+01 8.34971E+01 1.28286E+03
 -1      1227 1.27522E+02 1.07843E+02 6.11805E+02
 -1      1228 1.46200E+02 1.24557E+02-2.55958E+02
 -1      1229 1.61857E+02 1.32699E+02-1.21842E+03
 -1      1230 5.96668E+01 3.05929E+01 1.82480E+03
 -1      1231 8.00927E+01 4.04735E+01 1.40083E+03
 -1      1232 1.14943E+02 6.66925E+01 8.12423E+02
 -1      1233 1.47534E+02 9.00501E+01-7.38565E+00
 -1      1234 1.67654E+02 1.07819E+02-9.90997E+02
 -1      1235 1.79792E+02 1.16117E+02-2.05016E+03
 -1      1236 8.10225E+01 6.49397E+00 1.76717E+03
 -1      1237 1.05084E+02 2.33151E+01 1.19184E+03
 -1      1238 1.38480E+02 4.78871E+01 4.52982E+02
 -1      1239 1.65623E+02 6.61053E+01-4.94201E+02
 -1      1240 1.79279E+02 7.83727E+01-1.56850E+03
 -1      1241 1.87141E+02 8.19282E+01-2.69218E+03
 -1      1242 8.53421E+01 2.68265E+01 1.68121E+03
 -1      1243 1.40376E+02 2.65678E+01 1.08752E+03
 -1      1244 1.54589E+02 2.41459E+01 2.33391E+02
 -1      1245 1.80296E+02 4.58334E+01-8.30507E+02
 -1      1246 1.86617E+02 5.54642E+01-1.96737E+03
 -1      1247 1.87122E+02 5.43811E+01-3.09569E+03
 -1      1248-6.46677E+02-7.63460E+02 1.77701E+03
 -1      1249 1.54042E+02-2.64092E+01 1.16278E+03
 -1      1250 1.57772E+02-7.71367E-01 1.34664E+02
 -1      1251 1.88554E+02 3.71683E+01-1.06707E+03
 -1      1252 1.84597E+02 4.37561E+01-2.24292E+03
 -1      1253 1.24779E+02-3.41065E+01-3.21905E+03
 -1      1254-4.53147E+02 3.52284E+02 1.60998E+03
 -1      1255-1.80915E+02 5.59124E+01 1.91032E+03
 -1      1256 3.97588E+01 9.49623E+01 2.01883E+03
 -1      1257 6.68681E+01 1.27886E+02 1.97242E+03
 -1      1258 1.06124E+02 1.43859E+02 1.84098E+03
 -1      1259 1.40773E+02 1.60440E+02 1.60998E+03
 -1      1260 1.70231E+02 1.76734E+02 1.31257E+03
 -1      1261 1.90413E+02 1.92168E+02 9.62936E+02
 -1      1262 2.01198E+02 2.05570E+02 5.82544E+02
 -1      1263 2.45544E+02 2.28929E+02 1.87346E+02
 -1      1264 3.08583E+02 3.34235E+02-2.28480E+02
 -1      1265-6.01187E+01 1.38831E+02 1.67285E+03
 -1      1266 1.42743E+01 8.35988E+01 1.83262E+03
 -1      1267 1.10740E+02 1.32178E+02 1.54958E+03
 -1      1268 1.71777E+02 1.68792E+02 9.55113E+02
 -1      1269 2.09697E+02 2.01731E+02 1.59058E+02
 -1      1270 2.24899E+02 2.60556E+02-7.47416E+02
 -1      1271 2.62503E+01 1.39897E+01 1.77265E+03
 -1      1272 2.86669E+01 4.00694E+01 1.72725E+03
 -1      1273 5.74395E+01 6.81927E+01 1.66353E+03
 -1      1274 9.67634E+01 9.66659E+01 1.51490E+03
 -1      1275 1.28693E+02 1.21931E+02 1.28172E+03
 -1      1276 1.60623E+02 1.42454E+02 9.77461E+02
 -1      1277 1.86730E+02 1.59501E+02 6.10678E+02
 -1      1278 2.06417E+02 1.75416E+02 1.96352E+02
 -1      1279 2.21654E+02 1.90547E+02-2.55289E+02
 -1      1280 2.32356E+02 2.06514E+02-7.32430E+02
 -1      1281 2.37281E+02 2.00093E+02-1.21980E+03
 -1      1282 6.58815E+01 2.74973E+01 1.81883E+03
 -1      1283 9.14957E+01 5.89425E+01 1.52234E+03
 -1      1284 1.49210E+02 1.11991E+02 1.03464E+03
 -1      1285 2.02838E+02 1.47695E+02 2.87908E+02
 -1      1286 2.34676E+02 1.74886E+02-6.40430E+02
 -1      1287 2.51669E+02 1.88179E+02-1.65237E+03
 -1      1288 1.01121E+02 3.26783E+01 1.82288E+03
 -1      1289 1.06252E+02 3.11593E+01 1.62032E+03
 -1      1290 1.19320E+02 5.60055E+01 1.40091E+03
 -1      1291 1.41723E+02 7.91481E+01 1.13439E+03
 -1      1292 1.69785E+02 9.92076E+01 8.11652E+02
 -1      1293 1.95778E+02 1.16872E+02 4.28080E+02
 -1      1294 2.18290E+02 1.32996E+02-7.55233E+00
 -1      1295 2.35338E+02 1.46643E+02-4.84409E+02
 -1      1296 2.47009E+02 1.58077E+02-9.90389E+02
 -1      1297 2.55307E+02 1.67878E+02-1.51463E+03
 -1      1298 2.62154E+02 1.68988E+02-2.05061E+03
 -1      1299 1.24739E+02 3.01895E+01 1.80541E+03
 -1      1300 1.40413E+02 4.98160E+01 1.28740E+03
 -1      1301 1.88330E+02 8.53807E+01 6.15641E+02
 -1      1302 2.32014E+02 1.15936E+02-2.69359E+02
 -1      1303 2.57586E+02 1.38139E+02-1.30126E+03
 -1      1304 2.71331E+02 1.47159E+02-2.39826E+03
 -1      1305 1.36389E+02 2.51684E+01 1.76196E+03
 -1      1306 1.43533E+02 3.15957E+01 1.48860E+03
 -1      1307 1.56959E+02 4.03821E+01 1.19178E+03
 -1      1308 1.77995E+02 5.38693E+01 8.48720E+02
 -1      1309 2.04284E+02 7.00894E+01 4.52508E+02
 -1      1310 2.26852E+02 8.52332E+01 1.50958E+00
 -1      1311 2.44971E+02 9.80890E+01-4.94057E+02
 -1      1312 2.57130E+02 1.08893E+02-1.02083E+03
 -1      1313 2.65471E+02 1.16675E+02-1.56788E+03
 -1      1314 2.72041E+02 1.22164E+02-2.12484E+03
 -1      1315 2.78351E+02 1.23286E+02-2.69204E+03
 -1      1316 1.34837E+02 1.93715E+01 1.72395E+03
 -1      1317 1.69316E+02 3.12897E+01 1.11628E+03
 -1      1318 2.18400E+02 5.22803E+01 3.24637E+02
 -1      1319 2.56269E+02 8.11294E+01-6.79606E+02
 -1      1320 2.70322E+02 9.59001E+01-1.78764E+03
 -1      1321 2.81847E+02 9.86779E+01-2.92406E+03
 -1      1322 1.37873E+02 2.43535E+01 1.67236E+03
 -1      1323 1.45167E+02-1.15219E+01 1.39086E+03
 -1      1324 1.76520E+02 8.14700E+00 1.08683E+03
 -1      1325 2.11446E+02 2.32857E+01 6.96921E+02
 -1      1326 2.33406E+02 3.85573E+01 2.32628E+02
 -1      1327 2.53666E+02 5.36064E+01-2.81205E+02
 -1      1328 2.65950E+02 6.66187E+01-8.30774E+02
 -1      1329 2.71985E+02 7.46719E+01-1.39602E+03
 -1      1330 2.72108E+02 7.73817E+01-1.96462E+03
 -1      1331 2.72548E+02 7.48627E+01-2.52939E+03
 -1      1332 2.77831E+02 7.82733E+01-3.09557E+03
 -1      1333 1.05787E+02-2.16525E+02 1.65379E+03
 -1      1334 1.74157E+02-1.80025E+01 1.11827E+03
 -1      1335 2.52443E+02 2.71250E+01 1.72995E+02
 -1      1336 2.76998E+02 5.82399E+01-9.53605E+02
 -1      1337 2.70228E+02 6.72946E+01-2.10929E+03
 -1      1338 2.56914E+02 4.19248E+01-3.18519E+03
 -1      1339-3.94994E+02-5.66306E+02 1.77882E+03
 -1      1340-4.15179E+01-6.54553E+01 1.56815E+03
 -1      1341 2.13009E+02-2.74209E+01 1.17083E+03
 -1      1342 2.24734E+02-1.14787E+01 6.76928E+02
 -1      1343 2.48627E+02 1.68910E+01 1.39833E+02
 -1      1344 2.66949E+02 3.89171E+01-4.57393E+02
 -1      1345 2.77926E+02 5.52922E+01-1.06888E+03
 -1      1346 2.76710E+02 6.56725E+01-1.66829E+03
 -1      1347 2.72430E+02 6.76503E+01-2.24242E+03
 -1      1348 2.50155E+02 4.87238E+01-2.75570E+03
 -1      1349 2.36369E+02 1.67094E+01-3.22574E+03
 -1      1350-4.41849E+02 3.20497E+02 1.61247E+03
 -1      1351 2.90642E+01 1.23470E+02 2.01367E+03
 -1      1352 1.37495E+02 1.90477E+02 1.83868E+03
 -1      1353 2.23042E+02 2.33420E+02 1.31094E+03
 -1      1354 2.67831E+02 2.72131E+02 5.81793E+02
 -1      1355 3.66522E+02 4.00370E+02-2.29115E+02
 -1      1356 3.40136E+01 2.20520E+01 1.77300E+03
 -1      1357 7.40974E+01 9.15430E+01 1.66145E+03
 -1      1358 1.71095E+02 1.61728E+02 1.28050E+03
 -1      1359 2.47814E+02 2.11512E+02 6.09849E+02
 -1      1360 2.94085E+02 2.52951E+02-2.55121E+02
 -1      1361 3.13655E+02 2.71733E+02-1.21834E+03
 -1      1362 1.34072E+02 3.77790E+01 1.82332E+03
 -1      1363 1.57061E+02 7.39770E+01 1.39962E+03
 -1      1364 2.24852E+02 1.31716E+02 8.10590E+02
 -1      1365 2.89483E+02 1.76301E+02-7.83136E+00
 -1      1366 3.27429E+02 2.09533E+02-9.89860E+02
 -1      1367 3.46714E+02 2.25642E+02-2.04944E+03
 -1      1368 1.80205E+02 3.31645E+01 1.76277E+03
 -1      1369 2.06940E+02 5.43968E+01 1.19066E+03
 -1      1370 2.70344E+02 9.27397E+01 4.51912E+02
 -1      1371 3.24684E+02 1.29931E+02-4.93855E+02
 -1      1372 3.51573E+02 1.54518E+02-1.56685E+03
 -1      1373 3.68405E+02 1.63551E+02-2.69066E+03
 -1      1374 1.83418E+02 1.23625E+01 1.67565E+03
 -1      1375 2.31307E+02 8.77446E+00 1.08607E+03
 -1      1376 3.10598E+02 5.06200E+01 2.32485E+02
 -1      1377 3.53296E+02 8.76871E+01-8.30597E+02
 -1      1378 3.60421E+02 1.02162E+02-1.96331E+03
 -1      1379 3.66806E+02 9.89982E+01-3.09381E+03
 -1      1380-3.03421E+02-5.28089E+02 1.77923E+03
 -1      1381 2.63101E+02-3.47697E+01 1.16660E+03
 -1      1382 3.33020E+02 2.24340E+01 1.38325E+02
 -1      1383 3.69169E+02 7.32286E+01-1.06934E+03
 -1      1384 3.57554E+02 8.82731E+01-2.24136E+03
 -1      1385 3.19154E+02 3.39657E+01-3.22664E+03
 -1      1386-4.50403E+02 2.89524E+02 1.61339E+03
 -1      1387-2.19775E+02 8.77466E+01 1.88313E+03
 -1      1388 2.25429E+01 1.51483E+02 2.00790E+03
 -1      1389 1.01159E+02 2.07928E+02 1.96769E+03
 -1      1390 1.65997E+02 2.37337E+02 1.83574E+03
 -1      1391 2.28287E+02 2.65200E+02 1.60725E+03
 -1      1392 2.75902E+02 2.90325E+02 1.30893E+03
 -1      1393 3.08975E+02 3.15979E+02 9.60948E+02
 -1      1394 3.32001E+02 3.37756E+02 5.80837E+02
 -1      1395 3.77051E+02 3.77443E+02 1.81803E+02
 -1      1396 4.25418E+02 4.71435E+02-2.29355E+02
 -1      1397-1.00876E+02 1.32532E+02 1.69007E+03
 -1      1398 2.79809E+01 1.30929E+02 1.82733E+03
 -1      1399 1.79289E+02 2.19325E+02 1.54395E+03
 -1      1400 2.83951E+02 2.78245E+02 9.52358E+02
 -1      1401 3.43823E+02 3.30337E+02 1.58265E+02
 -1      1402 3.69220E+02 4.09020E+02-7.40126E+02
 -1      1403 4.54666E+01 2.08115E+01 1.77339E+03
 -1      1404 5.49662E+01 5.48942E+01 1.72540E+03
 -1      1405 8.90030E+01 1.17789E+02 1.65876E+03
 -1      1406 1.54328E+02 1.62570E+02 1.51014E+03
 -1      1407 2.14714E+02 2.01182E+02 1.27872E+03
 -1      1408 2.65390E+02 2.34894E+02 9.74463E+02
 -1      1409 3.09237E+02 2.63995E+02 6.08736E+02
 -1      1410 3.42012E+02 2.90704E+02 1.95340E+02
 -1      1411 3.67772E+02 3.16002E+02-2.54906E+02
 -1      1412 3.80917E+02 3.39688E+02-7.31249E+02
 -1      1413 3.89789E+02 3.42898E+02-1.21668E+03
 -1      1414 1.07511E+02 3.14846E+01 1.81817E+03
 -1      1415 1.46836E+02 1.01359E+02 1.51921E+03
 -1      1416 2.47521E+02 1.84851E+02 1.03180E+03
 -1      1417 3.35664E+02 2.43957E+02 2.86588E+02
 -1      1418 3.88634E+02 2.90025E+02-6.39391E+02
 -1      1419 4.13883E+02 3.14939E+02-1.65037E+03
 -1      1420 1.65834E+02 4.25425E+01 1.82348E+03
 -1      1421 1.73186E+02 5.24720E+01 1.61922E+03
 -1      1422 1.94586E+02 9.17099E+01 1.39805E+03
 -1      1423 2.33994E+02 1.30432E+02 1.13173E+03
 -1      1424 2.80024E+02 1.64731E+02 8.09191E+02
 -1      1425 3.23381E+02 1.93859E+02 4.26605E+02
 -1      1426 3.61220E+02 2.19958E+02-8.18085E+00
 -1      1427 3.88479E+02 2.42238E+02-4.83992E+02
 -1      1428 4.08113E+02 2.60988E+02-9.89097E+02
 -1      1429 4.21081E+02 2.78533E+02-1.51211E+03
 -1      1430 4.31448E+02 2.83858E+02-2.04790E+03
 -1      1431 2.02671E+02 4.47612E+01 1.80402E+03
 -1      1432 2.30426E+02 8.24768E+01 1.28564E+03
 -1      1433 3.10116E+02 1.41197E+02 6.13605E+02
 -1      1434 3.83909E+02 1.91597E+02-2.69389E+02
 -1      1435 4.25067E+02 2.27958E+02-1.29927E+03
 -1      1436 4.47019E+02 2.45088E+02-2.39587E+03
 -1      1437 2.22931E+02 3.84424E+01 1.76345E+03
 -1      1438 2.33676E+02 4.86184E+01 1.48922E+03
 -1      1439 2.57254E+02 6.97388E+01 1.18940E+03
 -1      1440 2.93899E+02 9.05785E+01 8.46891E+02
 -1      1441 3.36582E+02 1.15156E+02 4.51132E+02
 -1      1442 3.74425E+02 1.40263E+02 1.09238E+00
 -1      1443 4.05061E+02 1.62070E+02-4.93570E+02
 -1      1444 4.24638E+02 1.79752E+02-1.01938E+03
 -1      1445 4.38040E+02 1.92515E+02-1.56548E+03
 -1      1446 4.47937E+02 2.01483E+02-2.12166E+03
 -1      1447 4.58131E+02 2.04035E+02-2.68878E+03
 -1      1448 2.22605E+02 3.22283E+01 1.72484E+03
 -1      1449 2.73932E+02 4.51251E+01 1.11533E+03
 -1      1450 3.62181E+02 8.70375E+01 3.23553E+02
 -1      1451 4.23952E+02 1.33535E+02-6.79052E+02
 -1      1452 4.46401E+02 1.57515E+02-1.78477E+03
 -1      1453 4.62567E+02 1.62400E+02-2.92128E+03
 -1      1454 2.31987E+02 9.95225E+00 1.67916E+03
 -1      1455 2.49529E+02-6.57364E+00 1.39168E+03
 -1      1456 2.82813E+02 6.33523E+00 1.08510E+03
 -1      1457 3.42049E+02 3.43473E+01 6.94654E+02
 -1      1458 3.88820E+02 6.31969E+01 2.32054E+02
 -1      1459 4.19384E+02 8.79300E+01-2.81768E+02
 -1      1460 4.40837E+02 1.08386E+02-8.30310E+02
 -1      1461 4.48485E+02 1.22141E+02-1.39421E+03
 -1      1462 4.49201E+02 1.26908E+02-1.96159E+03
 -1      1463 4.49581E+02 1.21407E+02-2.52643E+03
 -1      1464 4.56554E+02 1.19684E+02-3.09164E+03
 -1      1465 1.74644E+02-2.29689E+02 1.68512E+03
 -1      1466 2.98789E+02-1.85944E+01 1.11480E+03
 -1      1467 4.14234E+02 4.21531E+01 1.69645E+02
 -1      1468 4.58235E+02 9.58803E+01-9.53144E+02
 -1      1469 4.44916E+02 1.11245E+02-2.10719E+03
 -1      1470 4.22198E+02 7.16734E+01-3.18146E+03
 -1      1471-2.27524E+02-5.04027E+02 1.77936E+03
 -1      1472 5.82410E+01-1.04658E+02 1.53536E+03
 -1      1473 3.23590E+02-3.90368E+01 1.16179E+03
 -1      1474 3.78832E+02-1.75533E+01 6.73883E+02
 -1      1475 4.17815E+02 2.67834E+01 1.36623E+02
 -1      1476 4.51225E+02 6.27127E+01-4.58026E+02
 -1      1477 4.62570E+02 9.10982E+01-1.06979E+03
 -1      1478 4.59090E+02 1.06808E+02-1.66787E+03
 -1      1479 4.43009E+02 1.09641E+02-2.24002E+03
 -1      1480 4.12435E+02 7.91895E+01-2.75325E+03
 -1      1481 3.97040E+02 4.57799E+01-3.22697E+03
 -3
    1PSTEP                        30           1           1          
    1PGM                1.000000E+00                                  
    1PGK                1.952310E+12                                  
    1PHID                         -1                                  
    1PSUBC                         0                                  
    1PMODE                         8                                  
  100CL  108 222379.3981        1481                     2    8MODAL      1
 -4  STRESS      6    1
 -5  SXX         1    4    1    1
 -5  SYY         1    4    2    2
 -5  SZZ         1    4    3    3
 -5  SXY         1    4    1    2
 -5  SYZ         1    4    2    3
 -5  SZX         1    4    3    1
 -1         1-1.68707E+08 9.98450E+07-1.99982E+07-3.87090E+07-4.03367E+07 7.45191E+07
 -1         2-1.99337E+08-1.38982E+07 1.98606E+07-4.72003E+07 4.74483E+06 7.78004E+06
 -1         3-1.54672E+08-2.77753E+07-1.81725E+07-3.68126E+07-3.18314E+06 2.31332E+05
 -1         4-5.87862E+07 6.32642E+06 1.47523E+06-1.01785E+07 2.07176E+06 9.08651E+06
 -1         5-5.29722E+07 1.30340E+06 3.14784E+06-8.22911E+06-1.85965E+06-4.36848E+06
 -1         6-4.87529E+07-2.96088E+06-4.33069E+06-8.42089E+06-2.63325E+05 2.17080E+06
 -1         7-3.20048E+07 1.31776E+06 3.33752E+06-8.33512E+06 1.27782E+05 1.50782E+06
 -1         8-2.35890E+07 4.14031E+05 4.94174E+05-8.48446E+06-5.48110E+05 2.04235E+06
 -1         9-2.88309E+07-5.81665E+06-3.96589E+06-7.28603E+06-3.95974E+06 2.20326E+06
 -1        10-3.78121E+07 2.21546E+06 4.53732E+06-8.07730E+06 2.57361E+06 3.07203E+06
 -1        11-2.86517E+07 4.47838E+07 4.74867E+06-8.81907E+06-1.96427E+07-1.28628E+07
 -1        12-1.46847E+07 1.05296E+08-1.71319E+07-3.31950E+07 1.09129E+07-1.02829E+07
 -1        13-7.51342E+07-8.31085E+06-5.69397E+06-4.54269E+07-5.33444E+06 5.84202E+06
 -1        14-5.34924E+07 1.47232E+06 3.86997E+06-1.81707E+07-3.55564E+05-5.42497E+06
 -1        15-3.33174E+07 2.00394E+06 5.08507E+05-1.45787E+07 3.17518E+05-1.07310E+06
 -1        16-1.29141E+07 5.79269E+06 5.79582E+05-1.35474E+07-2.95379E+06-3.78784E+06
 -1        17 3.26655E+06 5.40612E+07-5.29501E+06-1.27642E+07-2.08290E+06 8.18799E+05
 -1        18 1.85271E+07 4.27853E+07 1.49701E+07-2.45705E+07 1.26235E+07 1.53091E+07
 -1        19-2.14527E+07-8.69609E+06-1.83196E+06-3.76140E+07-9.70055E+06 1.08520E+07
 -1        20-4.77134E+07-1.17433E+05 2.89322E+06-4.59612E+07 6.93415E+06-7.20135E+05
 -1        21-5.25790E+07 1.31623E+06 1.72081E+06-3.21852E+07 2.71310E+06-2.74029E+06
 -1        22-4.84490E+07-4.21533E+05-2.60407E+06-2.50669E+07-1.69368E+06 2.90805E+06
 -1        23-3.92427E+07 3.08286E+06 2.43365E+05-2.16879E+07-1.05048E+06 1.28985E+06
 -1        24-3.12443E+07 5.31341E+06-4.63559E+05-1.90876E+07-1.43946E+05-1.02556E+06
 -1        25-2.21147E+07 9.90716E+06-3.73493E+04-1.78584E+07-5.64990E+04 1.80653E+06
 -1        26-1.21132E+07 1.43739E+07-6.64129E+05-1.82750E+07-3.97657E+05 1.15994E+06
 -1        27-2.96093E+06 2.15086E+07 1.33729E+06-1.61562E+07-1.76069E+06-1.37706E+06
 -1        28 7.90635E+06 4.37132E+07 4.96888E+06-1.19952E+07-1.15375E+06-1.80383E+06
 -1        29-3.78773E+06-1.07571E+07-1.64586E+06-2.19353E+07 2.33413E+06 2.97436E+06
 -1        30-3.71386E+07 8.91721E+05 7.37452E+05-3.59639E+07 4.41906E+06-2.06802E+05
 -1        31-4.23998E+07 3.38265E+06-8.49249E+05-2.24351E+07-6.71706E+05 1.01519E+06
 -1        32-2.73984E+07 1.10326E+07-4.50155E+04-1.71368E+07 3.25157E+05-1.16479E+06
 -1        33-9.29570E+06 2.06683E+07-3.95134E+05-1.48938E+07 6.41933E+05 8.15652E+04
 -1        34-9.59250E+05 2.47461E+07-2.80350E+05-5.62426E+06-2.69862E+06 1.26782E+05
 -1        35-4.17908E+06-9.85116E+06-4.07981E+06-1.52956E+07 5.85065E+06 9.53200E+05
 -1        36-1.47852E+07-7.38525E+06-1.77587E+06-2.39759E+07 9.99652E+05-1.28143E+06
 -1        37-2.75721E+07-1.58829E+06 1.04710E+06-2.95302E+07-1.31171E+06 1.52596E+06
 -1        38-3.53794E+07 3.44737E+06-1.13416E+05-2.38959E+07-1.04593E+06-2.31442E+05
 -1        39-3.82829E+07 8.11784E+06 4.33710E+04-2.10810E+07 2.54109E+05-5.13128E+05
 -1        40-3.11546E+07 1.21937E+07-2.11548E+05-1.85511E+07 5.17019E+04 2.87838E+04
 -1        41-2.35463E+07 1.62664E+07 4.60358E+04-1.61375E+07-3.27103E+05-6.63679E+05
 -1        42-1.41754E+07 2.03871E+07 1.66973E+05-1.39417E+07-8.58147E+05 7.46631E+04
 -1        43-5.53855E+06 2.51664E+07 7.23186E+05-1.30109E+07-1.40761E+06-1.00155E+06
 -1        44-2.12014E+06 2.88193E+07-9.71691E+05-9.40401E+06 1.00665E+06 1.20544E+05
 -1        45 3.62105E+05 2.97133E+07-8.99387E+05-5.06776E+06-4.66438E+05-4.92584E+05
 -1        46 2.82537E+06 4.47691E+06 6.93989E+06-9.05846E+06 2.22144E+06 1.05702E+06
 -1        47-2.54987E+07 1.99607E+06-7.22834E+05-2.18078E+07 1.07707E+06 2.12882E+06
 -1        48-3.46757E+07 1.14811E+07 4.29162E+05-1.89165E+07-8.74585E+04-9.49448E+05
 -1        49-1.92657E+07 1.92186E+07 3.45218E+04-1.46567E+07 1.72845E+05-6.79250E+05
 -1        50-3.02585E+06 2.82793E+07 8.69237E+04-1.02547E+07-4.73735E+05-7.56533E+05
 -1        51 1.81782E+06 3.48466E+07 1.47039E+06-4.17974E+06-8.76016E+05-2.28550E+05
 -1        52-4.48381E+06 1.30118E+06-4.18018E+06-2.68878E+06-6.01553E+06 2.47104E+06
 -1        53-1.47907E+07 3.38824E+06-4.11248E+06-9.25036E+06-5.80722E+06-7.04832E+05
 -1        54-2.42287E+07 7.52509E+06 2.51010E+06-1.46856E+07 3.30520E+06 2.50658E+06
 -1        55-3.04627E+07 1.11847E+07 4.33014E+05-1.60219E+07 1.18048E+06 6.35464E+05
 -1        56-3.28386E+07 1.52049E+07-2.11951E+05-1.70884E+07-1.20281E+06-7.48446E+05
 -1        57-2.41203E+07 1.80862E+07-2.84527E+05-1.54097E+07-5.12129E+05 2.26858E+05
 -1        58-1.51322E+07 2.14011E+07-1.45355E+04-1.33765E+07 5.57697E+05-6.10120E+05
 -1        59-6.55804E+06 2.62167E+07 4.21925E+05-1.02060E+07 2.65802E+05 4.03475E+05
 -1        60 5.50204E+05 3.17299E+07 6.86515E+05-7.40489E+06 1.07423E+05-3.77310E+05
 -1        61 1.12375E+06 3.52106E+07-7.01718E+05-4.90692E+06-3.24260E+05-3.02227E+05
 -1        62 6.23904E+05 3.51459E+07-1.51995E+06-2.86035E+06-1.89479E+06-5.54689E+05
 -1        63-7.66214E+06 9.35300E+06-2.18154E+06 3.05900E+06 6.87385E+06 1.15798E+06
 -1        64-3.22777E+07 1.77591E+07-5.38036E+05-1.17651E+07-4.51508E+06-2.02513E+06
 -1        65-3.03693E+07 1.34319E+07-5.28924E+05-1.70206E+07 7.08371E+05 6.67204E+05
 -1        66-1.16690E+07 1.96058E+07 2.01461E+05-1.23155E+07-5.22836E+05-1.25824E+06
 -1        67 3.91427E+06 2.87899E+07-6.79883E+05-3.31343E+06-4.27063E+05 6.13214E+04
 -1        68 3.16706E+05 3.59807E+07 1.47319E+05-1.11223E+05 7.44910E+05 1.16697E+06
 -1        69 3.30949E+07 1.23385E+08 2.41622E+07-1.10930E+07-9.47249E+06 1.37145E+07
 -1        70-1.25436E+07 2.97862E+07 2.56940E+06-1.28866E+07 1.02486E+07 1.15468E+07
 -1        71-3.95802E+07 2.00756E+07 4.01958E+05-1.19139E+07-6.29220E+06-5.77346E+06
 -1        72-4.03183E+07 1.61635E+07 7.53493E+05-1.70096E+07-2.59656E+06-5.78834E+06
 -1        73-2.99252E+07 1.03291E+07-2.37086E+06-1.98601E+07 2.16819E+06 1.44418E+06
 -1        74-1.84645E+07 1.26345E+07 3.77605E+05-1.66942E+07 1.24880E+06 3.01744E+05
 -1        75-7.72517E+06 1.47974E+07 1.27062E+05-1.26798E+07 2.41572E+05-1.78712E+06
 -1        76 1.49230E+06 1.87050E+07-6.80094E+05-6.19379E+06 7.71262E+05-3.26728E+05
 -1        77 8.67397E+06 2.37602E+07-1.38282E+06 2.08741E+06 1.28005E+06 1.74791E+05
 -1        78 7.28254E+06 3.54838E+07 1.68644E+06 6.43637E+06 6.99236E+05 1.05472E+06
 -1        79 4.03701E+06 4.48316E+07 7.62511E+05 8.27731E+06 2.02701E+06 3.04633E+06
 -1        80-3.51960E+06 2.09915E+08-2.69450E+07-9.27988E+06-2.13599E+06-1.05218E+07
 -1        81-5.62840E+07 2.55303E+06-3.47328E+06-2.10810E+06 1.21218E+07 1.13738E+07
 -1        82-3.11305E+07 7.83919E+06 3.85468E+06-1.72642E+07-6.58046E+05-4.70470E+06
 -1        83-2.29264E+06 6.60833E+06-3.47298E+05-1.01772E+07-3.86159E+05-8.74562E+05
 -1        84 2.08955E+07 1.37884E+07 2.13945E+06 4.92057E+06 1.03940E+06-6.41773E+05
 -1        85 9.75911E+06 3.39840E+07-5.65813E+05 1.63139E+07 3.21337E+06-1.30159E+06
 -1        86-1.98325E+08 1.91915E+08-1.73681E+06 2.76830E+06 8.18964E+07 8.45425E+07
 -1        87-2.26990E+08-1.39938E+06 2.72492E+07 1.03422E+07-1.18258E+07-2.53907E+06
 -1        88-1.51622E+08-3.37837E+07-2.42734E+07 5.44044E+06 1.27024E+07-1.06455E+07
 -1        89-3.72284E+07 7.91813E+06 2.15007E+06-1.48749E+07-1.29423E+05 4.31018E+06
 -1        90-3.07713E+07 2.55066E+06 1.83713E+06-1.34125E+07 1.85694E+06-1.06941E+07
 -1        91-2.07111E+07-1.92561E+06-4.10826E+06-1.01705E+07 4.92457E+05-2.56231E+06
 -1        92-8.95686E+04 1.56114E+06 2.87212E+06-7.03324E+06 4.73479E+04-4.45654E+06
 -1        93 8.33380E+06-3.02743E+05 3.75092E+05-3.06517E+06 1.96518E+06 1.36293E+06
 -1        94 2.66358E+07 2.92875E+06 3.00070E+05 5.64679E+06 4.02992E+06-9.60277E+04
 -1        95 2.18005E+07 8.54319E+06-4.59894E+05 1.48476E+07-9.09288E+05 3.05169E+06
 -1        96 1.48647E+07 1.95330E+07 9.86339E+06 1.84098E+07 1.14888E+07 8.92678E+06
 -1        97-1.90757E+08 1.22390E+08-2.83562E+07-3.11705E+07-4.70000E+07 1.25427E+08
 -1        98-1.24827E+08-2.32716E+07-1.18681E+07-2.95936E+07-3.49587E+06-1.27281E+07
 -1        99-4.42367E+07 9.74433E+05 2.09905E+06-5.41702E+06-2.06330E+06 1.66640E+06
 -1       100-2.65141E+07 1.16027E+06 2.74691E+06-6.04308E+06-4.93660E+05 1.40868E+06
 -1       101-2.43790E+07-5.80679E+06-3.82699E+06-3.82936E+06-2.13050E+06 8.08677E+06
 -1       102-3.52128E+07 5.07340E+07 6.71657E+06-6.44026E+06-3.24415E+07-1.64185E+07
 -1       103 1.97575E+07 3.95609E+07 1.46008E+07-1.25738E+07 3.51119E+07 7.95878E+06
 -1       104-4.17393E+07 1.34795E+06 1.61006E+06-3.72264E+07 7.66182E+05 3.34129E+06
 -1       105-3.78703E+07-5.37957E+05-2.62554E+06-2.00681E+07-1.32869E+06 1.43370E+05
 -1       106-2.47920E+07 4.35957E+06-4.59942E+05-1.52692E+07-1.26900E+06-1.95880E+06
 -1       107-1.03437E+07 1.24146E+07-4.58225E+05-1.47881E+07-1.96381E+06-1.67432E+06
 -1       108 6.99111E+06 3.58564E+07 3.56600E+06-9.57062E+06 8.78036E+05-1.72156E+06
 -1       109-2.86283E+06-4.89328E+06-3.80587E+06-1.05986E+07 6.72539E+06 3.74697E+06
 -1       110-2.16179E+07-2.06239E+06 1.12001E+06-2.38410E+07-9.55570E+05 2.11839E+06
 -1       111-3.08720E+07 6.54124E+06-1.45352E+05-1.69849E+07-8.97321E+05-8.45459E+05
 -1       112-1.89715E+07 1.30812E+07 5.35676E+04-1.30029E+07-1.20166E+06-1.99919E+06
 -1       113-4.42967E+06 1.99734E+07 8.50985E+05-1.05093E+07-1.49180E+06-1.79191E+06
 -1       114 1.44638E+05 2.41715E+07-5.32577E+05-3.43059E+06-3.84169E+06-8.17726E+05
 -1       115-2.85827E+06 4.85227E+06-3.49516E+06-1.85651E+06-4.05290E+05 4.74720E+06
 -1       116-1.87951E+07 4.72902E+06 2.49770E+06-1.16254E+07 4.06593E+05 2.08769E+06
 -1       117-2.64973E+07 1.23726E+07-2.26327E+05-1.37128E+07-7.88884E+05-1.24992E+06
 -1       118-1.20880E+07 1.71262E+07 8.86886E+04-1.07304E+07-1.28063E+05-2.19160E+06
 -1       119 8.25165E+04 2.52604E+07 6.05918E+05-5.92773E+06-3.01008E+05-1.33788E+06
 -1       120 6.02500E+05 2.84667E+07-7.07384E+05-2.31912E+06-2.37683E+06 1.70227E+05
 -1       121 3.11367E+07 1.04039E+08 1.94455E+07-1.38672E+07-3.48371E+07 8.62940E+06
 -1       122-3.53054E+07 1.96526E+07 2.91861E+05-9.58263E+06 3.59734E+05 1.40175E+06
 -1       123-2.28305E+07 7.46216E+06-2.74680E+06-1.62279E+07 1.38013E+06-9.44209E+05
 -1       124-6.24415E+06 1.19525E+07 3.40068E+05-1.02607E+07 9.84978E+05-2.47253E+06
 -1       125 7.73172E+06 1.99058E+07-4.66787E+05 1.81237E+06 1.48225E+06-8.73833E+05
 -1       126 1.89785E+06 3.43306E+07-5.03017E+05 5.28726E+06 1.76202E+06 1.16319E+06
 -1       127-2.28853E+08 2.26016E+08-2.25278E+06 1.73912E+06 1.21602E+08 1.28020E+08
 -1       128-1.24702E+08-3.07635E+07-1.90614E+07 9.76587E+06 7.45199E+06-3.77504E+07
 -1       129-2.68675E+07 2.02320E+06 1.73990E+06-9.29299E+06 4.11029E+06-1.16322E+07
 -1       130-1.42469E+06 7.99784E+05 2.30049E+06-4.92271E+06 5.39821E+05-8.98454E+06
 -1       131 1.88020E+07 4.44478E+05-1.10541E+06 3.09747E+06 2.31433E+06-1.17305E+06
 -1       132 1.63870E+07 2.20490E+07 1.41155E+07 1.80023E+07 2.42163E+07 2.01970E+07
 -1       133-2.41721E+08 1.27343E+08-8.59626E+07-2.73174E+07-1.26469E+08 3.17883E+08
 -1       134-1.95342E+08 1.66226E+06 4.88619E+07-3.15892E+07-8.77095E+06 2.64339E+07
 -1       135-1.13181E+08-3.52843E+07-4.11896E+07-2.13390E+07-5.69274E+06-5.08344E+06
 -1       136-1.91738E+07 1.23634E+07 1.98980E+07 5.29597E+05 1.09381E+07 1.14275E+06
 -1       137-4.18830E+07-6.23425E+06-1.80175E+07-3.33980E+06-9.62672E+06 1.60882E+07
 -1       138-2.93014E+07-2.01461E+06-5.32293E+06-4.31401E+06-2.54699E+06 9.15415E+06
 -1       139-2.17365E+07 2.68307E+05 6.36879E+05-3.69950E+06-2.46801E+06 4.21611E+04
 -1       140-1.18084E+07 1.14965E+06 3.68377E+06-4.64482E+06 3.77585E+06 8.57286E+06
 -1       141-2.37562E+07-1.00052E+07-1.24777E+07-1.37942E+06-3.76794E+06 1.18369E+07
 -1       142-4.05520E+07 4.49592E+06 1.36740E+07-2.64873E+06-8.26588E+06 1.13211E+07
 -1       143-3.83625E+07 6.30203E+07 1.97113E+07-4.83478E+06-8.04939E+07-4.45673E+07
 -1       144-2.21823E+07 1.23214E+08-5.12565E+07-1.43951E+07 4.61700E+07 3.13309E+07
 -1       145-3.64447E+07-4.16113E+06-1.90528E+07-3.20697E+07-2.29063E+07 2.20056E+07
 -1       146-3.71627E+07-1.11507E+06-1.04024E+05-9.45817E+06-8.39784E+05-5.17661E+06
 -1       147-2.22036E+07 4.18035E+05-2.46224E+06-8.43441E+06-1.42509E+06-9.62926E+05
 -1       148-4.04371E+06 5.32131E+06 2.43436E+05-5.83603E+06-8.50805E+06-6.71525E+06
 -1       149-8.36951E+05 5.30401E+07-1.33463E+07-7.81663E+06-7.91456E+06-4.12245E+06
 -1       150 3.40536E+07 4.77776E+07 4.11660E+07-4.14642E+06 5.12891E+07 1.36226E+07
 -1       151-1.90361E+07-1.89431E+07-1.69560E+06-1.39619E+07-1.10396E+07 3.08668E+07
 -1       152-3.14860E+07 6.63174E+06 9.88868E+06-2.88668E+07 7.60795E+06-1.14410E+07
 -1       153-2.96205E+07 3.13982E+06-7.69336E+05-2.24537E+07 3.05044E+05-5.66740E+06
 -1       154-2.72609E+07-3.26851E+05-1.29971E+06-1.51120E+07-2.57033E+06 8.86284E+05
 -1       155-2.47086E+07 8.29693E+05-9.77450E+05-1.30728E+07-2.87841E+06-4.58678E+05
 -1       156-1.75950E+07 4.12985E+06 1.49450E+06-1.15719E+07-2.43058E+06-4.57485E+06
 -1       157-1.32248E+07 6.70240E+06-9.22086E+05-1.03953E+07-1.62809E+06-9.57991E+05
 -1       158-9.24570E+06 9.52833E+06-2.17316E+06-1.14473E+07 9.92116E+05-2.11100E+05
 -1       159-2.46944E+06 1.04824E+07 4.41970E+06-1.10381E+07-7.61898E+06-7.73104E+06
 -1       160 1.08296E+07 3.28109E+07 1.20489E+07-6.89341E+06-2.52776E+06-2.91396E+06
 -1       161-1.69057E+06-1.07771E+07-8.43271E+06-1.29347E+07 2.81503E+07-1.18347E+07
 -1       162-2.43047E+07-4.41965E+05 4.22690E+06-2.01680E+07 1.83831E+06 2.85596E+05
 -1       163-2.46356E+07 2.65159E+06-3.87414E+05-1.40841E+07-1.53085E+06-1.39810E+06
 -1       164-1.63047E+07 6.77230E+06 2.59604E+05-1.02930E+07-1.36587E+06-3.93921E+06
 -1       165-6.35022E+06 1.21073E+07 3.02395E+05-9.90139E+06-7.80459E+04-2.63538E+06
 -1       166-2.32316E+06 1.12479E+07-4.72181E+06-1.17662E+06-4.11905E+06 2.37713E+06
 -1       167 5.66080E+05 1.40551E+06 4.14303E+06-5.51817E+06 3.98224E+06 1.44232E+07
 -1       168-6.79806E+06 2.71127E+04 3.31964E+06-1.38972E+07 4.15175E+06 1.56431E+06
 -1       169-1.73441E+07-3.74519E+06-2.62997E+06-1.83919E+07-3.25736E+06 4.23978E+06
 -1       170-2.11830E+07 1.32120E+06-3.72073E+05-1.39958E+07-2.45635E+06-4.57076E+05
 -1       171-2.36447E+07 4.88372E+06-3.48656E+05-1.28488E+07-1.67104E+06-1.32905E+06
 -1       172-1.84160E+07 7.76858E+06 8.79157E+04-1.13367E+07-1.76485E+06-1.71440E+06
 -1       173-1.44750E+07 9.86844E+06-8.17899E+04-9.85090E+06-2.11731E+06-3.30798E+06
 -1       174-8.79030E+06 1.20771E+07 1.22322E+05-8.54920E+06-2.17319E+06-2.04297E+06
 -1       175-3.56602E+06 1.45506E+07 4.36520E+04-8.03246E+06-2.84647E+06-3.48186E+06
 -1       176-1.03877E+06 1.88004E+07 4.78174E+05-5.12718E+06-1.41875E+06-6.76574E+05
 -1       177 1.60934E+06 2.01622E+07 4.16577E+06-2.04452E+06-9.87454E+06-3.28451E+06
 -1       178 2.69421E+06 5.67078E+06 6.15925E+06-4.34515E+06 9.75340E+06 8.80795E+06
 -1       179-1.35239E+07 2.77070E+06-2.96068E+05-1.32440E+07 2.97011E+04 5.23834E+06
 -1       180-2.18462E+07 6.15860E+06-3.58273E+05-1.15052E+07-1.01245E+06-2.06180E+06
 -1       181-1.17891E+07 1.15095E+07-9.20791E+04-8.92593E+06-1.22511E+06-3.50082E+06
 -1       182-1.64068E+06 1.73921E+07 9.10392E+05-6.30646E+06-1.23802E+06-2.60366E+06
 -1       183 1.34476E+06 2.05159E+07 2.55362E+06-2.01871E+06-5.18110E+06-2.48251E+05
 -1       184 5.24159E+06 1.37008E+07 1.71687E+07-2.04425E+06 1.44282E+07 1.85171E+07
 -1       185-6.00147E+06 8.33110E+06 1.46021E+06-4.43214E+06-6.69286E+06 1.34315E+06
 -1       186-1.46795E+07 1.29033E+06-6.30178E+05-8.51501E+06 1.73848E+06 3.94646E+06
 -1       187-1.85706E+07 5.54538E+06-3.36311E+04-1.04812E+07-4.97667E+05-3.74535E+05
 -1       188-2.01700E+07 9.57402E+06-8.95257E+04-1.03262E+07-9.65206E+05-1.82742E+06
 -1       189-1.40356E+07 1.14370E+07 1.96749E+05-9.23560E+06-1.02228E+06-1.86675E+06
 -1       190-9.02327E+06 1.30181E+07 2.30276E+05-8.08568E+06-4.63636E+05-3.62452E+06
 -1       191-4.33714E+06 1.55839E+07 4.35165E+04-6.22942E+06-6.06202E+05-1.91115E+06
 -1       192-3.21850E+04 1.89801E+07 8.37863E+05-4.46000E+06 3.15480E+02-1.79807E+06
 -1       193 8.21617E+05 2.22062E+07 2.78794E+05-3.00412E+06-1.87890E+06-1.25749E+06
 -1       194 2.36219E+06 2.35998E+07 3.59713E+06-1.83772E+06-1.74510E+06 1.72335E+06
 -1       195-9.53356E+06-7.88842E+06-1.98789E+07 7.38779E+06-1.49663E+07-1.57082E+07
 -1       196-2.23540E+07 8.54083E+06 3.92621E+06-1.05478E+07-6.01351E+06-6.81374E+05
 -1       197-1.72696E+07 8.41934E+06-5.24796E+05-9.56915E+06 2.83859E+05-1.83135E+06
 -1       198-7.08895E+06 1.15333E+07 5.09326E+05-7.43922E+06-7.82451E+05-4.16385E+06
 -1       199 2.12801E+06 1.70458E+07-8.95078E+05-1.73451E+06-1.40247E+06-2.35429E+06
 -1       200-3.29978E+06 1.69951E+07-4.32928E+06-6.34252E+05-5.98010E+05-1.96337E+05
 -1       201 5.00181E+07 1.05325E+08 5.89228E+07-1.33305E+07-4.04515E+07 1.40477E+07
 -1       202-1.26480E+07 1.54008E+06 1.19555E+07-1.73863E+07 2.20307E+07 3.86369E+07
 -1       203-3.04648E+07 1.91641E+07 7.32401E+05-7.33273E+06-1.61535E+07-1.43271E+07
 -1       204-2.16526E+07 1.27165E+07-3.69723E+06-7.05090E+06-2.00742E+06-7.09351E+06
 -1       205-1.53453E+07 5.71655E+06-2.27042E+05-1.28362E+07 3.49402E+06-7.84471E+05
 -1       206-1.19916E+07 6.51976E+06 5.23261E+04-1.06642E+07 3.06584E+06-7.07246E+05
 -1       207-4.14064E+06 9.69371E+06 1.75597E+06-7.91864E+06 1.22179E+06-4.63987E+06
 -1       208 3.73061E+05 1.14475E+07-7.67870E+05-3.52511E+06 8.31730E+05-3.24227E+06
 -1       209 4.18531E+06 1.34431E+07-5.80422E+06 1.51273E+06-1.67632E+06-4.79448E+06
 -1       210 5.33090E+06 2.19334E+07 5.79188E+06 2.91647E+06 5.31246E+06 2.43270E+06
 -1       211 1.40460E+06 2.65144E+07 1.88989E+06 2.67673E+06 5.73304E+06 2.40430E+06
 -1       212-1.81857E+07 2.25503E+08-7.29954E+07-1.21071E+07-1.57356E+07 3.13574E+07
 -1       213-1.76293E+07 6.23086E+06-1.41116E+07 8.56646E+06 3.86834E+07 2.22512E+07
 -1       214-2.45721E+07 2.10738E+06-7.89807E+05-1.05368E+07 1.77119E+05-9.69383E+06
 -1       215-2.03086E+06 3.62954E+06-2.19935E+06-5.82575E+06 1.29566E+06-4.74088E+06
 -1       216 1.34993E+07 9.69255E+06 6.34455E+06 1.84784E+06 4.13247E+06 4.56158E+05
 -1       217 7.90832E+06 2.83554E+07-8.67804E+04 1.22839E+07 1.37328E+07 5.57752E+06
 -1       218-2.70060E+08 2.65956E+08-7.22086E+06 9.53015E+05 3.16461E+08 3.26981E+08
 -1       219-2.33249E+08 1.71437E+07 7.27018E+07 1.24974E+07 2.58909E+07-1.44072E+07
 -1       220-1.19481E+08-4.88286E+07-5.80944E+07 1.07457E+07 1.21329E+07-4.51560E+07
 -1       221-6.64388E+06 1.07738E+07 1.95660E+07-1.26114E+07-1.67971E+07-2.74945E+07
 -1       222-2.91341E+07-5.48073E+06-1.96876E+07-4.80550E+06 1.84301E+07-5.35023E+06
 -1       223-1.39164E+07-1.51127E+06-3.71588E+06-3.10658E+06 4.85818E+06-8.87585E+06
 -1       224-7.97417E+05 1.88668E+06 6.83196E+06-3.29796E+06 9.00648E+05-1.39478E+07
 -1       225 6.78630E+05-3.42883E+06-2.49069E+06-1.83351E+06-6.51435E+05-5.76324E+06
 -1       226 1.26873E+07-1.75187E+06-2.01191E+06 1.01634E+06 5.35530E+06 1.77568E+06
 -1       227 1.77160E+07 7.25796E+06 1.27726E+06 1.14358E+07 7.68561E+06 1.19322E+07
 -1       228 3.12264E+07 3.79381E+07 4.46204E+07 1.95621E+07 6.62521E+07 5.62827E+07
 -1       229-4.99042E+08 1.88744E+08-1.67415E+08-6.51324E+07-2.04905E+08 5.16925E+08
 -1       230-7.04703E+07-6.00550E+07-6.70442E+07-5.27025E+06-8.91738E+06-6.18506E+06
 -1       231-2.14509E+07 3.95230E+06-2.64751E+07-1.17245E+07-1.35470E+07 2.58543E+07
 -1       232-1.30429E+07 2.68409E+06 4.84897E+05 1.53628E+06-5.01392E+06-1.27570E+06
 -1       233-1.71909E+07-1.98963E+07-2.02660E+07-9.00271E+05-4.49836E+06 1.45328E+07
 -1       234-6.73084E+07 1.22859E+08 3.68885E+07-9.94248E+06-1.29578E+08-7.34194E+07
 -1       235 7.49884E+07 4.00204E+07 6.62892E+07 1.05338E+06 6.09040E+07 1.54478E+07
 -1       236-3.92978E+07 1.81725E+07 1.55988E+07-2.23141E+07 1.96415E+07-2.57048E+07
 -1       237-1.68970E+07-2.08964E+06-6.74408E+05-8.65180E+06-4.72844E+06 3.30311E+06
 -1       238-1.13104E+07 3.53699E+06 3.22495E+06-8.38741E+06-2.56105E+06-6.75519E+06
 -1       239-1.07059E+07 1.07015E+07-3.52950E+06-8.08682E+06 4.09211E+06 2.92909E+06
 -1       240 1.87967E+07 2.18670E+07 1.92119E+07-2.91933E+06-3.21470E+06-3.84931E+06
 -1       241-1.38911E+07-7.02166E+06 4.65639E+06 7.49592E+06 2.47142E+06 2.43643E+07
 -1       242-1.08014E+07-4.11427E+06-5.39197E+06-1.37079E+07-6.50345E+06 5.28594E+06
 -1       243-1.56892E+07 3.56802E+06-2.93742E+03-8.66118E+06-1.66788E+06-1.65983E+06
 -1       244-9.90682E+06 6.52924E+06-2.34567E+05-6.70202E+06-2.75063E+06-4.03664E+06
 -1       245-1.70626E+06 9.47489E+06-5.77788E+05-4.93384E+06-4.17417E+06-4.78203E+06
 -1       246-2.79851E+06 1.11115E+07 5.66182E+06-4.06791E+06-1.39472E+07-5.23558E+06
 -1       247-1.27756E+07-1.52250E+06 2.39154E+07-1.58022E+07 2.37410E+07 2.84805E+07
 -1       248-7.48307E+06-1.38141E+06-2.41734E+06-3.82824E+06 5.47854E+06 6.16562E+06
 -1       249-1.36230E+07 6.72656E+06 1.79366E+05-6.95295E+06-1.67960E+06-2.35317E+06
 -1       250-6.20157E+06 8.45808E+06-1.64132E+04-5.51003E+06-2.55861E+05-4.21124E+06
 -1       251-9.23014E+05 1.26137E+07 8.60327E+05-3.27883E+06 1.48779E+05-2.19132E+06
 -1       252 5.78830E+06 1.70599E+07 6.05968E+06-6.52687E+05-3.83718E+05 3.99198E+06
 -1       253 9.78293E+07 7.23885E+07 9.54858E+07-5.19252E+06-4.77431E+07 1.76831E+07
 -1       254-4.34065E+07 3.65643E+07 1.24861E+06-5.03850E+06-3.58625E+07-3.33831E+07
 -1       255-8.12337E+06 7.30446E+04 1.07509E+06-1.04829E+07 6.34826E+06 1.35101E+06
 -1       256-2.82879E+06 8.21442E+06 3.34166E+06-5.33017E+06 3.14173E+05-6.85282E+06
 -1       257 5.57038E+06 1.19090E+07-9.40458E+06 3.41974E+06-3.13182E+06-6.53877E+06
 -1       258-5.85982E+06 1.13530E+07 3.70358E+06-3.65498E+06 5.44005E+06 1.02287E+06
 -1       259-5.02955E+08 4.95254E+08-1.25942E+07 2.81702E+05 5.15896E+08 5.29184E+08
 -1       260-8.16954E+07-9.74679E+07-9.41556E+07 4.03648E+06 1.52268E+07-5.35151E+07
 -1       261-7.28200E+06 1.58430E+07-2.59781E+07 1.04032E+07 2.82818E+07-1.36850E+06
 -1       262-1.69880E+06 6.73344E+05 8.75240E+06-3.84933E+06 3.39626E+06-1.63693E+07
 -1       263 1.80892E+06-8.54078E+06-2.17994E+06-3.91975E+06 5.11339E+06 1.13944E+06
 -1       264 1.04645E+08 1.17514E+08 9.05926E+07 5.26290E+07 1.14161E+08 9.79905E+07
 -1       265 5.94082E+08 1.52764E+09 5.94082E+08 3.23930E+07 2.09059E+08 2.63049E+02
 -1       266 6.23852E+08 1.60419E+09 6.23853E+08 1.49463E+07 2.59660E+08-5.24530E+02
 -1       267 6.85898E+08 1.76374E+09 6.85898E+08-4.58419E+05 3.07916E+08 4.43322E+02
 -1       268 7.13713E+08 1.83526E+09 7.13713E+08-3.82162E+05 2.88749E+08-2.28986E+02
 -1       269 7.28973E+08 1.87450E+09 7.28973E+08 3.91000E+05 2.07638E+08-3.56471E+01
 -1       270 6.88148E+08 1.76952E+09 6.88148E+08-1.15738E+07 2.64346E+08 2.62823E+02
 -1       271 6.11155E+08 1.57154E+09 6.11156E+08-3.01150E+07 1.19939E+08-8.82636E+01
 -1       272 5.15511E+08 1.32560E+09 5.15512E+08-1.80011E+07 8.69481E+07 3.20896E+02
 -1       273 4.56391E+08 1.17358E+09 4.56392E+08 6.41938E+06 1.85710E+08 1.34455E+02
 -1       274 4.02123E+08 1.03403E+09 4.02123E+08-3.63038E+05 1.68549E+08-2.18306E+02
 -1       275 3.36540E+08 8.65388E+08 3.36540E+08-9.57914E+06 1.15863E+08-6.04697E+01
 -1       276 2.61492E+08 6.72407E+08 2.61492E+08-1.24799E+07 1.21418E+08 5.17183E+02
 -1       277 1.81559E+08 4.66866E+08 1.81559E+08-1.23822E+07 6.93162E+07-3.87527E+02
 -1       278 7.27910E+07 1.87177E+08 7.27910E+07-1.67549E+07 5.24119E+06 3.91386E+02
 -1       279-2.68058E+07-6.89293E+07-2.68056E+07-2.18148E+07-8.41619E+07-2.98998E+02
 -1       280 4.15236E+08 1.17989E+09 3.94299E+08 4.06863E+07-1.04214E+08-6.57590E+07
 -1       281 4.44186E+08 1.30778E+09 3.40344E+08 7.98314E+07-5.77930E+07 1.29632E+07
 -1       282 4.75644E+08 1.45605E+09 3.68158E+08 1.14141E+07-2.33835E+07 1.34637E+07
 -1       283 3.83650E+08 1.29514E+09 2.05383E+08-1.51904E+08-1.50363E+07-1.45793E+07
 -1       284 3.25400E+08 8.79126E+08 1.62237E+08-7.30011E+07-2.29677E+07 1.40977E+07
 -1       285 2.17082E+08 6.74272E+08 1.80979E+08-9.90461E+07-1.13413E+07 1.70893E+07
 -1       286 1.14420E+08 3.41337E+08 9.35973E+07-1.35310E+08-2.63277E+07 2.04551E+06
 -1       287-1.13726E+07-3.40619E+06 4.47659E+06-1.34118E+08-2.95473E+07 9.99818E+06
 -1       288-7.55831E+07-9.14044E+07-1.51430E+08-5.21302E+06 2.88331E+08 9.02550E+06
 -1       289-5.26742E+07 1.47944E+07-2.13151E+08 9.97271E+07 2.92660E+08 9.71348E+06
 -1       290-7.63190E+07 1.26742E+08-2.86297E+08 1.78088E+08 2.20309E+08-1.23494E+07
 -1       291-3.26549E+07 3.72116E+08-2.27876E+08 1.10668E+08 2.26837E+08 3.41571E+07
 -1       292-3.99544E+07 5.05290E+08-2.15141E+08 4.40317E+07 1.45524E+08 1.32019E+07
 -1       293-9.63829E+07 6.70284E+08-2.76702E+08-5.72209E+07 1.34867E+08-1.77797E+07
 -1       294 2.74556E+07 9.03584E+08-2.68663E+08-2.05415E+08 1.84213E+08-1.37824E+07
 -1       295 2.78763E+08 8.02089E+08-1.37069E+08-2.56112E+08 2.20447E+08-8.79668E+07
 -1       296 9.00313E+07 3.84610E+08-2.17161E+08-1.30070E+08 1.21607E+08-1.07776E+07
 -1       297 2.96434E+06 2.69188E+08-1.67428E+08-1.44723E+08 1.16670E+08 9.19033E+06
 -1       298-1.41673E+07 2.14670E+08-8.10606E+07-1.93816E+08 1.08408E+08-6.64674E+06
 -1       299-4.37120E+07 1.06751E+08-8.49645E+07-2.19732E+08 7.52832E+07-8.48993E+06
 -1       300-3.19636E+07 3.57520E+07-6.69688E+07-2.43031E+08 8.00461E+07-3.04766E+06
 -1       301-2.35466E+07 2.55726E+06-3.12772E+07-2.29412E+08 3.83164E+07 2.75458E+06
 -1       302-1.60761E+07-1.72033E+06 1.22459E+07-2.08461E+08-4.55998E+07-8.80578E+06
 -1       303-1.92715E+08-1.29338E+09-2.52350E+08 1.89125E+08-4.08450E+07 3.04233E+07
 -1       304-2.17002E+08-6.69162E+08-9.72022E+07 4.37864E+08-8.06051E+06 1.76377E+07
 -1       305-2.77385E+08 7.41116E+07-1.05229E+08 2.15416E+08 2.40537E+07-7.96206E+06
 -1       306-1.18109E+08 5.00028E+08-7.42722E+07 4.39308E+07-2.92094E+07-7.23650E+07
 -1       307-1.15956E+08 2.28460E+07-9.80298E+07-1.10340E+08 1.05891E+07 4.11325E+07
 -1       308-1.55842E+08-1.30260E+08-4.30600E+07-2.72347E+08-2.55948E+07 3.72007E+06
 -1       309-7.24168E+07-1.71979E+08-3.23837E+07-2.39561E+08-2.76983E+07-3.74638E+06
 -1       310 1.48245E+07-6.26624E+07-1.42896E+06-1.59034E+08-4.34983E+07-6.29756E+06
 -1       311-2.44701E+08 6.15287E+06-1.75115E+07 1.94410E+08 7.61669E+07-1.33267E+08
 -1       312-2.44575E+08-5.31154E+08 2.35308E+07 5.03458E+08 5.48697E+07-1.97792E+07
 -1       313 9.79939E+06-1.19051E+09 1.01588E+08 5.90412E+08-6.32727E+06-7.27224E+07
 -1       314 4.93503E+07-1.24444E+09 1.82600E+08 5.45762E+08 9.12119E+07-3.53325E+07
 -1       315-2.12154E+08-1.23356E+09 1.97464E+08 6.78614E+08 5.52936E+07 2.03855E+08
 -1       316-3.61399E+08-2.79780E+08 2.46007E+08 6.14763E+08-2.22458E+07 1.38545E+08
 -1       317-3.86271E+08 1.23243E+08 1.75163E+08 3.78519E+08 5.82922E+07 8.03843E+07
 -1       318-2.99663E+08 1.79678E+08 1.74278E+08 2.20049E+08 1.05148E+08 5.14684E+07
 -1       319-1.93931E+08 2.53793E+08 1.83697E+08 1.12333E+08 2.10748E+08 3.08731E+06
 -1       320-9.41127E+07 6.86302E+07 1.99008E+08-1.50949E+08 8.59845E+07 1.57453E+07
 -1       321-2.02619E+08-5.97378E+07 1.35261E+08-2.48819E+08 1.02846E+07-5.29656E+07
 -1       322-1.78203E+08-3.55824E+08 6.17704E+07-3.34568E+08 3.91090E+07-7.93840E+06
 -1       323-8.44181E+07-3.45539E+08 5.53227E+07-2.78684E+08 3.74421E+07-3.06922E+07
 -1       324-5.49775E+07-2.95238E+08 4.20634E+07-2.33064E+08 1.28295E+07-4.13240E+07
 -1       325 2.66995E+07-1.68578E+08 3.36872E+07-1.64395E+08 3.63660E+07 2.33335E+07
 -1       326 7.30460E+07-8.63916E+07 2.96576E+06-8.67936E+07-3.78977E+07-1.35460E+06
 -1       327 4.72644E+07 4.82906E+06 6.73164E+06 2.46405E+07-2.16697E+07-5.94849E+07
 -1       328 1.89625E+07 9.53859E+07 9.60583E+06 1.38247E+08 4.02142E+07 2.40477E+07
 -1       329 2.07080E+08-2.50197E+07-3.13124E+07-1.40120E+08-1.11079E+08 3.98361E+07
 -1       330-1.13672E+08-9.50265E+08 1.58193E+07 3.82277E+08-1.42377E+07 4.90377E+06
 -1       331-1.91644E+08-1.87624E+09-1.83154E+08 1.14820E+08 5.65982E+07-1.62784E+08
 -1       332-1.18345E+08-4.84391E+08-1.33928E+07-2.64227E+08 1.16882E+08-3.05347E+07
 -1       333 3.32363E+07-4.27589E+08-2.55217E+07-1.33946E+08 2.54375E+07 1.47417E+06
 -1       334 1.41397E+08-4.85634E+07-1.56327E+07 2.35385E+06 3.00218E+07-1.84679E+06
 -1       335 2.20245E+08 1.15209E+08-9.79992E+06 2.12478E+08 3.31625E+07 2.39648E+07
 -1       336-4.70940E+08-1.83143E+08-1.83144E+08-6.01448E+07-8.07272E+02 9.16512E+07
 -1       337-4.69826E+08-1.41631E+08-1.65817E+08-3.12590E+08 5.33126E+07 9.10387E+07
 -1       338 4.30759E+07 6.85992E+07 4.20516E+07-4.65548E+08-1.48495E+07-1.41247E+07
 -1       339 6.57661E+08 5.49953E+07 9.80050E+07-4.07148E+08-3.68684E+07 1.23147E+08
 -1       340 6.91274E+08-1.49350E+08-6.21218E+07-3.85764E+08 6.40984E+06 1.00811E+08
 -1       341 4.80939E+08-2.74516E+08 4.84967E+07-1.31205E+08 3.26235E+06-8.97460E+07
 -1       342-1.56805E+08-5.85307E+08-1.25354E+07 1.37825E+08 5.92969E+07-5.20916E+07
 -1       343-1.55622E+08-6.48070E+08-3.26840E+07-4.00575E+07-2.58499E+08 2.94423E+08
 -1       344 2.81331E+08-5.81645E+08 1.05356E+08-3.64461E+08-3.79792E+08-1.10683E+08
 -1       345 5.00653E+07-2.66653E+08 3.88044E+07-2.44296E+08-4.15359E+07-6.38751E+07
 -1       346 1.35821E+08-3.13011E+08 1.49464E+07-2.08238E+08-1.08828E+08-6.85602E+07
 -1       347 2.28487E+08-3.44900E+08-2.92505E+06 6.52761E+07-8.77113E+07-5.08637E+07
 -1       348 2.04346E+08-8.85508E+07 2.28090E+06 1.14561E+08-6.24398E+07-3.21933E+07
 -1       349 2.42246E+08 1.05939E+08 7.53758E+06 8.26829E+07 2.05610E+07 1.32734E+07
 -1       350 3.63386E+08 8.71909E+07-1.13369E+07 1.54853E+08-4.13892E+05-4.18378E+06
 -1       351 4.64989E+08 3.95662E+07-4.37671E+07 2.05749E+08 2.15740E+07 9.14856E+06
 -1       352 4.99855E+08 9.79596E+07 1.00776E+08 1.32783E+07-1.42076E+07-9.90437E+06
 -1       353 3.13540E+07 3.31210E+07 6.98702E+07-8.46072E+07 5.86584E+05 1.38319E+08
 -1       354-4.74512E+08-1.66438E+08-1.53558E+08-3.54816E+07 2.12958E+07-2.22617E+07
 -1       355-6.35591E+08-2.47174E+08-2.47174E+08 4.95048E+06-1.88659E+01 1.14299E+08
 -1       356-1.07584E+09-4.18384E+08-4.18384E+08-4.27976E+07 1.08684E+03-1.20616E+08
 -1       357 5.86018E+06 6.44540E+07 1.48856E+08-5.42102E+08-2.25655E+04-2.08233E+08
 -1       358 8.34531E+08-5.24046E+07-1.59039E+08-5.36159E+08 7.74087E+07-1.26336E+08
 -1       359 4.65176E+08-4.86853E+08 8.57811E+06 2.81794E+08-1.21030E+08 2.67635E+08
 -1       360-5.83457E+08 9.28012E+08 2.22816E+08-1.17024E+08 4.25420E+07 2.24072E+08
 -1       361-2.49687E+07 1.79813E+08 5.92142E+07 2.98489E+08-1.07359E+08-4.20345E+07
 -1       362 2.56509E+08 7.54878E+07 8.31779E+06 3.34532E+07-8.92142E+07-7.88305E+07
 -1       363 4.22221E+08 1.83673E+07-5.79023E+07 1.69674E+08 1.13352E+07 2.95906E+07
 -1       364-3.19597E+06 1.71589E+07 7.01367E+07-5.95431E+07-5.41665E+06 1.00019E+08
 -1       365-5.70889E+08-2.22013E+08-2.22013E+08-8.55301E+05 7.83181E+01 1.01299E+08
 -1       366-1.75310E+09-6.81761E+08-6.81761E+08-3.00657E+07-1.06606E+03-2.88157E+08
 -1       367-1.28169E+09-4.42088E+08-3.58882E+08-3.31416E+08-7.86540E+06 8.17550E+07
 -1       368-9.50844E+07 9.14536E+07 2.46537E+08-5.97052E+08-1.59905E+07-2.97130E+08
 -1       369 7.14890E+08 2.75540E+08 1.29994E+08-6.44062E+08-6.00169E+06 8.55070E+07
 -1       370 1.12957E+09 2.31533E+08-1.61099E+08-7.02729E+08-1.43673E+08-5.04349E+07
 -1       371 1.59080E+09 7.04647E+06 9.33134E+07-4.45788E+08 5.13278E+06-9.01733E+07
 -1       372 1.25476E+09-6.20637E+08 1.15923E+07 1.50271E+08-1.40017E+08 3.12295E+08
 -1       373-8.04039E+08 1.20029E+08-2.42886E+08 8.08340E+08-1.00367E+08 3.31780E+08
 -1       374-1.13677E+09 6.50940E+08-1.17510E+08 6.22583E+07-1.25561E+08 4.79776E+08
 -1       375-3.53962E+08 5.67334E+06-5.85721E+06-2.21028E+07-1.80886E+07-7.84797E+07
 -1       376-5.70924E+06-6.11249E+07-2.78257E+07 1.22656E+07 2.62202E+05 1.74204E+07
 -1       377 6.95535E+06-1.89435E+07 1.53554E+07 1.94124E+07-4.59652E+06 2.40913E+07
 -1       378 1.47335E+07 2.86933E+07 1.82229E+06-2.05570E+07 8.94509E+06 7.06144E+05
 -1       379-1.91271E+07 5.54173E+06-3.54268E+06-3.58528E+06 1.15015E+06 9.25325E+06
 -1       380-3.65450E+06 5.86336E+06 2.06696E+06 6.82445E+06 2.86151E+05 9.37136E+06
 -1       381-2.51604E+06-1.22682E+07 1.26918E+06-4.38025E+06-2.84248E+06 7.55857E+06
 -1       382-3.93518E+06-2.35112E+07-9.87832E+06-1.08827E+06 2.22718E+06 9.71277E+06
 -1       383-6.71247E+07 2.21261E+07 5.32405E+06-1.02461E+07-1.23542E+07 4.17784E+07
 -1       384-2.13172E+08 2.75136E+08 2.59012E+07 6.23108E+07-1.26756E+08-4.57579E+07
 -1       385-2.55561E+08 1.46352E+08-6.92206E+07 4.05846E+07-5.85420E+07 2.92281E+07
 -1       386 2.27010E+08-6.13079E+07-3.29321E+07-5.27246E+07 4.87225E+07-1.00474E+08
 -1       387 5.88664E+08 9.30139E+07 6.24599E+07 7.12448E+07 4.55096E+07 2.36041E+07
 -1       388 3.35830E+08 8.78308E+07-5.88666E+07 1.81358E+08-4.41383E+07 2.29986E+07
 -1       389 1.74075E+08 6.67948E+07 1.90163E+07 6.45792E+07 1.22125E+06 8.66654E+06
 -1       390-3.10844E+07 2.06368E+07 7.77116E+07-4.11873E+07 2.30039E+06 6.36124E+07
 -1       391-3.80812E+08-1.31482E+08-1.03124E+08-2.96911E+07-1.25646E+07-1.86816E+07
 -1       392-5.20812E+08-2.02538E+08-2.02538E+08-5.41834E+06-3.19926E+01 8.94872E+07
 -1       393-2.24464E+09-8.72916E+08-8.72916E+08-2.69841E+07 1.38246E+03-4.11615E+08
 -1       394-2.96185E+08 1.57172E+08 2.90731E+08-5.18724E+08-1.21345E+07-2.53910E+08
 -1       395 1.18817E+09 3.17375E+08-1.92596E+08-8.38157E+08-8.66242E+07-1.17586E+08
 -1       396 1.10326E+09-3.78718E+08-4.59163E+07-7.49079E+08-2.40354E+08 3.67620E+08
 -1       397-9.80650E+07 2.08642E+08-1.31112E+07-5.21264E+07 1.53472E+08 4.51965E+07
 -1       398 6.92048E+07 4.09315E+07 1.94396E+07-3.15411E+07 1.44477E+07-2.93838E+07
 -1       399-1.43104E+07 4.19691E+06 4.08665E+05-5.13128E+06-1.53022E+06 1.38455E+06
 -1       400-6.22957E+06 2.36601E+06-1.25417E+06-2.72463E+06-1.11847E+06-4.75695E+06
 -1       401 1.77388E+07 1.49023E+07 9.65866E+06 5.32866E+06 4.39083E+06 3.57861E+06
 -1       402-6.02976E+06 9.11488E+07 3.46077E+06-1.92462E+06 1.92804E+07-7.06357E+06
 -1       403 5.10969E+07 8.35041E+07-5.81463E+07 1.35993E+08-2.99027E+07 5.07525E+06
 -1       404-1.08344E+08 2.46972E+07 6.74503E+07-5.89127E+07 1.41191E+06 5.00056E+07
 -1       405-4.30083E+08-1.67255E+08-1.67255E+08-6.07031E+06-1.02648E+02 7.37142E+07
 -1       406-2.68439E+09-1.04393E+09-1.04393E+09-1.25536E+07-2.24265E+02-3.44185E+08
 -1       407-2.05614E+09-6.51695E+08-5.52317E+08-2.08860E+08 8.62648E+06 5.06038E+07
 -1       408-5.99531E+08 1.27677E+08 2.79636E+08-4.34292E+08-1.52852E+07-3.57233E+08
 -1       409 4.08061E+08 5.41034E+08 1.28579E+08-7.34687E+08 5.23131E+06 6.87421E+07
 -1       410 1.11387E+09 6.14898E+08-2.02036E+08-9.98764E+08-9.17250E+06-9.77845E+07
 -1       411 1.56172E+09 4.13753E+08 4.42779E+07-8.55357E+08-9.08379E+07-3.88562E+08
 -1       412 8.54384E+08-1.45092E+08-1.33017E+08-8.58668E+08-1.95643E+08 1.19776E+08
 -1       413 9.36160E+07 7.81734E+06 2.64499E+07 3.91706E+06 4.81115E+07-8.32525E+06
 -1       414-5.51422E+07-7.33679E+07-3.93626E+07 2.35309E+07 2.55863E+07-2.10362E+07
 -1       415-5.32309E+07 2.29852E+07 3.51267E+06-1.56758E+07-1.14600E+07 2.57859E+07
 -1       416 1.40206E+07 1.95622E+07 9.98645E+06-1.77782E+07-6.87980E+06 6.76650E+06
 -1       417-7.87110E+06-4.88356E+06-2.01241E+06-2.22650E+06-2.59649E+06-5.58151E+06
 -1       418-1.52476E+07-6.38157E+06-4.74931E+06-3.14137E+06-1.88413E+06-2.97938E+06
 -1       419-6.41112E+06 1.57903E+06 1.40388E+06-5.26901E+06-2.89699E+06-3.71712E+06
 -1       420 2.00032E+06 8.95680E+06 2.79792E+06-1.42694E+06-5.18727E+06-4.61522E+06
 -1       421-1.04759E+07 1.33369E+07-6.61079E+05-4.76153E+06-9.06330E+06-8.02669E+06
 -1       422-1.34122E+07-1.83402E+07-7.35522E+06-9.90038E+06 4.75852E+06 3.29586E+06
 -1       423 1.93764E+07 3.58243E+06 5.72152E+06 1.44486E+06-1.02463E+07-9.07818E+05
 -1       424-6.93090E+07 4.01955E+07-2.23293E+07 9.06648E+07-1.64479E+07 6.49240E+07
 -1       425-1.01523E+08 2.68264E+07 2.25494E+07 1.51079E+07 2.19068E+07 1.15340E+07
 -1       426-1.89766E+08-9.00303E+06 4.54506E+07-8.90238E+07 3.44187E+06 2.43055E+07
 -1       427-2.75621E+08-8.10947E+07-4.93277E+07-5.95422E+07 2.20224E+06-1.92290E+06
 -1       428-3.27838E+08-1.27492E+08-1.27493E+08-9.26872E+06 3.94483E+01 2.44913E+07
 -1       429-2.92068E+09-1.13582E+09-1.13582E+09 7.39884E+06-5.98252E+02-4.77134E+08
 -1       430-8.34061E+08 1.35557E+08 4.67797E+08-2.43066E+08 1.16409E+07-3.11846E+08
 -1       431 1.73183E+08 7.23340E+08-3.44799E+08-7.29692E+08-1.88372E+08-8.04287E+07
 -1       432 4.80806E+07-3.47905E+06-2.19795E+06-1.49286E+07 2.36126E+07 1.08926E+07
 -1       433-2.95019E+07-1.92990E+07-5.89388E+06 2.22516E+06-8.38856E+06 1.11013E+07
 -1       434-8.06324E+06 2.30886E+06 1.87687E+04-5.99355E+06-1.49711E+06-3.45670E+06
 -1       435-5.99666E+06 2.18378E+06 1.81429E+05-3.09434E+06-2.38679E+06-4.71400E+06
 -1       436-7.24943E+06-2.00605E+06-2.51672E+06-6.35488E+06-3.99541E+06-5.78438E+06
 -1       437 6.11019E+06 4.78077E+05-4.12546E+06 4.31232E+06-1.21791E+07-2.49206E+06
 -1       438-1.40956E+08-6.40559E+07 3.12936E+07-1.00001E+08 3.42531E+07 3.93182E+07
 -1       439-2.27793E+08-8.85860E+07-8.85862E+07-8.60561E+06-1.28413E+02 1.22736E+07
 -1       440-3.01962E+09-1.17430E+09-1.17430E+09 3.13408E+07 2.59444E+02-3.58702E+08
 -1       441-2.34607E+09-7.71512E+08-4.15422E+08-8.09624E+06 2.85238E+07 4.11532E+07
 -1       442-1.19973E+09-5.13287E+07 5.64706E+08-6.78171E+07-3.48247E+06-3.25820E+08
 -1       443-3.28893E+08 3.65425E+08 2.14951E+08-2.71237E+08 1.45686E+08-3.83797E+07
 -1       444-3.35359E+08 3.22942E+08-5.09036E+08-4.67384E+08 5.74455E+07-2.65957E+08
 -1       445-3.41066E+07-2.15588E+07-7.67887E+06 2.08058E+07 2.87223E+07-2.31078E+06
 -1       446-1.00893E+07-2.14984E+06 2.11247E+06-3.69065E+06-1.18834E+06 2.52806E+06
 -1       447-1.82100E+06-1.73237E+06-1.48705E+06-9.27084E+06 5.95368E+05 2.95357E+06
 -1       448-8.24322E+06 1.04353E+05-5.21268E+05-3.84134E+06-1.45675E+06-8.68029E+05
 -1       449-7.81817E+06 2.18493E+06 2.07758E+05-4.44508E+06-3.14394E+06-1.92805E+06
 -1       450-6.22471E+06 3.11796E+06 3.56998E+05-4.25179E+06-3.32803E+06-2.73017E+06
 -1       451-5.22906E+06 3.31806E+06-8.17830E+04-3.54672E+06-2.81711E+06-4.95873E+06
 -1       452-3.82179E+06 3.87435E+06-3.29517E+05-3.20142E+06-2.61450E+06-2.85675E+06
 -1       453 6.75408E+05 4.96317E+06-1.91966E+04-1.85916E+06-2.09517E+06-3.87301E+06
 -1       454-1.57488E+06 7.08452E+06 1.21484E+06-2.46933E+06-4.42477E+06-1.88867E+06
 -1       455-9.83438E+06-7.21907E+05 6.13461E+05-6.24142E+06-8.03633E+06 1.95067E+06
 -1       456-7.01236E+07-6.86517E+07 3.74313E+07-6.08397E+07 1.18899E+07 1.66129E+07
 -1       457-1.08631E+08-5.67809E+07-8.17130E+06-3.21033E+07-2.81373E+06-5.78123E+06
 -1       458-1.52780E+08-5.94143E+07-5.94144E+07-2.24053E+06-1.24129E+01 3.76361E+07
 -1       459-3.04365E+09-1.18364E+09-1.18365E+09-1.06969E+07 1.66624E+02-2.41416E+08
 -1       460-1.77271E+09-4.97017E+08 3.11893E+08-1.22902E+08-4.82660E+07-4.95341E+08
 -1       461-1.79031E+07 1.36115E+07 3.47361E+06-3.11988E+06 1.15425E+07 2.37889E+06
 -1       462 8.84496E+06 1.20433E+07 6.60703E+06-3.77587E+06-1.52719E+06 1.13545E+06
 -1       463-8.77504E+06 1.01521E+06-6.89703E+05-4.12730E+06-1.47170E+06-1.63381E+06
 -1       464-3.91846E+06 4.47791E+06-6.09663E+04-3.16609E+06-1.93154E+06-5.31245E+06
 -1       465 7.11506E+05 8.09185E+06 2.07375E+06-1.80879E+06-1.56295E+06-3.65243E+06
 -1       466 7.67311E+05 1.05940E+07 7.62070E+05 1.52133E+05-6.44274E+06 3.96166E+05
 -1       467-6.23157E+07-4.74924E+07 1.88373E+07-2.42152E+07-5.56080E+06 2.42733E+07
 -1       468-1.13982E+08-4.43262E+07-4.43263E+07 8.57146E+05 4.64935E+01 7.04326E+06
 -1       469-3.21536E+09-1.25042E+09-1.25042E+09-4.30379E+07-2.41829E+02-3.18712E+08
 -1       470-2.54655E+09-7.82939E+08-4.42342E+08-9.40534E+07-4.07901E+07 3.62721E+07
 -1       471-1.41008E+09 4.18466E+07 5.96724E+08-7.49122E+07-7.28836E+06-3.51714E+08
 -1       472-5.14782E+08 4.38528E+08 2.03283E+08 2.85374E+08-1.83938E+08-4.43298E+07
 -1       473-4.42372E+08 4.09670E+08-5.39719E+08 5.33819E+08-7.84200E+07-3.15804E+08
 -1       474-4.59854E+07-3.33056E+07-6.32132E+06-3.01904E+07-1.08993E+07-7.68357E+06
 -1       475-1.09428E+07 2.75076E+06 7.12514E+05-3.63344E+06 1.34282E+06 2.55648E+06
 -1       476 1.66553E+06-1.60406E+06 6.48512E+05 9.82591E+05-5.63477E+06 2.88664E+06
 -1       477-7.94429E+06 1.36855E+06-2.42258E+05-5.22538E+06-2.96232E+06-1.52761E+06
 -1       478-7.17450E+06 3.76755E+06 2.56469E+05-3.57441E+06-5.58689E+05-2.07377E+06
 -1       479-4.52004E+06 4.43865E+06 2.23256E+05-2.97282E+06-5.90333E+05-2.60232E+06
 -1       480-3.52334E+06 3.82151E+06-5.67264E+05-2.95186E+06-1.23533E+06-5.13289E+06
 -1       481-1.15909E+06 5.80709E+06 5.06333E+05-2.05441E+06-1.20725E+06-3.25127E+06
 -1       482-1.43434E+06 6.59212E+06 1.33842E+06-2.03438E+06-1.76025E+06-3.81230E+06
 -1       483 6.91263E+05 7.56531E+06-1.99571E+06-9.43151E+05-6.46981E+05-2.69588E+05
 -1       484 5.47240E+06 6.38288E+06-1.92326E+06 4.96213E+05-5.58196E+06 3.81384E+04
 -1       485 3.00128E+06 3.95226E+07-1.14117E+07 7.33666E+05-1.58852E+07 9.29624E+06
 -1       486-1.55643E+07 3.22605E+07 4.45519E+06-1.65945E+07-1.27260E+07-2.87530E+06
 -1       487-4.98229E+07 9.88010E+06 1.16949E+07-1.40298E+07 3.75662E+06 1.41601E+07
 -1       488-7.58809E+07-1.93778E+07-1.52330E+07-5.02922E+06-1.16224E+07 5.55758E+05
 -1       489-9.20376E+07-3.57924E+07-3.57925E+07-1.72322E+05-3.33493E+01 9.23878E+06
 -1       490-3.24952E+09-1.26370E+09-1.26370E+09-1.18148E+07 6.66221E+02-5.39070E+08
 -1       491-9.73332E+08 2.41585E+08 5.18348E+08 1.97339E+08-8.60256E+06-3.34219E+08
 -1       492 1.81518E+08 9.15610E+08-3.58069E+08 8.25337E+08 2.30613E+08-1.17481E+08
 -1       493 4.88828E+07-1.18365E+07-1.29904E+07 2.44900E+07 6.94848E+06 1.19647E+07
 -1       494-3.61396E+07-2.82801E+07-1.07655E+07-1.76754E+07 1.04755E+07 1.19175E+07
 -1       495-4.89058E+06 5.30133E+06 1.77120E+04-2.32894E+06-1.32565E+06-4.69110E+06
 -1       496-2.89821E+06 3.26642E+06 6.95805E+05-2.97685E+06-6.73801E+04-5.21782E+06
 -1       497 1.50525E+05 2.15558E+06-3.59696E+06-6.09368E+05-4.06885E+05-2.50078E+06
 -1       498-7.93865E+06 1.31107E+06 3.63446E+05-3.57077E+06 1.16334E+06 1.55438E+06
 -1       499-1.70218E+07 6.31199E+07-3.84714E+06-1.05530E+07 8.73256E+06 6.43863E+06
 -1       500-3.24106E+07 2.92251E+07 1.25562E+07-3.55759E+07-1.21654E+06 6.81976E+05
 -1       501-7.01560E+07-2.72830E+07-2.72829E+07-1.71998E+06-1.58524E+01 1.72014E+07
 -1       502-3.09647E+09-1.20418E+09-1.20418E+09 8.74961E+06 2.91628E+02-3.83180E+08
 -1       503-2.35394E+09-7.37824E+08-6.32373E+08 2.09116E+08 8.01765E+06 6.78440E+07
 -1       504-6.67004E+08 1.97042E+08 3.35055E+08 4.46284E+08 1.31520E+07-4.17080E+08
 -1       505 4.48640E+08 6.77777E+08 1.48736E+08 8.16417E+08 9.74424E+05 6.79599E+07
 -1       506 1.25706E+09 7.81875E+08-2.29065E+08 1.15245E+09 3.52246E+06-1.01429E+08
 -1       507 1.79248E+09 5.26539E+08 3.35582E+07 1.01935E+09 9.25302E+07-4.53411E+08
 -1       508 9.62382E+08-1.46955E+08-2.03251E+08 1.04786E+09 2.02499E+08 1.33643E+08
 -1       509 1.11520E+08 4.95296E+06 3.61141E+07 5.67374E+06-2.17264E+07-5.65743E+06
 -1       510-7.02904E+07-1.07425E+08-4.37523E+07-4.15995E+07-4.22681E+07-2.61759E+07
 -1       511-5.59760E+07 5.34830E+07 1.64414E+06-2.77874E+06 2.38525E+07 2.57475E+07
 -1       512 2.25578E+07 3.15110E+07 1.05826E+07 1.20595E+07 9.96202E+06 9.15440E+06
 -1       513-3.58110E+06-7.72329E+06-2.83766E+06-8.34496E+06 1.11800E+06-8.26412E+06
 -1       514-1.05895E+07-5.81697E+06-3.66498E+06-6.64314E+06 4.04682E+05-5.28492E+06
 -1       515-1.76860E+06 6.44819E+06 3.72012E+06-2.70542E+06 1.96782E+06-6.32869E+06
 -1       516-1.28163E+06 6.25446E+06-1.86685E+06-7.99499E+05 3.09857E+06-2.75554E+06
 -1       517 9.58490E+06 1.29824E+07-5.16975E+06 5.06583E+06 6.42153E+06 7.80453E+05
 -1       518 4.38952E+06 7.18289E+05 1.07861E+07-1.99286E+06-2.08961E+06-4.14138E+06
 -1       519-9.39808E+06 1.56900E+06 1.64293E+07-9.91418E+06 9.05274E+06-2.30677E+06
 -1       520-1.94209E+07 3.19206E+07 1.68826E+06 1.23745E+07-1.88374E+07 8.59938E+06
 -1       521-4.00621E+07 4.45887E+07-4.73377E+06-2.22630E+07-1.32401E+07 1.46267E+06
 -1       522-5.14129E+07 7.37961E+07-3.92352E+06-3.93478E+07-5.65299E+06 5.54939E+06
 -1       523-4.37999E+07 4.95055E+07-1.48912E+06-4.49886E+07 3.28363E+06 3.01214E+06
 -1       524-2.39079E+07 2.47848E+07 4.26302E+06-5.59327E+07-3.52617E+06 1.45560E+06
 -1       525-2.31373E+07 1.11639E+06-4.15712E+06-3.16118E+07-3.64284E+06-2.42860E+06
 -1       526-3.23672E+07-1.25873E+07-1.25873E+07-2.65368E+06 6.69857E+01-8.80259E+06
 -1       527-2.62695E+09-1.02159E+09-1.02159E+09 2.76174E+07-1.53493E+03-4.85658E+08
 -1       528-3.34126E+08 2.03457E+08 3.42080E+08 5.57086E+08 1.23185E+07-2.97096E+08
 -1       529 1.37924E+09 4.03555E+08-2.36245E+08 9.84207E+08 9.73848E+07-1.38386E+08
 -1       530 1.32730E+09-3.35712E+08-2.86556E+07 9.23706E+08 3.00014E+08 4.25181E+08
 -1       531-7.45264E+07 4.07419E+08-1.91090E+06 2.18575E+07-1.70495E+08 4.87138E+07
 -1       532 1.01452E+08 6.72541E+07 4.05175E+07 3.83807E+07-2.68462E+07-4.18751E+07
 -1       533-9.80987E+06 9.48566E+06 1.05317E+05-9.24559E+05 2.80290E+06-4.79484E+06
 -1       534 1.70740E+06 2.50446E+06-2.65776E+06-1.11569E+06 8.35483E+04-8.08087E+06
 -1       535 7.89150E+05 8.59809E+06 1.26799E+07-3.08245E+06-3.02246E+06-6.15815E+06
 -1       536 3.10568E+07 5.74886E+07-1.31146E+07 2.86293E+07 7.11502E+06 4.58164E+06
 -1       537-5.95369E+07 5.57472E+07 1.62304E+06 1.87806E+07 3.73639E+06 1.80752E+07
 -1       538-7.41420E+07 5.23317E+07 8.75041E+06-4.73315E+07-7.37485E+04-6.82116E+05
 -1       539-2.39175E+07 2.44216E+07-9.15047E+06-7.92302E+07 5.19918E+06-1.28469E+07
 -1       540 4.44425E+07 1.72831E+07 1.72832E+07-4.34628E+06-1.25546E+02-4.20103E+06
 -1       541-2.08752E+09-8.11815E+08-8.11815E+08 3.39202E+07 1.21684E+03-3.45800E+08
 -1       542-1.52708E+09-5.24302E+08-4.29041E+08 3.67837E+08 1.02314E+07 9.42976E+07
 -1       543-1.07921E+08 1.17036E+08 2.93243E+08 6.60952E+08 1.65443E+07-3.56488E+08
 -1       544 8.78211E+08 3.64597E+08 1.57886E+08 7.30548E+08 1.38474E+07 1.00222E+08
 -1       545 1.35794E+09 3.18228E+08-2.01562E+08 8.33699E+08 1.98709E+08-7.36236E+07
 -1       546 1.88069E+09 1.91716E+07 1.06001E+08 5.75906E+08-3.54862E+07-9.09316E+07
 -1       547 1.47542E+09-8.32857E+08-1.11384E+06-7.92921E+07 9.92835E+07 3.88449E+08
 -1       548-8.89234E+08 3.75349E+08-2.25788E+08-8.04632E+08 3.37997E+08 2.57741E+08
 -1       549-1.23868E+09 1.22438E+09 3.57944E+06-8.65587E+07 4.38668E+08 4.67450E+08
 -1       550-4.06751E+08 7.62757E+07 8.80735E+06-2.18223E+07 4.18626E+07-1.68148E+08
 -1       551-1.28362E+07-1.15131E+08-4.20250E+07-5.45027E+06-7.05182E+06-2.93359E+07
 -1       552 5.77634E+06-4.67585E+07 1.12285E+07-2.65290E+07 9.06064E+06-1.03614E+07
 -1       553 3.29934E+07 5.43760E+07 9.94975E+06 2.59585E+07-1.10123E+07-3.57390E+07
 -1       554-1.16978E+07 1.10307E+07-3.13133E+06 1.57142E+06 7.69029E+05-1.98571E+07
 -1       555-8.61451E+06-6.12795E+06-4.04898E+06-4.63544E+06 3.74905E+06-1.56002E+07
 -1       556-2.33861E+06-1.22938E+07 1.91500E+06-4.11369E+06 4.39124E+06-6.19665E+06
 -1       557-1.18883E+06-9.31698E+06 1.47833E+07-8.71742E+06-1.51627E+06 1.00124E+06
 -1       558 4.42256E+07 3.28190E+07-1.33779E+07 2.88657E+07 7.52971E+06 8.50884E+06
 -1       559 2.44866E+08 2.74532E+08 5.97199E+07 1.52223E+08 9.56889E+07 8.03665E+07
 -1       560 2.23655E+08 1.82607E+08 4.98734E+07 1.13646E+08 1.49406E+07 1.38793E+06
 -1       561-8.12676E+07-3.36298E+05-1.56693E+07-8.79870E+06 1.92687E+07 1.39787E+07
 -1       562-1.40849E+08-2.06814E+06-1.64743E+07-2.48624E+07-4.22259E+06 3.63690E+06
 -1       563-1.04794E+08 3.35987E+07 1.99707E+07-4.95124E+07 1.26732E+07-8.05733E+06
 -1       564-9.30540E+07 2.49126E+07-1.04273E+07-7.86261E+07 5.94784E+06-6.04057E+06
 -1       565-1.94636E+07 2.73673E+07-2.03877E+07-1.02797E+08 1.65685E+06-1.85494E+07
 -1       566 9.96014E+07 4.92588E+07 3.03805E+07-5.89180E+07-5.93004E+06 1.20569E+06
 -1       567 1.35794E+08 5.28087E+07 5.28088E+07-6.96687E+06 9.49889E+01-3.69223E+07
 -1       568-1.33502E+09-5.19173E+08-5.19173E+08 4.86552E+07-1.24021E+03-1.60529E+08
 -1       569 1.30481E+07 8.42033E+07 1.78742E+08 6.06036E+08 6.35738E+06-2.57593E+08
 -1       570 1.05581E+09-2.33170E+07-1.78258E+08 6.29281E+08-1.06813E+08-1.38790E+08
 -1       571 6.39143E+08-5.80739E+08-1.16746E+07-2.39415E+08 2.93667E+08 2.95318E+08
 -1       572-6.08292E+08 7.59265E+08 2.11090E+08 3.75631E+08 1.16566E+08 2.86306E+08
 -1       573 1.72586E+08 2.28600E+08 5.66241E+07 1.01920E+08 4.47827E+06 3.24505E+06
 -1       574-8.94745E+07-2.89714E+07-4.30717E+06-1.35783E+07 1.59806E+07 4.97160E+07
 -1       575-1.64623E+08 2.24844E+07 2.96161E+07-2.11837E+07-4.91244E+06-3.59935E+06
 -1       576-9.34402E+06 1.90685E+07-2.90470E+07-1.19647E+08-4.36883E+06-4.84237E+07
 -1       577 2.66107E+08 1.03486E+08 1.03486E+08-8.07338E+06-1.43197E+02-5.79412E+07
 -1       578-6.61641E+08-2.57305E+08-2.57306E+08 7.06371E+07 9.45014E+02 8.19702E+07
 -1       579-6.21438E+08-1.85894E+08-2.19887E+08 3.50786E+08-6.67701E+07 1.07674E+08
 -1       580 7.03204E+07 1.04451E+08 6.12693E+07 5.19632E+08 9.71146E+06-4.23143E+07
 -1       581 8.45590E+08 8.07473E+07 1.33631E+08 4.64605E+08 6.17464E+07 1.43563E+08
 -1       582 8.84001E+08-1.90546E+08-6.96538E+07 4.86127E+08 2.26076E+07 9.66766E+07
 -1       583 6.49294E+08-2.59325E+08 3.97693E+07 1.75628E+08-2.66865E+07-1.00552E+08
 -1       584 3.43625E+07-4.96603E+08-4.45111E+06-1.62384E+08-4.74096E+07-6.84203E+07
 -1       585 1.83104E+08-9.64549E+08 3.88531E+06-6.05912E+07 3.00813E+08 3.38031E+08
 -1       586 5.43636E+08-1.57235E+09 3.23646E+07-1.71513E+08 3.59551E+08 6.44260E+07
 -1       587 1.47829E+08-1.22913E+09 4.65870E+07-9.47013E+08 3.90292E+08 2.52677E+08
 -1       588-6.19132E+07-8.47707E+08 1.23608E+08-8.66353E+08 2.15467E+07 1.86672E+08
 -1       589 2.78057E+07-4.61432E+07 5.72185E+06 6.04573E+07 1.12723E+07-2.05735E+07
 -1       590 4.39617E+07-1.12635E+08-2.03832E+06 6.06276E+07 3.05650E+07-1.18976E+07
 -1       591 8.48546E+06-1.45246E+08-1.47690E+07 4.41930E+06 2.76228E+07 1.64608E+07
 -1       592-1.77506E+07-1.27118E+08-3.53339E+06-1.00893E+07 5.99865E+07 8.16127E+06
 -1       593-7.69356E+07-9.20952E+07 3.20688E+06 7.96967E+06-4.85409E+05-8.15250E+05
 -1       594-1.72749E+08-8.02362E+07 3.89409E+06 2.80162E+07 9.95390E+06 7.00189E+06
 -1       595-2.23589E+08-2.16765E+07 3.02499E+07 2.77301E+07 1.26355E+07-1.36759E+07
 -1       596-2.47636E+08-3.82406E+07-5.10528E+07-8.48576E+07-4.92804E+05-1.64153E+07
 -1       597-1.01813E+07 6.40677E+06-4.19957E+07-1.33259E+08 6.07717E+06-9.31221E+07
 -1       598 2.79085E+08 1.05971E+08 8.73462E+07-7.68429E+07 1.59028E+07-3.73974E+06
 -1       599 4.01697E+08 1.56216E+08 1.56216E+08-7.46092E+06 1.43645E+02-1.12958E+08
 -1       600 2.90073E+08 2.01055E+06-2.66715E+07 2.12552E+08 1.28359E+08 3.12437E+07
 -1       601-1.09812E+08-1.13405E+09-8.46415E+06-4.52213E+08-6.69603E+07-3.66535E+07
 -1       602-1.90299E+08-1.94666E+09-1.17399E+08-6.06955E+08-5.79967E+07-8.53407E+07
 -1       603-3.03508E+08-1.41765E+09-5.35991E+07-7.37957E+08-3.36568E+08 4.57038E+07
 -1       604 1.46998E+07-8.69929E+07-6.92036E+05 1.63786E+07-1.61495E+07-1.29822E+07
 -1       605-1.97814E+07-2.16175E+08-1.88224E+07 2.50955E+06-6.23240E+05-5.17733E+06
 -1       606-7.88243E+07-2.12609E+08 2.94655E+06 4.18756E+07 4.81302E+06 9.86354E+06
 -1       607-1.05655E+08-4.25336E+07 6.46794E+06 1.19716E+08 4.97227E+07-1.65048E+07
 -1       608-2.49731E+08 8.60872E+07 1.09139E+06-2.28739E+08-1.59334E+08-1.46080E+08
 -1       609-2.75352E+08-6.67236E+08 3.68607E+07-5.85210E+08-2.86634E+07-2.53143E+07
 -1       610-5.24386E+06-1.47302E+09 1.40746E+08-6.50881E+08 1.07874E+06-2.51730E+06
 -1       611-5.37216E+07-1.33752E+09 2.08529E+08-6.06914E+08-1.25914E+08-9.95357E+07
 -1       612-3.01805E+08-1.27423E+09 2.00205E+08-6.69898E+08-5.18576E+07 9.69947E+07
 -1       613-1.20964E+08-1.21775E+09 1.85084E+08-7.21961E+08-1.89641E+08 1.42995E+08
 -1       614 3.11045E+07-1.26986E+09 1.31497E+08-8.12622E+08-2.01835E+08-9.68901E+07
 -1       615 2.71809E+07-1.08166E+08 5.56782E+06-1.61245E+07 2.49926E+06-3.94548E+06
 -1       616 1.84574E+07-1.30594E+08 1.82073E+07-1.83955E+07-6.34346E+06-1.15241E+06
 -1       617 1.26971E+07-1.62564E+08 2.90043E+07-2.01058E+07-1.11443E+07 3.39964E+06
 -1       618 1.46070E+07-2.18908E+08 3.75597E+07 4.54969E+06-7.37573E+06-1.25290E+06
 -1       619-2.39107E+07-2.75401E+08 3.47533E+07 5.29942E+07-1.31584E+07 1.16349E+07
 -1       620-4.69042E+07-1.25163E+08 9.59992E+06 1.36522E+08-1.76650E+07 4.92009E+07
 -1       621-1.70522E+07-1.23247E+07-1.12285E+07 1.70766E+08 2.12326E+07 2.46120E+07
 -1       622-2.45246E+08-1.43612E+09-2.70385E+08-2.20024E+08 1.30496E+08 8.12991E+07
 -1       623-2.75165E+08-8.33285E+08-1.10756E+08-4.38824E+08-3.59912E+07 2.67763E+07
 -1       624-1.37636E+08-1.35433E+08-8.38027E+07-7.15107E+08-9.02018E+07-7.84296E+07
 -1       625 2.31243E+07-6.78313E+07-1.25352E+07-3.09360E+07 1.65448E+07 6.56628E+06
 -1       626 3.41812E+06-1.34526E+08-1.61232E+07-5.55379E+07-2.56213E+06 5.70105E+06
 -1       627-5.05309E+07-3.00808E+08-6.17461E+07-6.87962E+07-1.03625E+07-4.88347E+06
 -1       628-1.27141E+08-4.46882E+07-2.01974E+08-1.00620E+08-3.29328E+08-6.51096E+06
 -1       629-6.01591E+07-1.86044E+07-2.20123E+08-1.80368E+08-3.33866E+08 2.34419E+07
 -1       630-1.47385E+08-1.29839E+07-2.87180E+08-2.50076E+08-3.38379E+08-6.00537E+05
 -1       631-3.99732E+08 3.42232E+08-3.83757E+08-2.06279E+08-2.76499E+08 4.25155E+06
 -1       632-3.91700E+08 9.83010E+08-3.27469E+08 5.89029E+07-4.34872E+08-7.15401E+07
 -1       633-7.55980E+07 7.92539E+08-2.58908E+08 6.21477E+08-2.12055E+08-2.51570E+08
 -1       634 2.98716E+08 4.01681E+08-2.30156E+08 6.24491E+08-1.29161E+08-9.63618E+07
 -1       635 3.85424E+08 2.65098E+08-8.14534E+07 3.67900E+08-1.39680E+08-5.47182E+07
 -1       636 2.69837E+08 1.65185E+08 2.08749E+07 1.40462E+08 4.46987E+07-5.65340E+07
 -1       637 1.55436E+08 7.96208E+07 1.21132E+06 3.59450E+07-1.97485E+07 1.02282E+06
 -1       638 6.44641E+07 2.87853E+07-2.16834E+06-4.91847E+07-7.59651E+06-3.84182E+06
 -1       639 1.78960E+07-1.03599E+07-2.69254E+07-6.90436E+07-2.82517E+07 5.83525E+06
 -1       640 1.99318E+07-1.56315E+07-2.85888E+07-8.64898E+07-3.07786E+07 1.34488E+06
 -1       641 1.31215E+07-1.10872E+07-3.69783E+07-1.03418E+08-6.16290E+07-5.20196E+06
 -1       642-9.40378E+05-1.67999E+07-5.02702E+07-1.19571E+08-1.01704E+08 6.24006E+06
 -1       643 4.16377E+08 1.30254E+09 4.04366E+08-1.23845E+08 6.39566E+07-1.01736E+08
 -1       644 5.64313E+08 1.59606E+09 4.83766E+08-1.31468E+08 1.10098E+08 6.06652E+07
 -1       645 3.57670E+08 1.72409E+09 3.36374E+08 1.86527E+08 6.09087E+07-6.14889E+06
 -1       646 3.34421E+08 6.79673E+08 7.08126E+07 3.28511E+08 4.99139E+07-5.89379E+07
 -1       647 9.69851E+07 1.25450E+08 1.18163E+07 8.54387E+07-1.29951E+07 4.58349E+07
 -1       648 4.45194E+07 6.37083E+07 1.61648E+07-2.60045E+07 2.00281E+06 9.04501E+06
 -1       649 7.19676E+07 1.67916E+08 5.22711E+07-5.05468E+07 4.38257E+06-6.26614E+06
 -1       650 1.20337E+08 3.22173E+08 1.01251E+08-6.75791E+07 1.25424E+06 1.81443E+07
 -1       651 6.40446E+08 1.64686E+09 6.40447E+08-5.33822E+07-2.05715E+08 4.19417E+02
 -1       652 7.50851E+08 1.93076E+09 7.50851E+08-2.29592E+07-3.07915E+08-6.69604E+02
 -1       653 8.78600E+08 2.25925E+09 8.78600E+08-5.18493E+06-3.95982E+08 6.48837E+02
 -1       654 8.65128E+08 2.22461E+09 8.65128E+08 5.36155E+06-4.30463E+08-5.35981E+02
 -1       655 8.15209E+08 2.09625E+09 8.15209E+08 5.30129E+07-8.91490E+07 9.04549E+02
 -1       656 5.86601E+08 1.50840E+09 5.86601E+08 7.15969E+07-1.98927E+08 7.72839E+02
 -1       657 3.72836E+08 9.58719E+08 3.72836E+08 2.28847E+07-1.87045E+08-6.56416E+01
 -1       658 1.86389E+08 4.79287E+08 1.86390E+08 1.36480E+07 1.71376E+06 6.30401E+01
 -1       659 5.27900E+07 1.35747E+08 5.27909E+07 1.37525E+07-9.60486E+07 2.57399E+02
 -1       660 2.98549E+07 7.67705E+07 2.98552E+07 4.15867E+06 2.14951E+06-3.09538E+01
 -1       661 2.97348E+07 7.64615E+07 2.97351E+07-2.21308E+06-2.44703E+07 1.02740E+02
 -1       662 5.62824E+07 1.44726E+08 5.62824E+07-4.10410E+06-2.27507E+07-7.89164E+01
 -1       663 8.78321E+07 2.25854E+08 8.78322E+07-6.18486E+06-5.05147E+07 5.01024E+01
 -1       664 1.31394E+08 3.37870E+08 1.31394E+08-6.65068E+06-6.87433E+07-9.74088E+01
 -1       665 1.77918E+08 4.57504E+08 1.77918E+08-5.40944E+06-1.17836E+08 1.08418E+02
 -1       666 3.68915E-05 9.32962E-05 3.87123E-05 3.06442E-05 2.07303E+08-7.49148E+02
 -1       667 2.01147E-05 5.17890E-05 2.00579E-05 1.74353E-05 3.02863E+08-2.19650E+02
 -1       668-4.15696E-06-2.01166E-06-1.27484E-05 1.34427E-05 2.01825E+08 1.37274E+02
 -1       669-5.69643E-06-1.22003E-05-8.28458E-06 6.94394E-06 1.11027E+08 1.12626E+02
 -1       670 7.39936E-06 1.29156E-05 1.35479E-05 7.18888E-06 1.79818E+08-1.11251E+02
 -1       671 1.17728E-05 2.19420E-05 2.00940E-05-7.60891E-07 1.13555E+08 2.12790E+02
 -1       672 3.07016E-06 3.80911E-07 1.06876E-05 2.06288E-06 6.81717E+07 3.78896E+02
 -1       673-4.45009E-06-4.45358E-06-1.09202E-05-1.49384E-06-8.38718E+07 4.53725E+02
 -1       674 7.66199E-06 1.45957E-05-6.21621E-05-2.73436E-06 2.91978E+08 5.72763E+06
 -1       675 3.11406E-05 5.00012E-05 6.10866E-05 2.85287E-05 2.25388E+08-1.43772E+07
 -1       676-3.69751E-05 2.15723E-05-4.64083E-05 2.03680E-06 1.47625E+08 1.12738E+07
 -1       677-4.20312E-05-2.66060E-05-6.82835E-05 1.36178E-05 1.82183E+08-1.48413E+07
 -1       678-1.28752E-05 2.37425E-06-5.56742E-05-3.82091E-06 1.20803E+08-7.38020E+06
 -1       679 1.02445E-08-4.65196E-07 2.02316E-05 4.42192E-06 1.10190E+08-4.27107E+06
 -1       680-2.71565E-05-2.89916E-05-7.75863E-05 9.09530E-06 8.12276E+07-1.74680E+06
 -1       681-1.55275E-06-1.04159E-05 5.24474E-06 3.87430E-07-4.55433E+07-7.36936E+06
 -1       682 1.20457E-05 3.21493E-05 1.15355E-04 7.69645E-06 7.17333E+07-1.26817E+08
 -1       683 3.42199E-05 2.26026E-05 1.03093E-04 1.02719E-05-5.97314E+06-6.86615E+07
 -1       684-2.03972E-05 3.66460E-06-1.03983E-04 2.55058E-06 6.31149E+07 2.03781E+08
 -1       685-1.25092E-04-1.12020E-04-3.69173E-04 1.61659E-05 6.83066E+07 7.67180E+07
 -1       686-6.98119E-05 2.07126E-05-1.21742E-05-1.92448E-05 2.22482E+08 1.70717E+06
 -1       687 4.07062E-05 9.33595E-05 1.22878E-04 1.63428E-05 9.53564E+07 1.58329E+07
 -1       688 2.55040E-05 3.19468E-05 1.76438E-04-3.00010E-06 4.23959E+07-8.70944E+06
 -1       689-1.45494E-05-1.16094E-05-4.83524E-05 1.76253E-06 1.36528E+07-4.30483E+07
 -1       690 3.72492E-05 3.63449E-05 9.22047E-05-1.25729E-06-3.90422E+07-3.01692E+06
 -1       691-4.25018E-05-2.10162E-05-9.59602E-05 9.20147E-06 3.74749E+07 2.35569E+07
 -1       692-1.82688E-05-4.58583E-06 1.76579E-06-1.25319E-05 1.36627E+03 9.18300E+07
 -1       693 5.10812E-05 2.94081E-05 5.89704E-05-2.98023E-06-1.08604E+07-1.59286E+07
 -1       694-4.92061E-05-6.68862E-05-1.58134E-04-2.31154E-06 1.24352E+06 1.04143E+08
 -1       695 2.11922E-05-7.96001E-06-1.89876E-05 7.54604E-07 5.42557E+07-4.86903E+07
 -1       696 8.94442E-06 3.24398E-05-4.67598E-05-2.69711E-06-3.84336E+08-1.10773E+08
 -1       697-1.13893E-04-9.07332E-05-3.73416E-04 9.05246E-07-4.34206E+07-6.50527E+07
 -1       698-1.99831E-05-6.35097E-05-2.89682E-05-1.33436E-05-8.91084E+07-5.26005E+07
 -1       699 5.96629E-06 2.33816E-05 6.70344E-05 8.50682E-06 1.98353E+07 1.14640E+07
 -1       700-3.33314E-05-3.34419E-05-5.37078E-05-3.39793E-06 2.07454E+07 9.41101E+06
 -1       701 1.60504E-05 1.14557E-05 3.64799E-05-3.34386E-06 1.07218E+06 1.39880E+08
 -1       702 4.19617E-05 4.52418E-05 1.19884E-04 3.07651E-06 1.56019E+02 1.13429E+08
 -1       703-2.54065E-06-3.05474E-06-8.87364E-06-9.98192E-06 1.01314E+03-2.83994E+08
 -1       704 8.34838E-06 2.79966E-05 1.33531E-04-1.63373E-05-1.26129E+07-3.01703E+08
 -1       705 6.58743E-05 5.38211E-05 1.37744E-04 1.81014E-05-1.47654E+08-5.39195E+07
 -1       706 8.98143E-05 2.37624E-05 1.74183E-04-1.79360E-05-1.45008E+08 3.17813E+08
 -1       707 5.30593E-05 8.34718E-05 1.50394E-04 2.62554E-05-8.48747E+07 4.34151E+08
 -1       708-9.01055E-06-1.33227E-05-3.66522E-05-4.87070E-06 1.05097E+07 6.23172E+07
 -1       709-1.24956E-05-9.17244E-06-3.69942E-05 1.48434E-06 2.80069E+07-2.60143E+07
 -1       710-5.04602E-06-4.34880E-06-2.00673E-05-2.82651E-06 6.73657E+06 2.00402E+07
 -1       711 4.98776E-06 1.05960E-05 3.01630E-05-1.20109E-06 6.06685E+06-3.40881E+04
 -1       712-1.43851E-05-4.33702E-05 2.73787E-05 2.71254E-05-1.18759E+08-3.05734E+07
 -1       713 1.61473E-05 1.61128E-05 3.90951E-05-1.07125E-06 4.88992E+07-1.01987E+08
 -1       714-5.94103E-05-7.97374E-05-1.65545E-04-4.00639E-06-4.31366E+07 2.53472E+07
 -1       715-7.96234E-06-8.36444E-07 4.70853E-06 2.48846E-06 2.71559E+06 6.51095E+07
 -1       716 3.13744E-05 2.82135E-05 6.94422E-05 1.61212E-06-8.62779E+01 8.81311E+07
 -1       717-7.46399E-05-3.28962E-05-4.37358E-05 4.53554E-06 1.95243E+02-3.37259E+08
 -1       718-1.44936E-04-1.28834E-04-4.06803E-04-1.36017E-05-9.66305E+06-3.63020E+08
 -1       719-7.32591E-05-8.44412E-05 3.52537E-06-1.03091E-05-9.77664E+06-1.08127E+08
 -1       720-1.59532E-04-2.60852E-04-7.60894E-04 1.15633E-05-1.98440E+08 1.25749E+08
 -1       721 1.57992E-05 1.64891E-05 2.24446E-05-1.25373E-06 1.89441E+07-2.01942E+07
 -1       722 5.05944E-06 6.47626E-06 1.69581E-05 3.48170E-06-4.17963E+07 7.30241E+07
 -1       723 7.74504E-06 4.73898E-07 1.10494E-05 1.55061E-06 5.35141E+04-1.34523E+07
 -1       724-1.83878E-07-4.21653E-07 9.32235E-06 7.57485E-07-3.20189E+06-2.89971E+05
 -1       725-5.38949E-06-2.55906E-06-1.72117E-05 6.24161E-07-2.09173E+07-1.79959E+07
 -1       726 7.37869E-06 5.99521E-06 3.61315E-05 3.41854E-07-2.20523E+07 1.47621E+06
 -1       727-7.42171E-05-7.56471E-05-1.78589E-04-2.81306E-06-1.36964E+07 6.68674E+07
 -1       728 7.83429E-06 1.01334E-05 1.90471E-05 2.51488E-06 3.53243E+06 2.38186E+07
 -1       729 2.25296E-05 1.82460E-05 4.28259E-05-1.56788E-06-3.38641E+01 2.27892E+07
 -1       730-2.83867E-05-1.58679E-05-2.79117E-05-2.44174E-05-4.55907E+02-3.43298E+08
 -1       731-3.99115E-05-5.56583E-05-2.21860E-04 1.46646E-05 2.53358E+06-3.23530E+08
 -1       732 2.80455E-04 9.37283E-05 5.63785E-04-8.94070E-07 6.04892E+07-2.89894E+08
 -1       733 5.52878E-07 1.89462E-06-1.19440E-05-7.75064E-07 5.31489E+07-3.10491E+07
 -1       734 1.82062E-05 2.00160E-05 5.03665E-05 2.56552E-06 8.18137E+06 1.10907E+06
 -1       735-4.67023E-06-2.41256E-07-1.79270E-05 1.43098E-06-4.31094E+06-2.06004E+06
 -1       736 2.26446E-06 3.12571E-06-9.32325E-07 1.22678E-06-2.36828E+06-5.24224E+06
 -1       737 2.06980E-05 2.34029E-05 7.22517E-05 3.99325E-06-1.12731E+04-2.62274E+06
 -1       738-9.29707E-07-7.10750E-06-1.48502E-05-9.48196E-07-7.45563E+05 8.95994E+06
 -1       739-5.43194E-06-1.12667E-06-1.45007E-05 1.33966E-06 1.12310E+07 1.53283E+07
 -1       740 1.28774E-05 1.16432E-05 2.86773E-05-1.48811E-06-1.83194E+00 3.63515E+07
 -1       741-5.43445E-05-2.74591E-05-4.34639E-05-5.24241E-06 3.94388E+02-3.02217E+08
 -1       742-1.02053E-04-6.79158E-05-6.34572E-06-2.43485E-05-1.26882E+07-3.49201E+08
 -1       743 1.30333E-04 3.43502E-04 6.38467E-04 3.18140E-05-8.29613E+07-3.41256E+08
 -1       744-1.19061E-05-1.73807E-05-4.69225E-05 2.29193E-07-4.60505E+07-4.23678E+07
 -1       745 2.02825E-07 6.10520E-06 1.61384E-05 1.53436E-06-1.62592E+07-3.52699E+05
 -1       746-6.82281E-07-1.97989E-06-1.18076E-05 2.55485E-06 6.59037E+05-1.39678E+06
 -1       747 4.76707E-06 5.18553E-06 7.55404E-06 2.29881E-06-2.09152E+06-5.41493E+06
 -1       748-2.68750E-06 1.62261E-06 1.24560E-06 4.95540E-07-3.19658E+06-4.66886E+06
 -1       749-5.51499E-06-1.29011E-06-3.31354E-05-2.74924E-06-1.08600E+07-5.54021E+06
 -1       750 1.83983E-06-3.80445E-07 1.21951E-05 2.03028E-06-1.56643E+07 1.00747E+07
 -1       751 6.69652E-06 3.33584E-06-1.50369E-05-5.25679E-06 3.24478E+06 1.41629E+07
 -1       752 8.84989E-06 6.46850E-06 1.41455E-05-9.62202E-07-9.59767E+01 8.85367E+06
 -1       753 3.71858E-05 1.27908E-05 8.20216E-06-1.55233E-05-3.42591E+01-3.75331E+08
 -1       754 5.04646E-05-3.01842E-05-9.26403E-05-1.66651E-05 7.34721E+06-4.23828E+08
 -1       755 3.18284E-04 4.37933E-04 1.01647E-03-6.03000E-06 3.46150E+06-1.13589E+08
 -1       756-1.59383E-04 9.28789E-05 2.12960E-04-2.88710E-05 2.06727E+08 1.39850E+08
 -1       757 2.80840E-06-5.82635E-06 2.04307E-05 6.81495E-07 3.14585E+07-2.12972E+07
 -1       758 4.60132E-06 4.47722E-06 5.92925E-06 3.38500E-06 8.04098E+07 8.14272E+07
 -1       759-8.40674E-06 6.24743E-07-7.55209E-06 1.85895E-07-4.07587E+06-1.75287E+07
 -1       760 5.55633E-06 6.20907E-06 5.82512E-06-1.24171E-06 4.00224E+06-5.25193E+06
 -1       761-6.31026E-06-5.29734E-06-1.86430E-05-4.94287E-06 1.42884E+07 7.10009E+06
 -1       762 9.47800E-06 1.96672E-05 1.19191E-05 6.10261E-06 1.63973E+07-6.03348E+05
 -1       763 1.16415E-05-7.37375E-06-1.27638E-05-7.93021E-06-1.86860E+07 8.45863E+06
 -1       764 8.86930E-07 6.39291E-06 9.09117E-06 1.28616E-06-5.01670E+06 5.66203E+06
 -1       765-2.01608E-05-9.52113E-06-3.22518E-05-3.65349E-06-3.90931E+06 1.54142E+06
 -1       766-1.17952E-05-6.10924E-06-9.87318E-06 1.47813E-06-6.14919E+01-8.87028E+06
 -1       767 2.54996E-05 1.60374E-06-1.89859E-05-3.02903E-05-1.15732E+03-3.40911E+08
 -1       768 4.07398E-05 1.70432E-07 8.70053E-06-3.27956E-05 1.27175E+07-3.62145E+08
 -1       769 2.03542E-04 1.36720E-04 2.99016E-04-1.33943E-05 2.03229E+08-7.75989E+07
 -1       770 3.54600E-04 4.58373E-04 6.72009E-04 2.12593E-05 1.04135E+08 3.95070E+08
 -1       771 1.61117E-04 5.44547E-05 2.27382E-04-9.05804E-06 3.81019E+08 4.15045E+08
 -1       772 2.08442E-05 1.53545E-05 4.20704E-05-4.38665E-06-2.19451E+07 2.27388E+07
 -1       773 1.46121E-05 5.42984E-06 1.20401E-05-2.55855E-06-4.81147E+07-6.72457E+07
 -1       774 4.73007E-06 7.32746E-06 1.22841E-05 1.32036E-06 1.40176E+06-1.27115E+07
 -1       775-1.96949E-05-6.68016E-06-5.91855E-06-2.97403E-06-2.54560E+06 4.61874E+06
 -1       776-1.10172E-04 2.16250E-05-2.50805E-05-2.49743E-05 7.74174E+07 6.31985E+07
 -1       777-5.32658E-05-3.38912E-07 6.34682E-05 1.70883E-05 1.98070E+07 1.51450E+07
 -1       778 5.10924E-06 4.63338E-05 8.35734E-05-2.47377E-06 1.35925E+07-8.30836E+06
 -1       779 2.05822E-06 2.18357E-05 6.32055E-05-7.26013E-06 1.27820E+06-1.88864E+07
 -1       780-3.32575E-05-2.11792E-05-4.22318E-05-2.56812E-06-1.31107E+02-3.65426E+07
 -1       781 1.32546E-04 4.47780E-05 2.73697E-05-3.22834E-05-1.59425E+03 8.21741E+07
 -1       782 1.44430E-04 8.34893E-05 2.80888E-04-6.65709E-06 5.02173E+06-4.45401E+07
 -1       783 2.01376E-04 2.11580E-04 6.20868E-04-2.21875E-05 2.89256E+07 9.94915E+07
 -1       784 1.99464E-04 2.63109E-04 5.59056E-04 2.62111E-05-4.12080E+07-6.34948E+07
 -1       785 1.19937E-04 8.25773E-05 3.54640E-04 3.11459E-05 3.64865E+08 6.69533E+07
 -1       786-8.50111E-06-1.23918E-04-3.80336E-04-2.20388E-05 2.32327E+07 1.87651E+08
 -1       787 3.50053E-05 2.25697E-05 6.35314E-05 1.67242E-06 1.15656E+07-2.03603E+07
 -1       788 1.95896E-05 2.52341E-05 2.59380E-05 9.45630E-06 2.90464E+07 1.68358E+07
 -1       789 2.21556E-05-4.35615E-06 4.73386E-05-8.29372E-07 4.53591E+05-1.79487E+05
 -1       790 1.21247E-05 4.53396E-05 4.19953E-06-7.18981E-06 1.27264E+07-1.39180E+07
 -1       791-2.16737E-05 2.24439E-05 4.84986E-05 3.59304E-06 5.76831E+06-9.39569E+07
 -1       792-6.62655E-05-2.92100E-05-3.83668E-05-8.59704E-06-6.11775E+01-1.12271E+08
 -1       793 1.10850E-04 1.09583E-04 2.89026E-04-4.34369E-06-1.54099E+08-1.37527E+08
 -1       794-1.12445E-04-5.97437E-05-3.56264E-04 1.17744E-05 1.92425E+06 1.31000E+06
 -1       795-1.05736E-04-1.69719E-04-4.93380E-04 1.81869E-05-5.66010E+07 9.63538E+07
 -1       796 7.65137E-05-3.41330E-07 2.56323E-04 4.08143E-05-2.09180E+08-9.96361E+07
 -1       797 7.21758E-06 6.59749E-06-1.37771E-05-3.32145E-06 2.16955E+06-3.22587E+06
 -1       798-3.05511E-05-2.28924E-05-5.78171E-05-1.89000E-06-1.15937E+07 4.16045E+06
 -1       799 7.90895E-06-1.48954E-05 2.43158E-05 2.17433E-06-1.33147E+07 1.14871E+07
 -1       800 9.98192E-06 2.21655E-05 9.07842E-06 3.33041E-06 1.95161E+07 2.25646E+07
 -1       801-2.10386E-05-1.79559E-05 6.65709E-06-1.13761E-05-3.34007E+08-8.00101E+06
 -1       802-7.64243E-06-4.21156E-05-4.83170E-06 2.27022E-05-3.43791E+08-3.45745E+06
 -1       803-2.58088E-05-1.03038E-04-1.08230E-04-2.54375E-06-4.34799E+08-7.39819E+07
 -1       804 2.73888E-05 4.16646E-05 5.23417E-05 4.33787E-06-1.21983E+08-9.30602E+07
 -1       805-1.73475E-05-1.90376E-05-3.06586E-05 1.39698E-07 4.63984E+07-5.31816E+07
 -1       806-1.61899E-05-2.40964E-06-4.42276E-05-3.60360E-06-7.59685E+06-3.45087E+06
 -1       807-5.57932E-06-1.22543E-05-2.38863E-05 5.40260E-06-3.13776E+07 1.20149E+06
 -1       808-9.79751E-07-1.94535E-05 2.83867E-06 1.43424E-07-1.02704E+08 5.97885E+06
 -1       809-1.22361E-04-1.37180E-04-3.00810E-04 1.63638E-05-2.03132E+08-1.23230E+03
 -1       810-1.75089E-06 1.10269E-06-7.24196E-06 9.23872E-06-3.91910E+08 1.10134E+02
 -1       811 2.26386E-05 6.85453E-07 8.11741E-05-2.94484E-06-8.08510E+07-5.17570E-01
 -1       812 1.00844E-05-7.31647E-06 4.40888E-05-5.79446E-06-1.79867E+08-1.09511E+03
 -1       813 5.50621E-06 7.19167E-06 1.20499E-05 8.36269E-07-9.43490E+07 4.65314E+02
 -1       814-3.26987E-06-9.37842E-07-1.08676E-05 7.08096E-07-2.39945E+07 8.41336E+01
 -1       815-4.29526E-06-2.25008E-06-1.31940E-05 1.48360E-06-5.00143E+07-7.65813E+01
 -1       816 2.03401E-05 1.77473E-05 5.51343E-05 4.45172E-07-1.17075E+08-1.74115E+01
 -1       817-5.94082E+08-1.52764E+09-5.94082E+08-3.23930E+07 2.09059E+08 2.63049E+02
 -1       818-6.23852E+08-1.60419E+09-6.23853E+08-1.49463E+07 2.59660E+08-5.24530E+02
 -1       819-6.85898E+08-1.76374E+09-6.85898E+08 4.58419E+05 3.07916E+08 4.43322E+02
 -1       820-7.13713E+08-1.83526E+09-7.13713E+08 3.82162E+05 2.88749E+08-2.28986E+02
 -1       821-7.28973E+08-1.87450E+09-7.28973E+08-3.91000E+05 2.07638E+08-3.56471E+01
 -1       822-6.88148E+08-1.76952E+09-6.88148E+08 1.15738E+07 2.64346E+08 2.62823E+02
 -1       823-6.11155E+08-1.57154E+09-6.11156E+08 3.01150E+07 1.19939E+08-8.82636E+01
 -1       824-5.15511E+08-1.32560E+09-5.15512E+08 1.80011E+07 8.69481E+07 3.20896E+02
 -1       825-4.56391E+08-1.17358E+09-4.56392E+08-6.41938E+06 1.85710E+08 1.34455E+02
 -1       826-4.02123E+08-1.03403E+09-4.02123E+08 3.63038E+05 1.68549E+08-2.18306E+02
 -1       827-3.36540E+08-8.65388E+08-3.36540E+08 9.57914E+06 1.15863E+08-6.04697E+01
 -1       828-2.61492E+08-6.72407E+08-2.61492E+08 1.24799E+07 1.21418E+08 5.17183E+02
 -1       829-1.81559E+08-4.66866E+08-1.81559E+08 1.23822E+07 6.93162E+07-3.87527E+02
 -1       830-7.27910E+07-1.87177E+08-7.27910E+07 1.67549E+07 5.24119E+06 3.91386E+02
 -1       831 2.68058E+07 6.89293E+07 2.68056E+07 2.18148E+07-8.41619E+07-2.98998E+02
 -1       832-4.15236E+08-1.17989E+09-3.94299E+08-4.06863E+07-1.04214E+08-6.57590E+07
 -1       833-4.44186E+08-1.30778E+09-3.40344E+08-7.98314E+07-5.77930E+07 1.29632E+07
 -1       834-4.75644E+08-1.45605E+09-3.68158E+08-1.14141E+07-2.33835E+07 1.34637E+07
 -1       835-3.83650E+08-1.29514E+09-2.05383E+08 1.51904E+08-1.50363E+07-1.45793E+07
 -1       836-3.25400E+08-8.79126E+08-1.62237E+08 7.30011E+07-2.29677E+07 1.40977E+07
 -1       837-2.17082E+08-6.74272E+08-1.80979E+08 9.90461E+07-1.13413E+07 1.70893E+07
 -1       838-1.14420E+08-3.41337E+08-9.35973E+07 1.35310E+08-2.63277E+07 2.04551E+06
 -1       839 1.13726E+07 3.40619E+06-4.47659E+06 1.34118E+08-2.95473E+07 9.99818E+06
 -1       840 7.55831E+07 9.14044E+07 1.51430E+08 5.21302E+06 2.88331E+08 9.02550E+06
 -1       841 5.26742E+07-1.47944E+07 2.13151E+08-9.97271E+07 2.92660E+08 9.71348E+06
 -1       842 7.63190E+07-1.26742E+08 2.86297E+08-1.78088E+08 2.20309E+08-1.23494E+07
 -1       843 3.26549E+07-3.72116E+08 2.27876E+08-1.10668E+08 2.26837E+08 3.41571E+07
 -1       844 3.99544E+07-5.05290E+08 2.15141E+08-4.40317E+07 1.45524E+08 1.32019E+07
 -1       845 9.63829E+07-6.70284E+08 2.76702E+08 5.72209E+07 1.34867E+08-1.77797E+07
 -1       846-2.74556E+07-9.03584E+08 2.68663E+08 2.05415E+08 1.84213E+08-1.37824E+07
 -1       847-2.78763E+08-8.02089E+08 1.37069E+08 2.56112E+08 2.20447E+08-8.79668E+07
 -1       848-9.00313E+07-3.84610E+08 2.17161E+08 1.30070E+08 1.21607E+08-1.07776E+07
 -1       849-2.96434E+06-2.69188E+08 1.67428E+08 1.44723E+08 1.16670E+08 9.19033E+06
 -1       850 1.41673E+07-2.14670E+08 8.10606E+07 1.93816E+08 1.08408E+08-6.64674E+06
 -1       851 4.37120E+07-1.06751E+08 8.49645E+07 2.19732E+08 7.52832E+07-8.48993E+06
 -1       852 3.19636E+07-3.57520E+07 6.69688E+07 2.43031E+08 8.00461E+07-3.04766E+06
 -1       853 2.35466E+07-2.55726E+06 3.12772E+07 2.29412E+08 3.83164E+07 2.75458E+06
 -1       854 1.60761E+07 1.72033E+06-1.22459E+07 2.08461E+08-4.55998E+07-8.80578E+06
 -1       855 1.92715E+08 1.29338E+09 2.52350E+08-1.89125E+08-4.08450E+07 3.04233E+07
 -1       856 2.17002E+08 6.69162E+08 9.72022E+07-4.37864E+08-8.06051E+06 1.76377E+07
 -1       857 2.77385E+08-7.41116E+07 1.05229E+08-2.15416E+08 2.40537E+07-7.96206E+06
 -1       858 1.18109E+08-5.00028E+08 7.42722E+07-4.39308E+07-2.92094E+07-7.23650E+07
 -1       859 1.15956E+08-2.28460E+07 9.80298E+07 1.10340E+08 1.05891E+07 4.11325E+07
 -1       860 1.55842E+08 1.30260E+08 4.30600E+07 2.72347E+08-2.55948E+07 3.72007E+06
 -1       861 7.24168E+07 1.71979E+08 3.23837E+07 2.39561E+08-2.76983E+07-3.74638E+06
 -1       862-1.48245E+07 6.26624E+07 1.42896E+06 1.59034E+08-4.34983E+07-6.29756E+06
 -1       863 2.44701E+08-6.15287E+06 1.75115E+07-1.94410E+08 7.61669E+07-1.33267E+08
 -1       864 2.44575E+08 5.31154E+08-2.35308E+07-5.03458E+08 5.48697E+07-1.97792E+07
 -1       865-9.79939E+06 1.19051E+09-1.01588E+08-5.90412E+08-6.32727E+06-7.27224E+07
 -1       866-4.93503E+07 1.24444E+09-1.82600E+08-5.45762E+08 9.12119E+07-3.53325E+07
 -1       867 2.12154E+08 1.23356E+09-1.97464E+08-6.78614E+08 5.52936E+07 2.03855E+08
 -1       868 3.61399E+08 2.79780E+08-2.46007E+08-6.14763E+08-2.22458E+07 1.38545E+08
 -1       869 3.86271E+08-1.23243E+08-1.75163E+08-3.78519E+08 5.82922E+07 8.03843E+07
 -1       870 2.99663E+08-1.79678E+08-1.74278E+08-2.20049E+08 1.05148E+08 5.14684E+07
 -1       871 1.93931E+08-2.53793E+08-1.83697E+08-1.12333E+08 2.10748E+08 3.08731E+06
 -1       872 9.41127E+07-6.86302E+07-1.99008E+08 1.50949E+08 8.59845E+07 1.57453E+07
 -1       873 2.02619E+08 5.97378E+07-1.35261E+08 2.48819E+08 1.02846E+07-5.29656E+07
 -1       874 1.78203E+08 3.55824E+08-6.17704E+07 3.34568E+08 3.91090E+07-7.93840E+06
 -1       875 8.44181E+07 3.45539E+08-5.53227E+07 2.78684E+08 3.74421E+07-3.06922E+07
 -1       876 5.49775E+07 2.95238E+08-4.20634E+07 2.33064E+08 1.28295E+07-4.13240E+07
 -1       877-2.66995E+07 1.68578E+08-3.36872E+07 1.64395E+08 3.63660E+07 2.33335E+07
 -1       878-7.30460E+07 8.63916E+07-2.96576E+06 8.67936E+07-3.78977E+07-1.35460E+06
 -1       879-4.72644E+07-4.82906E+06-6.73164E+06-2.46405E+07-2.16697E+07-5.94849E+07
 -1       880-1.89625E+07-9.53859E+07-9.60583E+06-1.38247E+08 4.02142E+07 2.40477E+07
 -1       881-2.07080E+08 2.50197E+07 3.13124E+07 1.40120E+08-1.11079E+08 3.98361E+07
 -1       882 1.13672E+08 9.50265E+08-1.58193E+07-3.82277E+08-1.42377E+07 4.90377E+06
 -1       883 1.91644E+08 1.87624E+09 1.83154E+08-1.14820E+08 5.65982E+07-1.62784E+08
 -1       884 1.18345E+08 4.84391E+08 1.33928E+07 2.64227E+08 1.16882E+08-3.05347E+07
 -1       885-3.32363E+07 4.27589E+08 2.55217E+07 1.33946E+08 2.54375E+07 1.47417E+06
 -1       886-1.41397E+08 4.85634E+07 1.56327E+07-2.35385E+06 3.00218E+07-1.84679E+06
 -1       887-2.20245E+08-1.15209E+08 9.79992E+06-2.12478E+08 3.31625E+07 2.39648E+07
 -1       888 4.70940E+08 1.83143E+08 1.83144E+08 6.01448E+07-8.07272E+02 9.16512E+07
 -1       889 4.69826E+08 1.41631E+08 1.65817E+08 3.12590E+08 5.33126E+07 9.10387E+07
 -1       890-4.30759E+07-6.85992E+07-4.20516E+07 4.65548E+08-1.48495E+07-1.41247E+07
 -1       891-6.57661E+08-5.49953E+07-9.80050E+07 4.07148E+08-3.68684E+07 1.23147E+08
 -1       892-6.91274E+08 1.49350E+08 6.21218E+07 3.85764E+08 6.40984E+06 1.00811E+08
 -1       893-4.80939E+08 2.74516E+08-4.84967E+07 1.31205E+08 3.26235E+06-8.97460E+07
 -1       894 1.56805E+08 5.85307E+08 1.25354E+07-1.37825E+08 5.92969E+07-5.20916E+07
 -1       895 1.55622E+08 6.48070E+08 3.26840E+07 4.00575E+07-2.58499E+08 2.94423E+08
 -1       896-2.81331E+08 5.81645E+08-1.05356E+08 3.64461E+08-3.79792E+08-1.10683E+08
 -1       897-5.00653E+07 2.66653E+08-3.88044E+07 2.44296E+08-4.15359E+07-6.38751E+07
 -1       898-1.35821E+08 3.13011E+08-1.49464E+07 2.08238E+08-1.08828E+08-6.85602E+07
 -1       899-2.28487E+08 3.44900E+08 2.92505E+06-6.52761E+07-8.77113E+07-5.08637E+07
 -1       900-2.04346E+08 8.85508E+07-2.28090E+06-1.14561E+08-6.24398E+07-3.21933E+07
 -1       901-2.42246E+08-1.05939E+08-7.53758E+06-8.26829E+07 2.05610E+07 1.32734E+07
 -1       902-3.63386E+08-8.71909E+07 1.13369E+07-1.54853E+08-4.13892E+05-4.18378E+06
 -1       903-4.64989E+08-3.95662E+07 4.37671E+07-2.05749E+08 2.15740E+07 9.14856E+06
 -1       904-4.99855E+08-9.79596E+07-1.00776E+08-1.32783E+07-1.42076E+07-9.90437E+06
 -1       905-3.13540E+07-3.31210E+07-6.98702E+07 8.46072E+07 5.86584E+05 1.38319E+08
 -1       906 4.74512E+08 1.66438E+08 1.53558E+08 3.54816E+07 2.12958E+07-2.22617E+07
 -1       907 6.35591E+08 2.47174E+08 2.47174E+08-4.95048E+06-1.88659E+01 1.14299E+08
 -1       908 1.07584E+09 4.18384E+08 4.18384E+08 4.27976E+07 1.08684E+03-1.20616E+08
 -1       909-5.86018E+06-6.44540E+07-1.48856E+08 5.42102E+08-2.25655E+04-2.08233E+08
 -1       910-8.34531E+08 5.24046E+07 1.59039E+08 5.36159E+08 7.74087E+07-1.26336E+08
 -1       911-4.65176E+08 4.86853E+08-8.57811E+06-2.81794E+08-1.21030E+08 2.67635E+08
 -1       912 5.83457E+08-9.28012E+08-2.22816E+08 1.17024E+08 4.25420E+07 2.24072E+08
 -1       913 2.49687E+07-1.79813E+08-5.92142E+07-2.98489E+08-1.07359E+08-4.20345E+07
 -1       914-2.56509E+08-7.54878E+07-8.31779E+06-3.34532E+07-8.92142E+07-7.88305E+07
 -1       915-4.22221E+08-1.83673E+07 5.79023E+07-1.69674E+08 1.13352E+07 2.95906E+07
 -1       916 3.19597E+06-1.71589E+07-7.01367E+07 5.95431E+07-5.41665E+06 1.00019E+08
 -1       917 5.70889E+08 2.22013E+08 2.22013E+08 8.55301E+05 7.83181E+01 1.01299E+08
 -1       918 1.75310E+09 6.81761E+08 6.81761E+08 3.00657E+07-1.06606E+03-2.88157E+08
 -1       919 1.28169E+09 4.42088E+08 3.58882E+08 3.31416E+08-7.86540E+06 8.17550E+07
 -1       920 9.50844E+07-9.14536E+07-2.46537E+08 5.97052E+08-1.59905E+07-2.97130E+08
 -1       921-7.14890E+08-2.75540E+08-1.29994E+08 6.44062E+08-6.00169E+06 8.55070E+07
 -1       922-1.12957E+09-2.31533E+08 1.61099E+08 7.02729E+08-1.43673E+08-5.04349E+07
 -1       923-1.59080E+09-7.04647E+06-9.33134E+07 4.45788E+08 5.13278E+06-9.01733E+07
 -1       924-1.25476E+09 6.20637E+08-1.15923E+07-1.50271E+08-1.40017E+08 3.12295E+08
 -1       925 8.04039E+08-1.20029E+08 2.42886E+08-8.08340E+08-1.00367E+08 3.31780E+08
 -1       926 1.13677E+09-6.50940E+08 1.17510E+08-6.22583E+07-1.25561E+08 4.79776E+08
 -1       927 3.53962E+08-5.67334E+06 5.85721E+06 2.21028E+07-1.80886E+07-7.84797E+07
 -1       928 5.70924E+06 6.11249E+07 2.78257E+07-1.22656E+07 2.62202E+05 1.74204E+07
 -1       929-6.95535E+06 1.89435E+07-1.53554E+07-1.94124E+07-4.59652E+06 2.40913E+07
 -1       930-1.47335E+07-2.86933E+07-1.82229E+06 2.05570E+07 8.94509E+06 7.06144E+05
 -1       931 1.91271E+07-5.54173E+06 3.54268E+06 3.58528E+06 1.15015E+06 9.25325E+06
 -1       932 3.65450E+06-5.86336E+06-2.06696E+06-6.82445E+06 2.86151E+05 9.37136E+06
 -1       933 2.51604E+06 1.22682E+07-1.26918E+06 4.38025E+06-2.84248E+06 7.55857E+06
 -1       934 3.93518E+06 2.35112E+07 9.87832E+06 1.08827E+06 2.22718E+06 9.71277E+06
 -1       935 6.71247E+07-2.21261E+07-5.32405E+06 1.02461E+07-1.23542E+07 4.17784E+07
 -1       936 2.13172E+08-2.75136E+08-2.59012E+07-6.23108E+07-1.26756E+08-4.57579E+07
 -1       937 2.55561E+08-1.46352E+08 6.92206E+07-4.05846E+07-5.85420E+07 2.92281E+07
 -1       938-2.27010E+08 6.13079E+07 3.29321E+07 5.27246E+07 4.87225E+07-1.00474E+08
 -1       939-5.88664E+08-9.30139E+07-6.24599E+07-7.12448E+07 4.55096E+07 2.36041E+07
 -1       940-3.35830E+08-8.78308E+07 5.88666E+07-1.81358E+08-4.41383E+07 2.29986E+07
 -1       941-1.74075E+08-6.67948E+07-1.90163E+07-6.45792E+07 1.22125E+06 8.66654E+06
 -1       942 3.10844E+07-2.06368E+07-7.77116E+07 4.11873E+07 2.30039E+06 6.36124E+07
 -1       943 3.80812E+08 1.31482E+08 1.03124E+08 2.96911E+07-1.25646E+07-1.86816E+07
 -1       944 5.20812E+08 2.02538E+08 2.02538E+08 5.41834E+06-3.19926E+01 8.94872E+07
 -1       945 2.24464E+09 8.72916E+08 8.72916E+08 2.69841E+07 1.38246E+03-4.11615E+08
 -1       946 2.96185E+08-1.57172E+08-2.90731E+08 5.18724E+08-1.21345E+07-2.53910E+08
 -1       947-1.18817E+09-3.17375E+08 1.92596E+08 8.38157E+08-8.66242E+07-1.17586E+08
 -1       948-1.10326E+09 3.78718E+08 4.59163E+07 7.49079E+08-2.40354E+08 3.67620E+08
 -1       949 9.80650E+07-2.08642E+08 1.31112E+07 5.21264E+07 1.53472E+08 4.51965E+07
 -1       950-6.92048E+07-4.09315E+07-1.94396E+07 3.15411E+07 1.44477E+07-2.93838E+07
 -1       951 1.43104E+07-4.19691E+06-4.08665E+05 5.13128E+06-1.53022E+06 1.38455E+06
 -1       952 6.22957E+06-2.36601E+06 1.25417E+06 2.72463E+06-1.11847E+06-4.75695E+06
 -1       953-1.77388E+07-1.49023E+07-9.65866E+06-5.32866E+06 4.39083E+06 3.57861E+06
 -1       954 6.02976E+06-9.11488E+07-3.46077E+06 1.92462E+06 1.92804E+07-7.06357E+06
 -1       955-5.10969E+07-8.35041E+07 5.81463E+07-1.35993E+08-2.99027E+07 5.07525E+06
 -1       956 1.08344E+08-2.46972E+07-6.74503E+07 5.89127E+07 1.41191E+06 5.00056E+07
 -1       957 4.30083E+08 1.67255E+08 1.67255E+08 6.07031E+06-1.02648E+02 7.37142E+07
 -1       958 2.68439E+09 1.04393E+09 1.04393E+09 1.25536E+07-2.24265E+02-3.44185E+08
 -1       959 2.05614E+09 6.51695E+08 5.52317E+08 2.08860E+08 8.62648E+06 5.06038E+07
 -1       960 5.99531E+08-1.27677E+08-2.79636E+08 4.34292E+08-1.52852E+07-3.57233E+08
 -1       961-4.08061E+08-5.41034E+08-1.28579E+08 7.34687E+08 5.23131E+06 6.87421E+07
 -1       962-1.11387E+09-6.14898E+08 2.02036E+08 9.98764E+08-9.17250E+06-9.77845E+07
 -1       963-1.56172E+09-4.13753E+08-4.42779E+07 8.55357E+08-9.08379E+07-3.88562E+08
 -1       964-8.54384E+08 1.45092E+08 1.33017E+08 8.58668E+08-1.95643E+08 1.19776E+08
 -1       965-9.36160E+07-7.81734E+06-2.64499E+07-3.91706E+06 4.81115E+07-8.32525E+06
 -1       966 5.51422E+07 7.33679E+07 3.93626E+07-2.35309E+07 2.55863E+07-2.10362E+07
 -1       967 5.32309E+07-2.29852E+07-3.51267E+06 1.56758E+07-1.14600E+07 2.57859E+07
 -1       968-1.40206E+07-1.95622E+07-9.98645E+06 1.77782E+07-6.87980E+06 6.76650E+06
 -1       969 7.87110E+06 4.88356E+06 2.01241E+06 2.22650E+06-2.59649E+06-5.58151E+06
 -1       970 1.52476E+07 6.38157E+06 4.74931E+06 3.14137E+06-1.88413E+06-2.97938E+06
 -1       971 6.41112E+06-1.57903E+06-1.40388E+06 5.26901E+06-2.89699E+06-3.71712E+06
 -1       972-2.00032E+06-8.95680E+06-2.79792E+06 1.42694E+06-5.18727E+06-4.61522E+06
 -1       973 1.04759E+07-1.33369E+07 6.61079E+05 4.76153E+06-9.06330E+06-8.02669E+06
 -1       974 1.34122E+07 1.83402E+07 7.35522E+06 9.90038E+06 4.75852E+06 3.29586E+06
 -1       975-1.93764E+07-3.58243E+06-5.72152E+06-1.44486E+06-1.02463E+07-9.07818E+05
 -1       976 6.93090E+07-4.01955E+07 2.23293E+07-9.06648E+07-1.64479E+07 6.49240E+07
 -1       977 1.01523E+08-2.68264E+07-2.25494E+07-1.51079E+07 2.19068E+07 1.15340E+07
 -1       978 1.89766E+08 9.00303E+06-4.54506E+07 8.90238E+07 3.44187E+06 2.43055E+07
 -1       979 2.75621E+08 8.10947E+07 4.93277E+07 5.95422E+07 2.20224E+06-1.92290E+06
 -1       980 3.27838E+08 1.27492E+08 1.27493E+08 9.26872E+06 3.94483E+01 2.44913E+07
 -1       981 2.92068E+09 1.13582E+09 1.13582E+09-7.39884E+06-5.98252E+02-4.77134E+08
 -1       982 8.34061E+08-1.35557E+08-4.67797E+08 2.43066E+08 1.16409E+07-3.11846E+08
 -1       983-1.73183E+08-7.23340E+08 3.44799E+08 7.29692E+08-1.88372E+08-8.04287E+07
 -1       984-4.80806E+07 3.47905E+06 2.19795E+06 1.49286E+07 2.36126E+07 1.08926E+07
 -1       985 2.95019E+07 1.92990E+07 5.89388E+06-2.22516E+06-8.38856E+06 1.11013E+07
 -1       986 8.06324E+06-2.30886E+06-1.87687E+04 5.99355E+06-1.49711E+06-3.45670E+06
 -1       987 5.99666E+06-2.18378E+06-1.81429E+05 3.09434E+06-2.38679E+06-4.71400E+06
 -1       988 7.24943E+06 2.00605E+06 2.51672E+06 6.35488E+06-3.99541E+06-5.78438E+06
 -1       989-6.11019E+06-4.78077E+05 4.12546E+06-4.31232E+06-1.21791E+07-2.49206E+06
 -1       990 1.40956E+08 6.40559E+07-3.12936E+07 1.00001E+08 3.42531E+07 3.93182E+07
 -1       991 2.27793E+08 8.85860E+07 8.85862E+07 8.60561E+06-1.28413E+02 1.22736E+07
 -1       992 3.01962E+09 1.17430E+09 1.17430E+09-3.13408E+07 2.59444E+02-3.58702E+08
 -1       993 2.34607E+09 7.71512E+08 4.15422E+08 8.09624E+06 2.85238E+07 4.11532E+07
 -1       994 1.19973E+09 5.13287E+07-5.64706E+08 6.78171E+07-3.48247E+06-3.25820E+08
 -1       995 3.28893E+08-3.65425E+08-2.14951E+08 2.71237E+08 1.45686E+08-3.83797E+07
 -1       996 3.35359E+08-3.22942E+08 5.09036E+08 4.67384E+08 5.74455E+07-2.65957E+08
 -1       997 3.41066E+07 2.15588E+07 7.67887E+06-2.08058E+07 2.87223E+07-2.31078E+06
 -1       998 1.00893E+07 2.14984E+06-2.11247E+06 3.69065E+06-1.18834E+06 2.52806E+06
 -1       999 1.82100E+06 1.73237E+06 1.48705E+06 9.27084E+06 5.95368E+05 2.95357E+06
 -1      1000 8.24322E+06-1.04353E+05 5.21268E+05 3.84134E+06-1.45675E+06-8.68029E+05
 -1      1001 7.81817E+06-2.18493E+06-2.07758E+05 4.44508E+06-3.14394E+06-1.92805E+06
 -1      1002 6.22471E+06-3.11796E+06-3.56998E+05 4.25179E+06-3.32803E+06-2.73017E+06
 -1      1003 5.22906E+06-3.31806E+06 8.17830E+04 3.54672E+06-2.81711E+06-4.95873E+06
 -1      1004 3.82179E+06-3.87435E+06 3.29517E+05 3.20142E+06-2.61450E+06-2.85675E+06
 -1      1005-6.75408E+05-4.96317E+06 1.91966E+04 1.85916E+06-2.09517E+06-3.87301E+06
 -1      1006 1.57488E+06-7.08452E+06-1.21484E+06 2.46933E+06-4.42477E+06-1.88867E+06
 -1      1007 9.83438E+06 7.21907E+05-6.13461E+05 6.24142E+06-8.03633E+06 1.95067E+06
 -1      1008 7.01236E+07 6.86517E+07-3.74313E+07 6.08397E+07 1.18899E+07 1.66129E+07
 -1      1009 1.08631E+08 5.67809E+07 8.17130E+06 3.21033E+07-2.81373E+06-5.78123E+06
 -1      1010 1.52780E+08 5.94143E+07 5.94144E+07 2.24053E+06-1.24129E+01 3.76361E+07
 -1      1011 3.04365E+09 1.18364E+09 1.18365E+09 1.06969E+07 1.66624E+02-2.41416E+08
 -1      1012 1.77271E+09 4.97017E+08-3.11893E+08 1.22902E+08-4.82660E+07-4.95341E+08
 -1      1013 1.79031E+07-1.36115E+07-3.47361E+06 3.11988E+06 1.15425E+07 2.37889E+06
 -1      1014-8.84496E+06-1.20433E+07-6.60703E+06 3.77587E+06-1.52719E+06 1.13545E+06
 -1      1015 8.77504E+06-1.01521E+06 6.89703E+05 4.12730E+06-1.47170E+06-1.63381E+06
 -1      1016 3.91846E+06-4.47791E+06 6.09663E+04 3.16609E+06-1.93154E+06-5.31245E+06
 -1      1017-7.11506E+05-8.09185E+06-2.07375E+06 1.80879E+06-1.56295E+06-3.65243E+06
 -1      1018-7.67311E+05-1.05940E+07-7.62070E+05-1.52133E+05-6.44274E+06 3.96166E+05
 -1      1019 6.23157E+07 4.74924E+07-1.88373E+07 2.42152E+07-5.56080E+06 2.42733E+07
 -1      1020 1.13982E+08 4.43262E+07 4.43263E+07-8.57146E+05 4.64935E+01 7.04326E+06
 -1      1021 3.21536E+09 1.25042E+09 1.25042E+09 4.30379E+07-2.41829E+02-3.18712E+08
 -1      1022 2.54655E+09 7.82939E+08 4.42342E+08 9.40534E+07-4.07901E+07 3.62721E+07
 -1      1023 1.41008E+09-4.18466E+07-5.96724E+08 7.49122E+07-7.28836E+06-3.51714E+08
 -1      1024 5.14782E+08-4.38528E+08-2.03283E+08-2.85374E+08-1.83938E+08-4.43298E+07
 -1      1025 4.42372E+08-4.09670E+08 5.39719E+08-5.33819E+08-7.84200E+07-3.15804E+08
 -1      1026 4.59854E+07 3.33056E+07 6.32132E+06 3.01904E+07-1.08993E+07-7.68357E+06
 -1      1027 1.09428E+07-2.75076E+06-7.12514E+05 3.63344E+06 1.34282E+06 2.55648E+06
 -1      1028-1.66553E+06 1.60406E+06-6.48512E+05-9.82591E+05-5.63477E+06 2.88664E+06
 -1      1029 7.94429E+06-1.36855E+06 2.42258E+05 5.22538E+06-2.96232E+06-1.52761E+06
 -1      1030 7.17450E+06-3.76755E+06-2.56469E+05 3.57441E+06-5.58689E+05-2.07377E+06
 -1      1031 4.52004E+06-4.43865E+06-2.23256E+05 2.97282E+06-5.90333E+05-2.60232E+06
 -1      1032 3.52334E+06-3.82151E+06 5.67264E+05 2.95186E+06-1.23533E+06-5.13289E+06
 -1      1033 1.15909E+06-5.80709E+06-5.06333E+05 2.05441E+06-1.20725E+06-3.25127E+06
 -1      1034 1.43434E+06-6.59212E+06-1.33842E+06 2.03438E+06-1.76025E+06-3.81230E+06
 -1      1035-6.91263E+05-7.56531E+06 1.99571E+06 9.43151E+05-6.46981E+05-2.69588E+05
 -1      1036-5.47240E+06-6.38288E+06 1.92326E+06-4.96213E+05-5.58196E+06 3.81384E+04
 -1      1037-3.00128E+06-3.95226E+07 1.14117E+07-7.33666E+05-1.58852E+07 9.29624E+06
 -1      1038 1.55643E+07-3.22605E+07-4.45519E+06 1.65945E+07-1.27260E+07-2.87530E+06
 -1      1039 4.98229E+07-9.88010E+06-1.16949E+07 1.40298E+07 3.75662E+06 1.41601E+07
 -1      1040 7.58809E+07 1.93778E+07 1.52330E+07 5.02922E+06-1.16224E+07 5.55758E+05
 -1      1041 9.20376E+07 3.57924E+07 3.57925E+07 1.72322E+05-3.33493E+01 9.23878E+06
 -1      1042 3.24952E+09 1.26370E+09 1.26370E+09 1.18148E+07 6.66221E+02-5.39070E+08
 -1      1043 9.73332E+08-2.41585E+08-5.18348E+08-1.97339E+08-8.60256E+06-3.34219E+08
 -1      1044-1.81518E+08-9.15610E+08 3.58069E+08-8.25337E+08 2.30613E+08-1.17481E+08
 -1      1045-4.88828E+07 1.18365E+07 1.29904E+07-2.44900E+07 6.94848E+06 1.19647E+07
 -1      1046 3.61396E+07 2.82801E+07 1.07655E+07 1.76754E+07 1.04755E+07 1.19175E+07
 -1      1047 4.89058E+06-5.30133E+06-1.77120E+04 2.32894E+06-1.32565E+06-4.69110E+06
 -1      1048 2.89821E+06-3.26642E+06-6.95805E+05 2.97685E+06-6.73801E+04-5.21782E+06
 -1      1049-1.50525E+05-2.15558E+06 3.59696E+06 6.09368E+05-4.06885E+05-2.50078E+06
 -1      1050 7.93865E+06-1.31107E+06-3.63446E+05 3.57077E+06 1.16334E+06 1.55438E+06
 -1      1051 1.70218E+07-6.31199E+07 3.84714E+06 1.05530E+07 8.73256E+06 6.43863E+06
 -1      1052 3.24106E+07-2.92251E+07-1.25562E+07 3.55759E+07-1.21654E+06 6.81976E+05
 -1      1053 7.01560E+07 2.72830E+07 2.72829E+07 1.71998E+06-1.58524E+01 1.72014E+07
 -1      1054 3.09647E+09 1.20418E+09 1.20418E+09-8.74961E+06 2.91628E+02-3.83180E+08
 -1      1055 2.35394E+09 7.37824E+08 6.32373E+08-2.09116E+08 8.01765E+06 6.78440E+07
 -1      1056 6.67004E+08-1.97042E+08-3.35055E+08-4.46284E+08 1.31520E+07-4.17080E+08
 -1      1057-4.48640E+08-6.77777E+08-1.48736E+08-8.16417E+08 9.74424E+05 6.79599E+07
 -1      1058-1.25706E+09-7.81875E+08 2.29065E+08-1.15245E+09 3.52246E+06-1.01429E+08
 -1      1059-1.79248E+09-5.26539E+08-3.35582E+07-1.01935E+09 9.25302E+07-4.53411E+08
 -1      1060-9.62382E+08 1.46955E+08 2.03251E+08-1.04786E+09 2.02499E+08 1.33643E+08
 -1      1061-1.11520E+08-4.95296E+06-3.61141E+07-5.67374E+06-2.17264E+07-5.65743E+06
 -1      1062 7.02904E+07 1.07425E+08 4.37523E+07 4.15995E+07-4.22681E+07-2.61759E+07
 -1      1063 5.59760E+07-5.34830E+07-1.64414E+06 2.77874E+06 2.38525E+07 2.57475E+07
 -1      1064-2.25578E+07-3.15110E+07-1.05826E+07-1.20595E+07 9.96202E+06 9.15440E+06
 -1      1065 3.58110E+06 7.72329E+06 2.83766E+06 8.34496E+06 1.11800E+06-8.26412E+06
 -1      1066 1.05895E+07 5.81697E+06 3.66498E+06 6.64314E+06 4.04682E+05-5.28492E+06
 -1      1067 1.76860E+06-6.44819E+06-3.72012E+06 2.70542E+06 1.96782E+06-6.32869E+06
 -1      1068 1.28163E+06-6.25446E+06 1.86685E+06 7.99499E+05 3.09857E+06-2.75554E+06
 -1      1069-9.58490E+06-1.29824E+07 5.16975E+06-5.06583E+06 6.42153E+06 7.80453E+05
 -1      1070-4.38952E+06-7.18289E+05-1.07861E+07 1.99286E+06-2.08961E+06-4.14138E+06
 -1      1071 9.39808E+06-1.56900E+06-1.64293E+07 9.91418E+06 9.05274E+06-2.30677E+06
 -1      1072 1.94209E+07-3.19206E+07-1.68826E+06-1.23745E+07-1.88374E+07 8.59938E+06
 -1      1073 4.00621E+07-4.45887E+07 4.73377E+06 2.22630E+07-1.32401E+07 1.46267E+06
 -1      1074 5.14129E+07-7.37961E+07 3.92352E+06 3.93478E+07-5.65299E+06 5.54939E+06
 -1      1075 4.37999E+07-4.95055E+07 1.48912E+06 4.49886E+07 3.28363E+06 3.01214E+06
 -1      1076 2.39079E+07-2.47848E+07-4.26302E+06 5.59327E+07-3.52617E+06 1.45560E+06
 -1      1077 2.31373E+07-1.11639E+06 4.15712E+06 3.16118E+07-3.64284E+06-2.42860E+06
 -1      1078 3.23672E+07 1.25873E+07 1.25873E+07 2.65368E+06 6.69857E+01-8.80259E+06
 -1      1079 2.62695E+09 1.02159E+09 1.02159E+09-2.76174E+07-1.53493E+03-4.85658E+08
 -1      1080 3.34126E+08-2.03457E+08-3.42080E+08-5.57086E+08 1.23185E+07-2.97096E+08
 -1      1081-1.37924E+09-4.03555E+08 2.36245E+08-9.84207E+08 9.73848E+07-1.38386E+08
 -1      1082-1.32730E+09 3.35712E+08 2.86556E+07-9.23706E+08 3.00014E+08 4.25181E+08
 -1      1083 7.45264E+07-4.07419E+08 1.91090E+06-2.18575E+07-1.70495E+08 4.87138E+07
 -1      1084-1.01452E+08-6.72541E+07-4.05175E+07-3.83807E+07-2.68462E+07-4.18751E+07
 -1      1085 9.80987E+06-9.48566E+06-1.05317E+05 9.24559E+05 2.80290E+06-4.79484E+06
 -1      1086-1.70740E+06-2.50446E+06 2.65776E+06 1.11569E+06 8.35483E+04-8.08087E+06
 -1      1087-7.89150E+05-8.59809E+06-1.26799E+07 3.08245E+06-3.02246E+06-6.15815E+06
 -1      1088-3.10568E+07-5.74886E+07 1.31146E+07-2.86293E+07 7.11502E+06 4.58164E+06
 -1      1089 5.95369E+07-5.57472E+07-1.62304E+06-1.87806E+07 3.73639E+06 1.80752E+07
 -1      1090 7.41420E+07-5.23317E+07-8.75041E+06 4.73315E+07-7.37485E+04-6.82116E+05
 -1      1091 2.39175E+07-2.44216E+07 9.15047E+06 7.92302E+07 5.19918E+06-1.28469E+07
 -1      1092-4.44425E+07-1.72831E+07-1.72832E+07 4.34628E+06-1.25546E+02-4.20103E+06
 -1      1093 2.08752E+09 8.11815E+08 8.11815E+08-3.39202E+07 1.21684E+03-3.45800E+08
 -1      1094 1.52708E+09 5.24302E+08 4.29041E+08-3.67837E+08 1.02314E+07 9.42976E+07
 -1      1095 1.07921E+08-1.17036E+08-2.93243E+08-6.60952E+08 1.65443E+07-3.56488E+08
 -1      1096-8.78211E+08-3.64597E+08-1.57886E+08-7.30548E+08 1.38474E+07 1.00222E+08
 -1      1097-1.35794E+09-3.18228E+08 2.01562E+08-8.33699E+08 1.98709E+08-7.36236E+07
 -1      1098-1.88069E+09-1.91716E+07-1.06001E+08-5.75906E+08-3.54862E+07-9.09316E+07
 -1      1099-1.47542E+09 8.32857E+08 1.11384E+06 7.92921E+07 9.92835E+07 3.88449E+08
 -1      1100 8.89234E+08-3.75349E+08 2.25788E+08 8.04632E+08 3.37997E+08 2.57741E+08
 -1      1101 1.23868E+09-1.22438E+09-3.57944E+06 8.65587E+07 4.38668E+08 4.67450E+08
 -1      1102 4.06751E+08-7.62757E+07-8.80735E+06 2.18223E+07 4.18626E+07-1.68148E+08
 -1      1103 1.28362E+07 1.15131E+08 4.20250E+07 5.45027E+06-7.05182E+06-2.93359E+07
 -1      1104-5.77634E+06 4.67585E+07-1.12285E+07 2.65290E+07 9.06064E+06-1.03614E+07
 -1      1105-3.29934E+07-5.43760E+07-9.94975E+06-2.59585E+07-1.10123E+07-3.57390E+07
 -1      1106 1.16978E+07-1.10307E+07 3.13133E+06-1.57142E+06 7.69029E+05-1.98571E+07
 -1      1107 8.61451E+06 6.12795E+06 4.04898E+06 4.63544E+06 3.74905E+06-1.56002E+07
 -1      1108 2.33861E+06 1.22938E+07-1.91500E+06 4.11369E+06 4.39124E+06-6.19665E+06
 -1      1109 1.18883E+06 9.31698E+06-1.47833E+07 8.71742E+06-1.51627E+06 1.00124E+06
 -1      1110-4.42256E+07-3.28190E+07 1.33779E+07-2.88657E+07 7.52971E+06 8.50884E+06
 -1      1111-2.44866E+08-2.74532E+08-5.97199E+07-1.52223E+08 9.56889E+07 8.03665E+07
 -1      1112-2.23655E+08-1.82607E+08-4.98734E+07-1.13646E+08 1.49406E+07 1.38793E+06
 -1      1113 8.12676E+07 3.36298E+05 1.56693E+07 8.79870E+06 1.92687E+07 1.39787E+07
 -1      1114 1.40849E+08 2.06814E+06 1.64743E+07 2.48624E+07-4.22259E+06 3.63690E+06
 -1      1115 1.04794E+08-3.35987E+07-1.99707E+07 4.95124E+07 1.26732E+07-8.05733E+06
 -1      1116 9.30540E+07-2.49126E+07 1.04273E+07 7.86261E+07 5.94784E+06-6.04057E+06
 -1      1117 1.94636E+07-2.73673E+07 2.03877E+07 1.02797E+08 1.65685E+06-1.85494E+07
 -1      1118-9.96014E+07-4.92588E+07-3.03805E+07 5.89180E+07-5.93004E+06 1.20569E+06
 -1      1119-1.35794E+08-5.28087E+07-5.28088E+07 6.96687E+06 9.49889E+01-3.69223E+07
 -1      1120 1.33502E+09 5.19173E+08 5.19173E+08-4.86552E+07-1.24021E+03-1.60529E+08
 -1      1121-1.30481E+07-8.42033E+07-1.78742E+08-6.06036E+08 6.35738E+06-2.57593E+08
 -1      1122-1.05581E+09 2.33170E+07 1.78258E+08-6.29281E+08-1.06813E+08-1.38790E+08
 -1      1123-6.39143E+08 5.80739E+08 1.16746E+07 2.39415E+08 2.93667E+08 2.95318E+08
 -1      1124 6.08292E+08-7.59265E+08-2.11090E+08-3.75631E+08 1.16566E+08 2.86306E+08
 -1      1125-1.72586E+08-2.28600E+08-5.66241E+07-1.01920E+08 4.47827E+06 3.24505E+06
 -1      1126 8.94745E+07 2.89714E+07 4.30717E+06 1.35783E+07 1.59806E+07 4.97160E+07
 -1      1127 1.64623E+08-2.24844E+07-2.96161E+07 2.11837E+07-4.91244E+06-3.59935E+06
 -1      1128 9.34402E+06-1.90685E+07 2.90470E+07 1.19647E+08-4.36883E+06-4.84237E+07
 -1      1129-2.66107E+08-1.03486E+08-1.03486E+08 8.07338E+06-1.43197E+02-5.79412E+07
 -1      1130 6.61641E+08 2.57305E+08 2.57306E+08-7.06371E+07 9.45014E+02 8.19702E+07
 -1      1131 6.21438E+08 1.85894E+08 2.19887E+08-3.50786E+08-6.67701E+07 1.07674E+08
 -1      1132-7.03204E+07-1.04451E+08-6.12693E+07-5.19632E+08 9.71146E+06-4.23143E+07
 -1      1133-8.45590E+08-8.07473E+07-1.33631E+08-4.64605E+08 6.17464E+07 1.43563E+08
 -1      1134-8.84001E+08 1.90546E+08 6.96538E+07-4.86127E+08 2.26076E+07 9.66766E+07
 -1      1135-6.49294E+08 2.59325E+08-3.97693E+07-1.75628E+08-2.66865E+07-1.00552E+08
 -1      1136-3.43625E+07 4.96603E+08 4.45111E+06 1.62384E+08-4.74096E+07-6.84203E+07
 -1      1137-1.83104E+08 9.64549E+08-3.88531E+06 6.05912E+07 3.00813E+08 3.38031E+08
 -1      1138-5.43636E+08 1.57235E+09-3.23646E+07 1.71513E+08 3.59551E+08 6.44260E+07
 -1      1139-1.47829E+08 1.22913E+09-4.65870E+07 9.47013E+08 3.90292E+08 2.52677E+08
 -1      1140 6.19132E+07 8.47707E+08-1.23608E+08 8.66353E+08 2.15467E+07 1.86672E+08
 -1      1141-2.78057E+07 4.61432E+07-5.72185E+06-6.04573E+07 1.12723E+07-2.05735E+07
 -1      1142-4.39617E+07 1.12635E+08 2.03832E+06-6.06276E+07 3.05650E+07-1.18976E+07
 -1      1143-8.48546E+06 1.45246E+08 1.47690E+07-4.41930E+06 2.76228E+07 1.64608E+07
 -1      1144 1.77506E+07 1.27118E+08 3.53339E+06 1.00893E+07 5.99865E+07 8.16127E+06
 -1      1145 7.69356E+07 9.20952E+07-3.20688E+06-7.96967E+06-4.85409E+05-8.15250E+05
 -1      1146 1.72749E+08 8.02362E+07-3.89409E+06-2.80162E+07 9.95390E+06 7.00189E+06
 -1      1147 2.23589E+08 2.16765E+07-3.02499E+07-2.77301E+07 1.26355E+07-1.36759E+07
 -1      1148 2.47636E+08 3.82406E+07 5.10528E+07 8.48576E+07-4.92804E+05-1.64153E+07
 -1      1149 1.01813E+07-6.40677E+06 4.19957E+07 1.33259E+08 6.07717E+06-9.31221E+07
 -1      1150-2.79085E+08-1.05971E+08-8.73462E+07 7.68429E+07 1.59028E+07-3.73974E+06
 -1      1151-4.01697E+08-1.56216E+08-1.56216E+08 7.46092E+06 1.43645E+02-1.12958E+08
 -1      1152-2.90073E+08-2.01055E+06 2.66715E+07-2.12552E+08 1.28359E+08 3.12437E+07
 -1      1153 1.09812E+08 1.13405E+09 8.46415E+06 4.52213E+08-6.69603E+07-3.66535E+07
 -1      1154 1.90299E+08 1.94666E+09 1.17399E+08 6.06955E+08-5.79967E+07-8.53407E+07
 -1      1155 3.03508E+08 1.41765E+09 5.35991E+07 7.37957E+08-3.36568E+08 4.57038E+07
 -1      1156-1.46998E+07 8.69929E+07 6.92036E+05-1.63786E+07-1.61495E+07-1.29822E+07
 -1      1157 1.97814E+07 2.16175E+08 1.88224E+07-2.50955E+06-6.23240E+05-5.17733E+06
 -1      1158 7.88243E+07 2.12609E+08-2.94655E+06-4.18756E+07 4.81302E+06 9.86354E+06
 -1      1159 1.05655E+08 4.25336E+07-6.46794E+06-1.19716E+08 4.97227E+07-1.65048E+07
 -1      1160 2.49731E+08-8.60872E+07-1.09139E+06 2.28739E+08-1.59334E+08-1.46080E+08
 -1      1161 2.75352E+08 6.67236E+08-3.68607E+07 5.85210E+08-2.86634E+07-2.53143E+07
 -1      1162 5.24386E+06 1.47302E+09-1.40746E+08 6.50881E+08 1.07874E+06-2.51730E+06
 -1      1163 5.37216E+07 1.33752E+09-2.08529E+08 6.06914E+08-1.25914E+08-9.95357E+07
 -1      1164 3.01805E+08 1.27423E+09-2.00205E+08 6.69898E+08-5.18576E+07 9.69947E+07
 -1      1165 1.20964E+08 1.21775E+09-1.85084E+08 7.21961E+08-1.89641E+08 1.42995E+08
 -1      1166-3.11045E+07 1.26986E+09-1.31497E+08 8.12622E+08-2.01835E+08-9.68901E+07
 -1      1167-2.71809E+07 1.08166E+08-5.56782E+06 1.61245E+07 2.49926E+06-3.94548E+06
 -1      1168-1.84574E+07 1.30594E+08-1.82073E+07 1.83955E+07-6.34346E+06-1.15241E+06
 -1      1169-1.26971E+07 1.62564E+08-2.90043E+07 2.01058E+07-1.11443E+07 3.39964E+06
 -1      1170-1.46070E+07 2.18908E+08-3.75597E+07-4.54969E+06-7.37573E+06-1.25290E+06
 -1      1171 2.39107E+07 2.75401E+08-3.47533E+07-5.29942E+07-1.31584E+07 1.16349E+07
 -1      1172 4.69042E+07 1.25163E+08-9.59992E+06-1.36522E+08-1.76650E+07 4.92009E+07
 -1      1173 1.70522E+07 1.23247E+07 1.12285E+07-1.70766E+08 2.12326E+07 2.46120E+07
 -1      1174 2.45246E+08 1.43612E+09 2.70385E+08 2.20024E+08 1.30496E+08 8.12991E+07
 -1      1175 2.75165E+08 8.33285E+08 1.10756E+08 4.38824E+08-3.59912E+07 2.67763E+07
 -1      1176 1.37636E+08 1.35433E+08 8.38027E+07 7.15107E+08-9.02018E+07-7.84296E+07
 -1      1177-2.31243E+07 6.78313E+07 1.25352E+07 3.09360E+07 1.65448E+07 6.56628E+06
 -1      1178-3.41812E+06 1.34526E+08 1.61232E+07 5.55379E+07-2.56213E+06 5.70105E+06
 -1      1179 5.05309E+07 3.00808E+08 6.17461E+07 6.87962E+07-1.03625E+07-4.88347E+06
 -1      1180 1.27141E+08 4.46882E+07 2.01974E+08 1.00620E+08-3.29328E+08-6.51096E+06
 -1      1181 6.01591E+07 1.86044E+07 2.20123E+08 1.80368E+08-3.33866E+08 2.34419E+07
 -1      1182 1.47385E+08 1.29839E+07 2.87180E+08 2.50076E+08-3.38379E+08-6.00537E+05
 -1      1183 3.99732E+08-3.42232E+08 3.83757E+08 2.06279E+08-2.76499E+08 4.25155E+06
 -1      1184 3.91700E+08-9.83010E+08 3.27469E+08-5.89029E+07-4.34872E+08-7.15401E+07
 -1      1185 7.55980E+07-7.92539E+08 2.58908E+08-6.21477E+08-2.12055E+08-2.51570E+08
 -1      1186-2.98716E+08-4.01681E+08 2.30156E+08-6.24491E+08-1.29161E+08-9.63618E+07
 -1      1187-3.85424E+08-2.65098E+08 8.14534E+07-3.67900E+08-1.39680E+08-5.47182E+07
 -1      1188-2.69837E+08-1.65185E+08-2.08749E+07-1.40462E+08 4.46987E+07-5.65340E+07
 -1      1189-1.55436E+08-7.96208E+07-1.21132E+06-3.59450E+07-1.97485E+07 1.02282E+06
 -1      1190-6.44641E+07-2.87853E+07 2.16834E+06 4.91847E+07-7.59651E+06-3.84182E+06
 -1      1191-1.78960E+07 1.03599E+07 2.69254E+07 6.90436E+07-2.82517E+07 5.83525E+06
 -1      1192-1.99318E+07 1.56315E+07 2.85888E+07 8.64898E+07-3.07786E+07 1.34488E+06
 -1      1193-1.31215E+07 1.10872E+07 3.69783E+07 1.03418E+08-6.16290E+07-5.20196E+06
 -1      1194 9.40378E+05 1.67999E+07 5.02702E+07 1.19571E+08-1.01704E+08 6.24006E+06
 -1      1195-4.16377E+08-1.30254E+09-4.04366E+08 1.23845E+08 6.39566E+07-1.01736E+08
 -1      1196-5.64313E+08-1.59606E+09-4.83766E+08 1.31468E+08 1.10098E+08 6.06652E+07
 -1      1197-3.57670E+08-1.72409E+09-3.36374E+08-1.86527E+08 6.09087E+07-6.14889E+06
 -1      1198-3.34421E+08-6.79673E+08-7.08126E+07-3.28511E+08 4.99139E+07-5.89379E+07
 -1      1199-9.69851E+07-1.25450E+08-1.18163E+07-8.54387E+07-1.29951E+07 4.58349E+07
 -1      1200-4.45194E+07-6.37083E+07-1.61648E+07 2.60045E+07 2.00281E+06 9.04501E+06
 -1      1201-7.19676E+07-1.67916E+08-5.22711E+07 5.05468E+07 4.38257E+06-6.26614E+06
 -1      1202-1.20337E+08-3.22173E+08-1.01251E+08 6.75791E+07 1.25424E+06 1.81443E+07
 -1      1203-6.40446E+08-1.64686E+09-6.40447E+08 5.33822E+07-2.05715E+08 4.19417E+02
 -1      1204-7.50851E+08-1.93076E+09-7.50851E+08 2.29592E+07-3.07915E+08-6.69604E+02
 -1      1205-8.78600E+08-2.25925E+09-8.78600E+08 5.18493E+06-3.95982E+08 6.48837E+02
 -1      1206-8.65128E+08-2.22461E+09-8.65128E+08-5.36155E+06-4.30463E+08-5.35981E+02
 -1      1207-8.15209E+08-2.09625E+09-8.15209E+08-5.30129E+07-8.91490E+07 9.04549E+02
 -1      1208-5.86601E+08-1.50840E+09-5.86601E+08-7.15969E+07-1.98927E+08 7.72839E+02
 -1      1209-3.72836E+08-9.58719E+08-3.72836E+08-2.28847E+07-1.87045E+08-6.56416E+01
 -1      1210-1.86389E+08-4.79287E+08-1.86390E+08-1.36480E+07 1.71376E+06 6.30401E+01
 -1      1211-5.27900E+07-1.35747E+08-5.27909E+07-1.37525E+07-9.60486E+07 2.57399E+02
 -1      1212-2.98549E+07-7.67705E+07-2.98552E+07-4.15867E+06 2.14951E+06-3.09538E+01
 -1      1213-2.97348E+07-7.64615E+07-2.97351E+07 2.21308E+06-2.44703E+07 1.02740E+02
 -1      1214-5.62824E+07-1.44726E+08-5.62824E+07 4.10410E+06-2.27507E+07-7.89164E+01
 -1      1215-8.78321E+07-2.25854E+08-8.78322E+07 6.18486E+06-5.05147E+07 5.01024E+01
 -1      1216-1.31394E+08-3.37870E+08-1.31394E+08 6.65068E+06-6.87433E+07-9.74088E+01
 -1      1217-1.77918E+08-4.57504E+08-1.77918E+08 5.40944E+06-1.17836E+08 1.08418E+02
 -1      1218 4.99042E+08-1.88744E+08 1.67415E+08 6.51324E+07-2.04905E+08 5.16925E+08
 -1      1219 7.04703E+07 6.00550E+07 6.70442E+07 5.27025E+06-8.91738E+06-6.18506E+06
 -1      1220 2.14509E+07-3.95230E+06 2.64751E+07 1.17245E+07-1.35470E+07 2.58543E+07
 -1      1221 1.30429E+07-2.68409E+06-4.84897E+05-1.53628E+06-5.01392E+06-1.27570E+06
 -1      1222 1.71909E+07 1.98963E+07 2.02660E+07 9.00271E+05-4.49836E+06 1.45328E+07
 -1      1223 6.73084E+07-1.22859E+08-3.68885E+07 9.94248E+06-1.29578E+08-7.34194E+07
 -1      1224-7.49884E+07-4.00204E+07-6.62892E+07-1.05338E+06 6.09040E+07 1.54478E+07
 -1      1225 3.92978E+07-1.81725E+07-1.55988E+07 2.23141E+07 1.96415E+07-2.57048E+07
 -1      1226 1.68970E+07 2.08964E+06 6.74408E+05 8.65180E+06-4.72844E+06 3.30311E+06
 -1      1227 1.13104E+07-3.53699E+06-3.22495E+06 8.38741E+06-2.56105E+06-6.75519E+06
 -1      1228 1.07059E+07-1.07015E+07 3.52950E+06 8.08682E+06 4.09211E+06 2.92909E+06
 -1      1229-1.87967E+07-2.18670E+07-1.92119E+07 2.91933E+06-3.21470E+06-3.84931E+06
 -1      1230 1.38911E+07 7.02166E+06-4.65639E+06-7.49592E+06 2.47142E+06 2.43643E+07
 -1      1231 1.08014E+07 4.11427E+06 5.39197E+06 1.37079E+07-6.50345E+06 5.28594E+06
 -1      1232 1.56892E+07-3.56802E+06 2.93742E+03 8.66118E+06-1.66788E+06-1.65983E+06
 -1      1233 9.90682E+06-6.52924E+06 2.34567E+05 6.70202E+06-2.75063E+06-4.03664E+06
 -1      1234 1.70626E+06-9.47489E+06 5.77788E+05 4.93384E+06-4.17417E+06-4.78203E+06
 -1      1235 2.79851E+06-1.11115E+07-5.66182E+06 4.06791E+06-1.39472E+07-5.23558E+06
 -1      1236 1.27756E+07 1.52250E+06-2.39154E+07 1.58022E+07 2.37410E+07 2.84805E+07
 -1      1237 7.48307E+06 1.38141E+06 2.41734E+06 3.82824E+06 5.47854E+06 6.16562E+06
 -1      1238 1.36230E+07-6.72656E+06-1.79366E+05 6.95295E+06-1.67960E+06-2.35317E+06
 -1      1239 6.20157E+06-8.45808E+06 1.64132E+04 5.51003E+06-2.55861E+05-4.21124E+06
 -1      1240 9.23014E+05-1.26137E+07-8.60327E+05 3.27883E+06 1.48779E+05-2.19132E+06
 -1      1241-5.78830E+06-1.70599E+07-6.05968E+06 6.52687E+05-3.83718E+05 3.99198E+06
 -1      1242-9.78293E+07-7.23885E+07-9.54858E+07 5.19252E+06-4.77431E+07 1.76831E+07
 -1      1243 4.34065E+07-3.65643E+07-1.24861E+06 5.03850E+06-3.58625E+07-3.33831E+07
 -1      1244 8.12337E+06-7.30446E+04-1.07509E+06 1.04829E+07 6.34826E+06 1.35101E+06
 -1      1245 2.82879E+06-8.21442E+06-3.34166E+06 5.33017E+06 3.14173E+05-6.85282E+06
 -1      1246-5.57038E+06-1.19090E+07 9.40458E+06-3.41974E+06-3.13182E+06-6.53877E+06
 -1      1247 5.85982E+06-1.13530E+07-3.70358E+06 3.65498E+06 5.44005E+06 1.02287E+06
 -1      1248 5.02955E+08-4.95254E+08 1.25942E+07-2.81702E+05 5.15896E+08 5.29184E+08
 -1      1249 8.16954E+07 9.74679E+07 9.41556E+07-4.03648E+06 1.52268E+07-5.35151E+07
 -1      1250 7.28200E+06-1.58430E+07 2.59781E+07-1.04032E+07 2.82818E+07-1.36850E+06
 -1      1251 1.69880E+06-6.73344E+05-8.75240E+06 3.84933E+06 3.39626E+06-1.63693E+07
 -1      1252-1.80892E+06 8.54078E+06 2.17994E+06 3.91975E+06 5.11339E+06 1.13944E+06
 -1      1253-1.04645E+08-1.17514E+08-9.05926E+07-5.26290E+07 1.14161E+08 9.79905E+07
 -1      1254 2.41721E+08-1.27343E+08 8.59626E+07 2.73174E+07-1.26469E+08 3.17883E+08
 -1      1255 1.95342E+08-1.66226E+06-4.88619E+07 3.15892E+07-8.77095E+06 2.64339E+07
 -1      1256 1.13181E+08 3.52843E+07 4.11896E+07 2.13390E+07-5.69274E+06-5.08344E+06
 -1      1257 1.91738E+07-1.23634E+07-1.98980E+07-5.29597E+05 1.09381E+07 1.14275E+06
 -1      1258 4.18830E+07 6.23425E+06 1.80175E+07 3.33980E+06-9.62672E+06 1.60882E+07
 -1      1259 2.93014E+07 2.01461E+06 5.32293E+06 4.31401E+06-2.54699E+06 9.15415E+06
 -1      1260 2.17365E+07-2.68307E+05-6.36879E+05 3.69950E+06-2.46801E+06 4.21611E+04
 -1      1261 1.18084E+07-1.14965E+06-3.68377E+06 4.64482E+06 3.77585E+06 8.57286E+06
 -1      1262 2.37562E+07 1.00052E+07 1.24777E+07 1.37942E+06-3.76794E+06 1.18369E+07
 -1      1263 4.05520E+07-4.49592E+06-1.36740E+07 2.64873E+06-8.26588E+06 1.13211E+07
 -1      1264 3.83625E+07-6.30203E+07-1.97113E+07 4.83478E+06-8.04939E+07-4.45673E+07
 -1      1265 2.21823E+07-1.23214E+08 5.12565E+07 1.43951E+07 4.61700E+07 3.13309E+07
 -1      1266 3.64447E+07 4.16113E+06 1.90528E+07 3.20697E+07-2.29063E+07 2.20056E+07
 -1      1267 3.71627E+07 1.11507E+06 1.04024E+05 9.45817E+06-8.39784E+05-5.17661E+06
 -1      1268 2.22036E+07-4.18035E+05 2.46224E+06 8.43441E+06-1.42509E+06-9.62926E+05
 -1      1269 4.04371E+06-5.32131E+06-2.43436E+05 5.83603E+06-8.50805E+06-6.71525E+06
 -1      1270 8.36951E+05-5.30401E+07 1.33463E+07 7.81663E+06-7.91456E+06-4.12245E+06
 -1      1271-3.40536E+07-4.77776E+07-4.11660E+07 4.14642E+06 5.12891E+07 1.36226E+07
 -1      1272 1.90361E+07 1.89431E+07 1.69560E+06 1.39619E+07-1.10396E+07 3.08668E+07
 -1      1273 3.14860E+07-6.63174E+06-9.88868E+06 2.88668E+07 7.60795E+06-1.14410E+07
 -1      1274 2.96205E+07-3.13982E+06 7.69336E+05 2.24537E+07 3.05044E+05-5.66740E+06
 -1      1275 2.72609E+07 3.26851E+05 1.29971E+06 1.51120E+07-2.57033E+06 8.86284E+05
 -1      1276 2.47086E+07-8.29693E+05 9.77450E+05 1.30728E+07-2.87841E+06-4.58678E+05
 -1      1277 1.75950E+07-4.12985E+06-1.49450E+06 1.15719E+07-2.43058E+06-4.57485E+06
 -1      1278 1.32248E+07-6.70240E+06 9.22086E+05 1.03953E+07-1.62809E+06-9.57991E+05
 -1      1279 9.24570E+06-9.52833E+06 2.17316E+06 1.14473E+07 9.92116E+05-2.11100E+05
 -1      1280 2.46944E+06-1.04824E+07-4.41970E+06 1.10381E+07-7.61898E+06-7.73104E+06
 -1      1281-1.08296E+07-3.28109E+07-1.20489E+07 6.89341E+06-2.52776E+06-2.91396E+06
 -1      1282 1.69057E+06 1.07771E+07 8.43271E+06 1.29347E+07 2.81503E+07-1.18347E+07
 -1      1283 2.43047E+07 4.41965E+05-4.22690E+06 2.01680E+07 1.83831E+06 2.85596E+05
 -1      1284 2.46356E+07-2.65159E+06 3.87414E+05 1.40841E+07-1.53085E+06-1.39810E+06
 -1      1285 1.63047E+07-6.77230E+06-2.59604E+05 1.02930E+07-1.36587E+06-3.93921E+06
 -1      1286 6.35022E+06-1.21073E+07-3.02395E+05 9.90139E+06-7.80459E+04-2.63538E+06
 -1      1287 2.32316E+06-1.12479E+07 4.72181E+06 1.17662E+06-4.11905E+06 2.37713E+06
 -1      1288-5.66080E+05-1.40551E+06-4.14303E+06 5.51817E+06 3.98224E+06 1.44232E+07
 -1      1289 6.79806E+06-2.71127E+04-3.31964E+06 1.38972E+07 4.15175E+06 1.56431E+06
 -1      1290 1.73441E+07 3.74519E+06 2.62997E+06 1.83919E+07-3.25736E+06 4.23978E+06
 -1      1291 2.11830E+07-1.32120E+06 3.72073E+05 1.39958E+07-2.45635E+06-4.57076E+05
 -1      1292 2.36447E+07-4.88372E+06 3.48656E+05 1.28488E+07-1.67104E+06-1.32905E+06
 -1      1293 1.84160E+07-7.76858E+06-8.79157E+04 1.13367E+07-1.76485E+06-1.71440E+06
 -1      1294 1.44750E+07-9.86844E+06 8.17899E+04 9.85090E+06-2.11731E+06-3.30798E+06
 -1      1295 8.79030E+06-1.20771E+07-1.22322E+05 8.54920E+06-2.17319E+06-2.04297E+06
 -1      1296 3.56602E+06-1.45506E+07-4.36520E+04 8.03246E+06-2.84647E+06-3.48186E+06
 -1      1297 1.03877E+06-1.88004E+07-4.78174E+05 5.12718E+06-1.41875E+06-6.76574E+05
 -1      1298-1.60934E+06-2.01622E+07-4.16577E+06 2.04452E+06-9.87454E+06-3.28451E+06
 -1      1299-2.69421E+06-5.67078E+06-6.15925E+06 4.34515E+06 9.75340E+06 8.80795E+06
 -1      1300 1.35239E+07-2.77070E+06 2.96068E+05 1.32440E+07 2.97011E+04 5.23834E+06
 -1      1301 2.18462E+07-6.15860E+06 3.58273E+05 1.15052E+07-1.01245E+06-2.06180E+06
 -1      1302 1.17891E+07-1.15095E+07 9.20791E+04 8.92593E+06-1.22511E+06-3.50082E+06
 -1      1303 1.64068E+06-1.73921E+07-9.10392E+05 6.30646E+06-1.23802E+06-2.60366E+06
 -1      1304-1.34476E+06-2.05159E+07-2.55362E+06 2.01871E+06-5.18110E+06-2.48251E+05
 -1      1305-5.24159E+06-1.37008E+07-1.71687E+07 2.04425E+06 1.44282E+07 1.85171E+07
 -1      1306 6.00147E+06-8.33110E+06-1.46021E+06 4.43214E+06-6.69286E+06 1.34315E+06
 -1      1307 1.46795E+07-1.29033E+06 6.30178E+05 8.51501E+06 1.73848E+06 3.94646E+06
 -1      1308 1.85706E+07-5.54538E+06 3.36311E+04 1.04812E+07-4.97667E+05-3.74535E+05
 -1      1309 2.01700E+07-9.57402E+06 8.95257E+04 1.03262E+07-9.65206E+05-1.82742E+06
 -1      1310 1.40356E+07-1.14370E+07-1.96749E+05 9.23560E+06-1.02228E+06-1.86675E+06
 -1      1311 9.02327E+06-1.30181E+07-2.30276E+05 8.08568E+06-4.63636E+05-3.62452E+06
 -1      1312 4.33714E+06-1.55839E+07-4.35165E+04 6.22942E+06-6.06202E+05-1.91115E+06
 -1      1313 3.21850E+04-1.89801E+07-8.37863E+05 4.46000E+06 3.15480E+02-1.79807E+06
 -1      1314-8.21617E+05-2.22062E+07-2.78794E+05 3.00412E+06-1.87890E+06-1.25749E+06
 -1      1315-2.36219E+06-2.35998E+07-3.59713E+06 1.83772E+06-1.74510E+06 1.72335E+06
 -1      1316 9.53356E+06 7.88842E+06 1.98789E+07-7.38779E+06-1.49663E+07-1.57082E+07
 -1      1317 2.23540E+07-8.54083E+06-3.92621E+06 1.05478E+07-6.01351E+06-6.81374E+05
 -1      1318 1.72696E+07-8.41934E+06 5.24796E+05 9.56915E+06 2.83859E+05-1.83135E+06
 -1      1319 7.08895E+06-1.15333E+07-5.09326E+05 7.43922E+06-7.82451E+05-4.16385E+06
 -1      1320-2.12801E+06-1.70458E+07 8.95078E+05 1.73451E+06-1.40247E+06-2.35429E+06
 -1      1321 3.29978E+06-1.69951E+07 4.32928E+06 6.34252E+05-5.98010E+05-1.96337E+05
 -1      1322-5.00181E+07-1.05325E+08-5.89228E+07 1.33305E+07-4.04515E+07 1.40477E+07
 -1      1323 1.26480E+07-1.54008E+06-1.19555E+07 1.73863E+07 2.20307E+07 3.86369E+07
 -1      1324 3.04648E+07-1.91641E+07-7.32401E+05 7.33273E+06-1.61535E+07-1.43271E+07
 -1      1325 2.16526E+07-1.27165E+07 3.69723E+06 7.05090E+06-2.00742E+06-7.09351E+06
 -1      1326 1.53453E+07-5.71655E+06 2.27042E+05 1.28362E+07 3.49402E+06-7.84471E+05
 -1      1327 1.19916E+07-6.51976E+06-5.23261E+04 1.06642E+07 3.06584E+06-7.07246E+05
 -1      1328 4.14064E+06-9.69371E+06-1.75597E+06 7.91864E+06 1.22179E+06-4.63987E+06
 -1      1329-3.73061E+05-1.14475E+07 7.67870E+05 3.52511E+06 8.31730E+05-3.24227E+06
 -1      1330-4.18531E+06-1.34431E+07 5.80422E+06-1.51273E+06-1.67632E+06-4.79448E+06
 -1      1331-5.33090E+06-2.19334E+07-5.79188E+06-2.91647E+06 5.31246E+06 2.43270E+06
 -1      1332-1.40460E+06-2.65144E+07-1.88989E+06-2.67673E+06 5.73304E+06 2.40430E+06
 -1      1333 1.81857E+07-2.25503E+08 7.29954E+07 1.21071E+07-1.57356E+07 3.13574E+07
 -1      1334 1.76293E+07-6.23086E+06 1.41116E+07-8.56646E+06 3.86834E+07 2.22512E+07
 -1      1335 2.45721E+07-2.10738E+06 7.89807E+05 1.05368E+07 1.77119E+05-9.69383E+06
 -1      1336 2.03086E+06-3.62954E+06 2.19935E+06 5.82575E+06 1.29566E+06-4.74088E+06
 -1      1337-1.34993E+07-9.69255E+06-6.34455E+06-1.84784E+06 4.13247E+06 4.56158E+05
 -1      1338-7.90832E+06-2.83554E+07 8.67804E+04-1.22839E+07 1.37328E+07 5.57752E+06
 -1      1339 2.70060E+08-2.65956E+08 7.22086E+06-9.53015E+05 3.16461E+08 3.26981E+08
 -1      1340 2.33249E+08-1.71437E+07-7.27018E+07-1.24974E+07 2.58909E+07-1.44072E+07
 -1      1341 1.19481E+08 4.88286E+07 5.80944E+07-1.07457E+07 1.21329E+07-4.51560E+07
 -1      1342 6.64388E+06-1.07738E+07-1.95660E+07 1.26114E+07-1.67971E+07-2.74945E+07
 -1      1343 2.91341E+07 5.48073E+06 1.96876E+07 4.80550E+06 1.84301E+07-5.35023E+06
 -1      1344 1.39164E+07 1.51127E+06 3.71588E+06 3.10658E+06 4.85818E+06-8.87585E+06
 -1      1345 7.97417E+05-1.88668E+06-6.83196E+06 3.29796E+06 9.00648E+05-1.39478E+07
 -1      1346-6.78630E+05 3.42883E+06 2.49069E+06 1.83351E+06-6.51435E+05-5.76324E+06
 -1      1347-1.26873E+07 1.75187E+06 2.01191E+06-1.01634E+06 5.35530E+06 1.77568E+06
 -1      1348-1.77160E+07-7.25796E+06-1.27726E+06-1.14358E+07 7.68561E+06 1.19322E+07
 -1      1349-3.12264E+07-3.79381E+07-4.46204E+07-1.95621E+07 6.62521E+07 5.62827E+07
 -1      1350 1.90757E+08-1.22390E+08 2.83562E+07 3.11705E+07-4.70000E+07 1.25427E+08
 -1      1351 1.24827E+08 2.32716E+07 1.18681E+07 2.95936E+07-3.49587E+06-1.27281E+07
 -1      1352 4.42367E+07-9.74433E+05-2.09905E+06 5.41702E+06-2.06330E+06 1.66640E+06
 -1      1353 2.65141E+07-1.16027E+06-2.74691E+06 6.04308E+06-4.93660E+05 1.40868E+06
 -1      1354 2.43790E+07 5.80679E+06 3.82699E+06 3.82936E+06-2.13050E+06 8.08677E+06
 -1      1355 3.52128E+07-5.07340E+07-6.71657E+06 6.44026E+06-3.24415E+07-1.64185E+07
 -1      1356-1.97575E+07-3.95609E+07-1.46008E+07 1.25738E+07 3.51119E+07 7.95878E+06
 -1      1357 4.17393E+07-1.34795E+06-1.61006E+06 3.72264E+07 7.66182E+05 3.34129E+06
 -1      1358 3.78703E+07 5.37957E+05 2.62554E+06 2.00681E+07-1.32869E+06 1.43370E+05
 -1      1359 2.47920E+07-4.35957E+06 4.59942E+05 1.52692E+07-1.26900E+06-1.95880E+06
 -1      1360 1.03437E+07-1.24146E+07 4.58225E+05 1.47881E+07-1.96381E+06-1.67432E+06
 -1      1361-6.99111E+06-3.58564E+07-3.56600E+06 9.57062E+06 8.78036E+05-1.72156E+06
 -1      1362 2.86283E+06 4.89328E+06 3.80587E+06 1.05986E+07 6.72539E+06 3.74697E+06
 -1      1363 2.16179E+07 2.06239E+06-1.12001E+06 2.38410E+07-9.55570E+05 2.11839E+06
 -1      1364 3.08720E+07-6.54124E+06 1.45352E+05 1.69849E+07-8.97321E+05-8.45459E+05
 -1      1365 1.89715E+07-1.30812E+07-5.35676E+04 1.30029E+07-1.20166E+06-1.99919E+06
 -1      1366 4.42967E+06-1.99734E+07-8.50985E+05 1.05093E+07-1.49180E+06-1.79191E+06
 -1      1367-1.44638E+05-2.41715E+07 5.32577E+05 3.43059E+06-3.84169E+06-8.17726E+05
 -1      1368 2.85827E+06-4.85227E+06 3.49516E+06 1.85651E+06-4.05290E+05 4.74720E+06
 -1      1369 1.87951E+07-4.72902E+06-2.49770E+06 1.16254E+07 4.06593E+05 2.08769E+06
 -1      1370 2.64973E+07-1.23726E+07 2.26327E+05 1.37128E+07-7.88884E+05-1.24992E+06
 -1      1371 1.20880E+07-1.71262E+07-8.86886E+04 1.07304E+07-1.28063E+05-2.19160E+06
 -1      1372-8.25165E+04-2.52604E+07-6.05918E+05 5.92773E+06-3.01008E+05-1.33788E+06
 -1      1373-6.02500E+05-2.84667E+07 7.07384E+05 2.31912E+06-2.37683E+06 1.70227E+05
 -1      1374-3.11367E+07-1.04039E+08-1.94455E+07 1.38672E+07-3.48371E+07 8.62940E+06
 -1      1375 3.53054E+07-1.96526E+07-2.91861E+05 9.58263E+06 3.59734E+05 1.40175E+06
 -1      1376 2.28305E+07-7.46216E+06 2.74680E+06 1.62279E+07 1.38013E+06-9.44209E+05
 -1      1377 6.24415E+06-1.19525E+07-3.40068E+05 1.02607E+07 9.84978E+05-2.47253E+06
 -1      1378-7.73172E+06-1.99058E+07 4.66787E+05-1.81237E+06 1.48225E+06-8.73833E+05
 -1      1379-1.89785E+06-3.43306E+07 5.03017E+05-5.28726E+06 1.76202E+06 1.16319E+06
 -1      1380 2.28853E+08-2.26016E+08 2.25278E+06-1.73912E+06 1.21602E+08 1.28020E+08
 -1      1381 1.24702E+08 3.07635E+07 1.90614E+07-9.76587E+06 7.45199E+06-3.77504E+07
 -1      1382 2.68675E+07-2.02320E+06-1.73990E+06 9.29299E+06 4.11029E+06-1.16322E+07
 -1      1383 1.42469E+06-7.99784E+05-2.30049E+06 4.92271E+06 5.39821E+05-8.98454E+06
 -1      1384-1.88020E+07-4.44478E+05 1.10541E+06-3.09747E+06 2.31433E+06-1.17305E+06
 -1      1385-1.63870E+07-2.20490E+07-1.41155E+07-1.80023E+07 2.42163E+07 2.01970E+07
 -1      1386 1.68707E+08-9.98450E+07 1.99982E+07 3.87090E+07-4.03367E+07 7.45191E+07
 -1      1387 1.99337E+08 1.38982E+07-1.98606E+07 4.72003E+07 4.74483E+06 7.78004E+06
 -1      1388 1.54672E+08 2.77753E+07 1.81725E+07 3.68126E+07-3.18314E+06 2.31332E+05
 -1      1389 5.87862E+07-6.32642E+06-1.47523E+06 1.01785E+07 2.07176E+06 9.08651E+06
 -1      1390 5.29722E+07-1.30340E+06-3.14784E+06 8.22911E+06-1.85965E+06-4.36848E+06
 -1      1391 4.87529E+07 2.96088E+06 4.33069E+06 8.42089E+06-2.63325E+05 2.17080E+06
 -1      1392 3.20048E+07-1.31776E+06-3.33752E+06 8.33512E+06 1.27782E+05 1.50782E+06
 -1      1393 2.35890E+07-4.14031E+05-4.94174E+05 8.48446E+06-5.48110E+05 2.04235E+06
 -1      1394 2.88309E+07 5.81665E+06 3.96589E+06 7.28603E+06-3.95974E+06 2.20326E+06
 -1      1395 3.78121E+07-2.21546E+06-4.53732E+06 8.07730E+06 2.57361E+06 3.07203E+06
 -1      1396 2.86517E+07-4.47838E+07-4.74867E+06 8.81907E+06-1.96427E+07-1.28628E+07
 -1      1397 1.46847E+07-1.05296E+08 1.71319E+07 3.31950E+07 1.09129E+07-1.02829E+07
 -1      1398 7.51342E+07 8.31085E+06 5.69397E+06 4.54269E+07-5.33444E+06 5.84202E+06
 -1      1399 5.34924E+07-1.47232E+06-3.86997E+06 1.81707E+07-3.55564E+05-5.42497E+06
 -1      1400 3.33174E+07-2.00394E+06-5.08507E+05 1.45787E+07 3.17518E+05-1.07310E+06
 -1      1401 1.29141E+07-5.79269E+06-5.79582E+05 1.35474E+07-2.95379E+06-3.78784E+06
 -1      1402-3.26655E+06-5.40612E+07 5.29501E+06 1.27642E+07-2.08290E+06 8.18799E+05
 -1      1403-1.85271E+07-4.27853E+07-1.49701E+07 2.45705E+07 1.26235E+07 1.53091E+07
 -1      1404 2.14527E+07 8.69609E+06 1.83196E+06 3.76140E+07-9.70055E+06 1.08520E+07
 -1      1405 4.77134E+07 1.17433E+05-2.89322E+06 4.59612E+07 6.93415E+06-7.20135E+05
 -1      1406 5.25790E+07-1.31623E+06-1.72081E+06 3.21852E+07 2.71310E+06-2.74029E+06
 -1      1407 4.84490E+07 4.21533E+05 2.60407E+06 2.50669E+07-1.69368E+06 2.90805E+06
 -1      1408 3.92427E+07-3.08286E+06-2.43365E+05 2.16879E+07-1.05048E+06 1.28985E+06
 -1      1409 3.12443E+07-5.31341E+06 4.63559E+05 1.90876E+07-1.43946E+05-1.02556E+06
 -1      1410 2.21147E+07-9.90716E+06 3.73493E+04 1.78584E+07-5.64990E+04 1.80653E+06
 -1      1411 1.21132E+07-1.43739E+07 6.64129E+05 1.82750E+07-3.97657E+05 1.15994E+06
 -1      1412 2.96093E+06-2.15086E+07-1.33729E+06 1.61562E+07-1.76069E+06-1.37706E+06
 -1      1413-7.90635E+06-4.37132E+07-4.96888E+06 1.19952E+07-1.15375E+06-1.80383E+06
 -1      1414 3.78773E+06 1.07571E+07 1.64586E+06 2.19353E+07 2.33413E+06 2.97436E+06
 -1      1415 3.71386E+07-8.91721E+05-7.37452E+05 3.59639E+07 4.41906E+06-2.06802E+05
 -1      1416 4.23998E+07-3.38265E+06 8.49249E+05 2.24351E+07-6.71706E+05 1.01519E+06
 -1      1417 2.73984E+07-1.10326E+07 4.50155E+04 1.71368E+07 3.25157E+05-1.16479E+06
 -1      1418 9.29570E+06-2.06683E+07 3.95134E+05 1.48938E+07 6.41933E+05 8.15652E+04
 -1      1419 9.59250E+05-2.47461E+07 2.80350E+05 5.62426E+06-2.69862E+06 1.26782E+05
 -1      1420 4.17908E+06 9.85116E+06 4.07981E+06 1.52956E+07 5.85065E+06 9.53200E+05
 -1      1421 1.47852E+07 7.38525E+06 1.77587E+06 2.39759E+07 9.99652E+05-1.28143E+06
 -1      1422 2.75721E+07 1.58829E+06-1.04710E+06 2.95302E+07-1.31171E+06 1.52596E+06
 -1      1423 3.53794E+07-3.44737E+06 1.13416E+05 2.38959E+07-1.04593E+06-2.31442E+05
 -1      1424 3.82829E+07-8.11784E+06-4.33710E+04 2.10810E+07 2.54109E+05-5.13128E+05
 -1      1425 3.11546E+07-1.21937E+07 2.11548E+05 1.85511E+07 5.17019E+04 2.87838E+04
 -1      1426 2.35463E+07-1.62664E+07-4.60358E+04 1.61375E+07-3.27103E+05-6.63679E+05
 -1      1427 1.41754E+07-2.03871E+07-1.66973E+05 1.39417E+07-8.58147E+05 7.46631E+04
 -1      1428 5.53855E+06-2.51664E+07-7.23186E+05 1.30109E+07-1.40761E+06-1.00155E+06
 -1      1429 2.12014E+06-2.88193E+07 9.71691E+05 9.40401E+06 1.00665E+06 1.20544E+05
 -1      1430-3.62105E+05-2.97133E+07 8.99387E+05 5.06776E+06-4.66438E+05-4.92584E+05
 -1      1431-2.82537E+06-4.47691E+06-6.93989E+06 9.05846E+06 2.22144E+06 1.05702E+06
 -1      1432 2.54987E+07-1.99607E+06 7.22834E+05 2.18078E+07 1.07707E+06 2.12882E+06
 -1      1433 3.46757E+07-1.14811E+07-4.29162E+05 1.89165E+07-8.74585E+04-9.49448E+05
 -1      1434 1.92657E+07-1.92186E+07-3.45218E+04 1.46567E+07 1.72845E+05-6.79250E+05
 -1      1435 3.02585E+06-2.82793E+07-8.69237E+04 1.02547E+07-4.73735E+05-7.56533E+05
 -1      1436-1.81782E+06-3.48466E+07-1.47039E+06 4.17974E+06-8.76016E+05-2.28550E+05
 -1      1437 4.48381E+06-1.30118E+06 4.18018E+06 2.68878E+06-6.01553E+06 2.47104E+06
 -1      1438 1.47907E+07-3.38824E+06 4.11248E+06 9.25036E+06-5.80722E+06-7.04832E+05
 -1      1439 2.42287E+07-7.52509E+06-2.51010E+06 1.46856E+07 3.30520E+06 2.50658E+06
 -1      1440 3.04627E+07-1.11847E+07-4.33014E+05 1.60219E+07 1.18048E+06 6.35464E+05
 -1      1441 3.28386E+07-1.52049E+07 2.11951E+05 1.70884E+07-1.20281E+06-7.48446E+05
 -1      1442 2.41203E+07-1.80862E+07 2.84527E+05 1.54097E+07-5.12129E+05 2.26858E+05
 -1      1443 1.51322E+07-2.14011E+07 1.45355E+04 1.33765E+07 5.57697E+05-6.10120E+05
 -1      1444 6.55804E+06-2.62167E+07-4.21925E+05 1.02060E+07 2.65802E+05 4.03475E+05
 -1      1445-5.50204E+05-3.17299E+07-6.86515E+05 7.40489E+06 1.07423E+05-3.77310E+05
 -1      1446-1.12375E+06-3.52106E+07 7.01718E+05 4.90692E+06-3.24260E+05-3.02227E+05
 -1      1447-6.23904E+05-3.51459E+07 1.51995E+06 2.86035E+06-1.89479E+06-5.54689E+05
 -1      1448 7.66214E+06-9.35300E+06 2.18154E+06-3.05900E+06 6.87385E+06 1.15798E+06
 -1      1449 3.22777E+07-1.77591E+07 5.38036E+05 1.17651E+07-4.51508E+06-2.02513E+06
 -1      1450 3.03693E+07-1.34319E+07 5.28924E+05 1.70206E+07 7.08371E+05 6.67204E+05
 -1      1451 1.16690E+07-1.96058E+07-2.01461E+05 1.23155E+07-5.22836E+05-1.25824E+06
 -1      1452-3.91427E+06-2.87899E+07 6.79883E+05 3.31343E+06-4.27063E+05 6.13214E+04
 -1      1453-3.16706E+05-3.59807E+07-1.47319E+05 1.11223E+05 7.44910E+05 1.16697E+06
 -1      1454-3.30949E+07-1.23385E+08-2.41622E+07 1.10930E+07-9.47249E+06 1.37145E+07
 -1      1455 1.25436E+07-2.97862E+07-2.56940E+06 1.28866E+07 1.02486E+07 1.15468E+07
 -1      1456 3.95802E+07-2.00756E+07-4.01958E+05 1.19139E+07-6.29220E+06-5.77346E+06
 -1      1457 4.03183E+07-1.61635E+07-7.53493E+05 1.70096E+07-2.59656E+06-5.78834E+06
 -1      1458 2.99252E+07-1.03291E+07 2.37086E+06 1.98601E+07 2.16819E+06 1.44418E+06
 -1      1459 1.84645E+07-1.26345E+07-3.77605E+05 1.66942E+07 1.24880E+06 3.01744E+05
 -1      1460 7.72517E+06-1.47974E+07-1.27062E+05 1.26798E+07 2.41572E+05-1.78712E+06
 -1      1461-1.49230E+06-1.87050E+07 6.80094E+05 6.19379E+06 7.71262E+05-3.26728E+05
 -1      1462-8.67397E+06-2.37602E+07 1.38282E+06-2.08741E+06 1.28005E+06 1.74791E+05
 -1      1463-7.28254E+06-3.54838E+07-1.68644E+06-6.43637E+06 6.99236E+05 1.05472E+06
 -1      1464-4.03701E+06-4.48316E+07-7.62511E+05-8.27731E+06 2.02701E+06 3.04633E+06
 -1      1465 3.51960E+06-2.09915E+08 2.69450E+07 9.27988E+06-2.13599E+06-1.05218E+07
 -1      1466 5.62840E+07-2.55303E+06 3.47328E+06 2.10810E+06 1.21218E+07 1.13738E+07
 -1      1467 3.11305E+07-7.83919E+06-3.85468E+06 1.72642E+07-6.58046E+05-4.70470E+06
 -1      1468 2.29264E+06-6.60833E+06 3.47298E+05 1.01772E+07-3.86159E+05-8.74562E+05
 -1      1469-2.08955E+07-1.37884E+07-2.13945E+06-4.92057E+06 1.03940E+06-6.41773E+05
 -1      1470-9.75911E+06-3.39840E+07 5.65813E+05-1.63139E+07 3.21337E+06-1.30159E+06
 -1      1471 1.98325E+08-1.91915E+08 1.73681E+06-2.76830E+06 8.18964E+07 8.45425E+07
 -1      1472 2.26990E+08 1.39938E+06-2.72492E+07-1.03422E+07-1.18258E+07-2.53907E+06
 -1      1473 1.51622E+08 3.37837E+07 2.42734E+07-5.44044E+06 1.27024E+07-1.06455E+07
 -1      1474 3.72284E+07-7.91813E+06-2.15007E+06 1.48749E+07-1.29423E+05 4.31018E+06
 -1      1475 3.07713E+07-2.55066E+06-1.83713E+06 1.34125E+07 1.85694E+06-1.06941E+07
 -1      1476 2.07111E+07 1.92561E+06 4.10826E+06 1.01705E+07 4.92457E+05-2.56231E+06
 -1      1477 8.95686E+04-1.56114E+06-2.87212E+06 7.03324E+06 4.73479E+04-4.45654E+06
 -1      1478-8.33380E+06 3.02743E+05-3.75092E+05 3.06517E+06 1.96518E+06 1.36293E+06
 -1      1479-2.66358E+07-2.92875E+06-3.00070E+05-5.64679E+06 4.02992E+06-9.60277E+04
 -1      1480-2.18005E+07-8.54319E+06 4.59894E+05-1.48476E+07-9.09288E+05 3.05169E+06
 -1      1481-1.48647E+07-1.95330E+07-9.86339E+06-1.84098E+07 1.14888E+07 8.92678E+06
 -3
    1PSTEP                        31           1           1          
    1PGM                1.000000E+00                                  
    1PGK                1.952310E+12                                  
    1PHID                         -1                                  
    1PSUBC                         0                                  
    1PMODE                         8                                  
  100CL  108 222379.3981        1481                     2    8MODAL      1
 -4  TOSTRAIN    6    1
 -5  EXX         1    4    1    1
 -5  EYY         1    4    2    2
 -5  EZZ         1    4    3    3
 -5  EXY         1    4    1    2
 -5  EYZ         1    4    2    3
 -5  EZX         1    4    3    1
 -1         1-1.12391E+03 8.98132E+02-4.21674E+00-2.91456E+02-3.03712E+02 5.61085E+02
 -1         2-1.18239E+03 2.13853E+02 4.68037E+02-3.55391E+02 3.57258E+01 5.85791E+01
 -1         3-8.34154E+02 1.21301E+02 1.93603E+02-2.77177E+02-2.39671E+01 1.74180E+00
 -1         4-3.58651E+02 1.31609E+02 9.50821E+01-7.66379E+01 1.55992E+01 6.84161E+01
 -1         5-3.18933E+02 8.97307E+01 1.03618E+02-6.19604E+01-1.40021E+01-3.28921E+01
 -1         6-2.74772E+02 7.00149E+01 5.97010E+01-6.34043E+01-1.98269E+00 1.63448E+01
 -1         7-1.95931E+02 5.49681E+01 7.01758E+01-6.27586E+01 9.62124E-01 1.13530E+01
 -1         8-1.40255E+02 4.04741E+01 4.10775E+01-6.38830E+01-4.12695E+00 1.53777E+01
 -1         9-1.53481E+02 1.98026E+01 3.37377E+01-5.48595E+01-2.98145E+01 1.65893E+01
 -1        10-2.33546E+02 6.78376E+01 8.53199E+01-6.08173E+01 1.93778E+01 2.31306E+01
 -1        11-2.50122E+02 3.02804E+02 1.36292E+00-6.64024E+01-1.47898E+02-9.68495E+01
 -1        12-2.31592E+02 6.71792E+02-2.50018E+02-2.49939E+02 8.21678E+01-7.74243E+01
 -1        13-4.18899E+02 8.42414E+01 1.03945E+02-3.42038E+02-4.01652E+01 4.39869E+01
 -1        14-3.23460E+02 9.03917E+01 1.08445E+02-1.36815E+02-2.67719E+00-4.08468E+01
 -1        15-2.00123E+02 6.58261E+01 5.45664E+01-1.09769E+02 2.39073E+00-8.07980E+00
 -1        16-8.64609E+01 5.43903E+01 1.51387E+01-1.02004E+02-2.22403E+01-2.85202E+01
 -1        17-6.11057E+01 3.21348E+02-1.25569E+02-9.61070E+01-1.56830E+01 6.16508E+00
 -1        18 1.38565E+01 1.96506E+02-1.29254E+01-1.85001E+02 9.50475E+01 1.15269E+02
 -1        19-1.08852E+02-1.28022E+01 3.88806E+01-2.83211E+02-7.30395E+01 8.17090E+01
 -1        20-2.85239E+02 7.31307E+01 9.57991E+01-3.46061E+02 5.22100E+01-5.42219E+00
 -1        21-3.14290E+02 9.15089E+01 9.45552E+01-2.42336E+02 2.04280E+01-2.06328E+01
 -1        22-2.80011E+02 8.16079E+01 6.51747E+01-1.88739E+02-1.27524E+01 2.18959E+01
 -1        23-2.36318E+02 8.23687E+01 6.09890E+01-1.63297E+02-7.90946E+00 9.71183E+00
 -1        24-1.91778E+02 8.34801E+01 3.99829E+01-1.43718E+02-1.08383E+00-7.72186E+00
 -1        25-1.46343E+02 9.47632E+01 1.98869E+01-1.34464E+02-4.25405E-01 1.36021E+01
 -1        26-9.38348E+01 1.05597E+02-7.63010E+00-1.37600E+02-2.99413E+00 8.73368E+00
 -1        27-5.50457E+01 1.29195E+02-2.26826E+01-1.21647E+02-1.32570E+01-1.03684E+01
 -1        28-3.36743E+01 2.35930E+02-5.57917E+01-9.03167E+01-8.68707E+00-1.35818E+01
 -1        29-1.85242E+00-5.43273E+01 1.42746E+01-1.65160E+02 1.75746E+01 2.23952E+01
 -1        30-2.21146E+02 6.52003E+01 6.40387E+01-2.70787E+02 3.32729E+01-1.55710E+00
 -1        31-2.53583E+02 9.11316E+01 5.92679E+01-1.68923E+02-5.05755E+00 7.64380E+00
 -1        32-1.79264E+02 1.10099E+02 2.66905E+01-1.29030E+02 2.44824E+00-8.77019E+00
 -1        33-8.80717E+01 1.37540E+02-2.10557E+01-1.12142E+02 4.83338E+00 6.14138E-01
 -1        34-4.59392E+01 1.47607E+02-4.08275E+01-4.23474E+01-2.03190E+01 9.54596E-01
 -1        35-1.63770E+00-4.43451E+01-8.90249E-01-1.15167E+02 4.40519E+01 7.17703E+00
 -1        36-7.18828E+01-1.61656E+01 2.60698E+01-1.80525E+02 7.52679E+00-9.64842E+00
 -1        37-1.61297E+02 3.43453E+01 5.41883E+01-2.22345E+02-9.87637E+00 1.14896E+01
 -1        38-2.13605E+02 7.87374E+01 5.19267E+01-1.79922E+02-7.87521E+00-1.74262E+00
 -1        39-2.38636E+02 1.10735E+02 4.99388E+01-1.58727E+02 1.91329E+00-3.86355E+00
 -1        40-2.02998E+02 1.23390E+02 2.99853E+01-1.39679E+02 3.89285E-01 2.16725E-01
 -1        41-1.65375E+02 1.34391E+02 1.22612E+01-1.21506E+02-2.46289E+00-4.99712E+00
 -1        42-1.17239E+02 1.42997E+02-9.24885E+00-1.04973E+02-6.46134E+00 5.62170E-01
 -1        43-7.52214E+01 1.55969E+02-2.80742E+01-9.79642E+01-1.05985E+01-7.54110E+00
 -1        44-5.83381E+01 1.74618E+02-4.96910E+01-7.08067E+01 7.57949E+00 9.07628E-01
 -1        45-4.53282E+01 1.75669E+02-5.48265E+01-3.81572E+01-3.51200E+00-3.70887E+00
 -1        46-2.18433E+00 1.02508E+01 2.87956E+01-6.82049E+01 1.67261E+01 7.95872E+00
 -1        47-1.52090E+02 5.49300E+01 3.44583E+01-1.64200E+02 8.10970E+00 1.60287E+01
 -1        48-2.23592E+02 1.23942E+02 4.07275E+01-1.42430E+02-6.58511E-01-7.14879E+00
 -1        49-1.45039E+02 1.44726E+02 2.80558E-01-1.10356E+02 1.30142E+00-5.11435E+00
 -1        50-6.45199E+01 1.71189E+02-4.10825E+01-7.72119E+01-3.56695E+00-5.69625E+00
 -1        51-4.91231E+01 1.99564E+02-5.17390E+01-3.14710E+01-6.59588E+00-1.72085E+00
 -1        52-2.16335E+01 2.19241E+01-1.93473E+01-2.02449E+01-4.52934E+01 1.86055E+01
 -1        53-8.58113E+01 5.10655E+01-5.41055E+00-6.96498E+01-4.37249E+01-5.30697E+00
 -1        54-1.59050E+02 8.00370E+01 4.22770E+01-1.10574E+02 2.48862E+01 1.88730E+01
 -1        55-1.98327E+02 1.15253E+02 3.42991E+01-1.20635E+02 8.88832E+00 4.78467E+00
 -1        56-2.17863E+02 1.43877E+02 2.77970E+01-1.28666E+02-9.05642E+00-5.63536E+00
 -1        57-1.71205E+02 1.46586E+02 8.26482E+00-1.16026E+02-3.85603E+00 1.70811E+00
 -1        58-1.24238E+02 1.50837E+02-1.04107E+01-1.00717E+02 4.19913E+00-4.59385E+00
 -1        59-8.24520E+01 1.64322E+02-2.98970E+01-7.68448E+01 2.00134E+00 3.03793E+00
 -1        60-5.01553E+01 1.84610E+02-4.91290E+01-5.57545E+01 8.08831E-01-2.84093E+00
 -1        61-5.02280E+01 2.06426E+02-6.39726E+01-3.69462E+01-2.44149E+00-2.27559E+00
 -1        62-5.17139E+01 2.08216E+02-6.78559E+01-2.15368E+01-1.42667E+01-4.17649E+00
 -1        63-5.68832E+01 7.12308E+01-1.56175E+01 2.30325E+01 5.17560E+01 8.71889E+00
 -1        64-2.18233E+02 1.58515E+02 2.07481E+01-8.85843E+01-3.39959E+01-1.52480E+01
 -1        65-1.99895E+02 1.29903E+02 2.47856E+01-1.28155E+02 5.33361E+00 5.02366E+00
 -1        66-1.01265E+02 1.34216E+02-1.18873E+01-9.27283E+01-3.93664E+00-9.47383E+00
 -1        67-2.32737E+01 1.64025E+02-5.78650E+01-2.49482E+01-3.21554E+00 4.61714E-01
 -1        68-5.76420E+01 2.10887E+02-5.89174E+01-8.37444E-01 5.60874E+00 8.78663E+00
 -1        69-4.83430E+01 6.31488E+02-1.15601E+02-8.35237E+01-7.13223E+01 1.03262E+02
 -1        70-1.27077E+02 1.91641E+02-1.32855E+01-9.70288E+01 7.71662E+01 8.69406E+01
 -1        71-2.66552E+02 1.82621E+02 3.44896E+01-8.97049E+01-4.73765E+01-4.34707E+01
 -1        72-2.65030E+02 1.60245E+02 4.42168E+01-1.28072E+02-1.95505E+01-4.35828E+01
 -1        73-1.89138E+02 1.13953E+02 1.83298E+01-1.49535E+02 1.63252E+01 1.08738E+01
 -1        74-1.30046E+02 1.04111E+02 1.18235E+01-1.25698E+02 9.40276E+00 2.27196E+00
 -1        75-7.00236E+01 9.95579E+01-1.09009E+01-9.54711E+01 1.81890E+00-1.34560E+01
 -1        76-2.09098E+01 1.08691E+02-3.72666E+01-4.66356E+01 5.80715E+00-2.46007E+00
 -1        77 1.41665E+01 1.27757E+02-6.15552E+01 1.57170E+01 9.63802E+00 1.31607E+00
 -1        78-1.83831E+01 1.93956E+02-6.05185E+01 4.84621E+01 5.26483E+00 7.94142E+00
 -1        79-5.13490E+01 2.55810E+02-7.60041E+01 6.23233E+01 1.52622E+01 2.29371E+01
 -1        80-3.22066E+02 1.28497E+03-4.98445E+02-6.98721E+01-1.60828E+01-7.92229E+01
 -1        81-3.29567E+02 1.13442E+02 6.80671E+01-1.58727E+01 9.12698E+01 8.56382E+01
 -1        82-2.02381E+02 9.10378E+01 6.10368E+01-1.29989E+02-4.95470E+00-3.54237E+01
 -1        83-2.37984E+01 4.32207E+01-9.15112E+00-7.66286E+01-2.90755E+00-6.58494E+00
 -1        84 9.66808E+01 4.31684E+01-4.45416E+01 3.70490E+01 7.82609E+00-4.83217E+00
 -1        85 2.36474E+00 1.84764E+02-7.53759E+01 1.22834E+02 2.41948E+01-9.80019E+00
 -1        86-1.47985E+03 1.45842E+03 3.40949E-01 2.08437E+01 6.16632E+02 6.36555E+02
 -1        87-1.37781E+03 3.20753E+02 5.36459E+02 7.78708E+01-8.90413E+01-1.91177E+01
 -1        88-7.96270E+02 9.09822E+01 1.62589E+02 4.09633E+01 9.56414E+01-8.01547E+01
 -1        89-2.35573E+02 1.04353E+02 6.09232E+01-1.11999E+02-9.74476E-01 3.24531E+01
 -1        90-1.88234E+02 6.26601E+01 5.72876E+01-1.00989E+02 1.39817E+01-8.05206E+01
 -1        91-1.11892E+02 2.95519E+01 1.31178E+01-7.65777E+01 3.70791E+00-1.92927E+01
 -1        92-7.82872E+00 4.60018E+00 1.44710E+01-5.29562E+01 3.56502E-01-3.35551E+01
 -1        93 4.89032E+01-1.61249E+01-1.10212E+01-2.30789E+01 1.47967E+01 1.02621E+01
 -1        94 1.51363E+02-2.71371E+01-4.69295E+01 4.25170E+01 3.03429E+01-7.23032E-01
 -1        95 1.14925E+02 1.51048E+01-5.26831E+01 1.11793E+02-6.84641E+00 2.29774E+01
 -1        96 3.90218E+01 7.41714E+01 1.36493E+00 1.38615E+02 8.65037E+01 6.72134E+01
 -1        97-1.27698E+03 1.08084E+03-5.41978E+01-2.34695E+02-3.53882E+02 9.44390E+02
 -1        98-6.76401E+02 8.82536E+01 1.74115E+02-2.22822E+02-2.63219E+01-9.58355E+01
 -1        99-2.65278E+02 7.51351E+01 8.36028E+01-4.07870E+01-1.55354E+01 1.25470E+01
 -1       100-1.62401E+02 4.59712E+01 5.79176E+01-4.55008E+01-3.71697E+00 1.06065E+01
 -1       101-1.27539E+02 1.22994E+01 2.72061E+01-2.88328E+01-1.60414E+01 6.08886E+01
 -1       102-3.01758E+02 3.45370E+02 1.39449E+01-4.84913E+01-2.44266E+02-1.23622E+02
 -1       103 2.70133E+01 1.76121E+02-1.18140E+01-9.46731E+01 2.64372E+02 5.99249E+01
 -1       104-2.50397E+02 7.40243E+01 7.59978E+01-2.80293E+02 5.76890E+00 2.51580E+01
 -1       105-2.17556E+02 6.35346E+01 4.78163E+01-1.51101E+02-1.00043E+01 1.07949E+00
 -1       106-1.52258E+02 6.72360E+01 3.09479E+01-1.14968E+02-9.55484E+00-1.47486E+01
 -1       107-8.05384E+01 9.08187E+01-6.10634E+00-1.11345E+02-1.47863E+01-1.26067E+01
 -1       108-2.38067E+01 1.93532E+02-4.95959E+01-7.20611E+01 6.61109E+00-1.29623E+01
 -1       109-2.51216E+00-1.78003E+01-9.61270E+00-7.98015E+01 5.06382E+01 2.82125E+01
 -1       110-1.25612E+02 2.16296E+01 4.55912E+01-1.79509E+02-7.19488E+00 1.59502E+01
 -1       111-1.92134E+02 8.95653E+01 3.92192E+01-1.27886E+02-6.75630E+00-6.36581E+00
 -1       112-1.33231E+02 1.08107E+02 1.00168E+01-9.79039E+01-9.04776E+00-1.50527E+01
 -1       113-6.03558E+01 1.23385E+02-2.05956E+01-7.91286E+01-1.12324E+01-1.34920E+01
 -1       114-3.80839E+01 1.42824E+02-4.31829E+01-2.58304E+01-2.89256E+01-6.15699E+00
 -1       115-1.90486E+01 3.90072E+01-2.38440E+01-1.39784E+01-3.05159E+00 3.57437E+01
 -1       116-1.22462E+02 5.46605E+01 3.78599E+01-8.75324E+01 3.06141E+00 1.57191E+01
 -1       117-1.75872E+02 1.16795E+02 2.19330E+01-1.03249E+02-5.93984E+00-9.41120E+00
 -1       118-9.94600E+01 1.20506E+02-7.77650E+00-8.07934E+01-9.64236E-01-1.65015E+01
 -1       119-4.21179E+01 1.47457E+02-3.81770E+01-4.46323E+01-2.26641E+00-1.00735E+01
 -1       120-4.21771E+01 1.67624E+02-5.20397E+01-1.74616E+01-1.78962E+01 1.28171E+00
 -1       121-2.02295E+01 5.28684E+02-1.08258E+02-1.04412E+02-2.62303E+02 6.49743E+01
 -1       122-2.40529E+02 1.73273E+02 2.74980E+01-7.21516E+01 2.70859E+00 1.05543E+01
 -1       123-1.42063E+02 8.60223E+01 9.15487E+00-1.22187E+02 1.03916E+01-7.10934E+00
 -1       124-5.69769E+01 8.00333E+01-7.40162E+00-7.72567E+01 7.41630E+00-1.86167E+01
 -1       125 1.34635E+01 1.05127E+02-4.82665E+01 1.36461E+01 1.11605E+01-6.57945E+00
 -1       126-4.45522E+01 1.99648E+02-6.26294E+01 3.98100E+01 1.32670E+01 8.75813E+00
 -1       127-1.71474E+03 1.71015E+03-8.57944E+00 1.30946E+01 9.15594E+02 9.63912E+02
 -1       128-6.51478E+02 5.58255E+01 1.43935E+02 7.35312E+01 5.61091E+01-2.84238E+02
 -1       129-1.64242E+02 5.32878E+01 5.11547E+01-6.99707E+01 3.09481E+01-8.75838E+01
 -1       130-1.34869E+01 3.26212E+00 1.45615E+01-3.70651E+01 4.06453E+00-6.76483E+01
 -1       131 1.11689E+02-2.65327E+01-3.82025E+01 2.33222E+01 1.74255E+01-8.83235E+00
 -1       132 3.68290E+01 7.94605E+01 1.97262E+01 1.35547E+02 1.82335E+02 1.52071E+02
 -1       133-1.49004E+03 1.28879E+03-3.17276E+02-2.05684E+02-9.52238E+02 2.39348E+03
 -1       134-1.23229E+03 2.51040E+02 6.06425E+02-2.37848E+02-6.60401E+01 1.99032E+02
 -1       135-5.39815E+02 4.67030E+01 2.23984E+00-1.60670E+02-4.28630E+01-3.82754E+01
 -1       136-1.65924E+02 7.15331E+01 1.28264E+02 3.98756E+00 8.23577E+01 8.60422E+00
 -1       137-2.06426E+02 6.19876E+01-2.67337E+01-2.51467E+01-7.24835E+01 1.21135E+02
 -1       138-1.60276E+02 4.51775E+01 2.02679E+01-3.24820E+01-1.91773E+01 6.89254E+01
 -1       139-1.29352E+02 3.63305E+01 3.91057E+01-2.78551E+01-1.85827E+01 3.17448E-01
 -1       140-7.74219E+01 2.01443E+01 3.92248E+01-3.49727E+01 2.84300E+01 6.45486E+01
 -1       141-1.02712E+02 8.25321E-01-1.77911E+01-1.03862E+01-2.83704E+01 8.91246E+01
 -1       142-2.68468E+02 7.07162E+01 1.39822E+02-1.99434E+01-6.22372E+01 8.52409E+01
 -1       143-3.61925E+02 4.01427E+02 7.53361E+01-3.64030E+01-6.06072E+02-3.35566E+02
 -1       144-2.49002E+02 8.45747E+02-4.67914E+02-1.08387E+02 3.47633E+02 2.35903E+02
 -1       145-1.76146E+02 6.69303E+01-4.51950E+01-2.41466E+02-1.72471E+02 1.65689E+02
 -1       146-2.16596E+02 5.48213E+01 6.24339E+01-7.12145E+01-6.32308E+00-3.89769E+01
 -1       147-1.27242E+02 4.30851E+01 2.13983E+01-6.35061E+01-1.07301E+01-7.25027E+00
 -1       148-3.29520E+01 3.75611E+01-6.72315E-01-4.39419E+01-6.40606E+01-5.05619E+01
 -1       149-7.03012E+01 3.35361E+02-1.64489E+02-5.88546E+01-5.95919E+01-3.10396E+01
 -1       150 5.38200E+01 1.57153E+02 1.07372E+02-3.12201E+01 3.86177E+02 1.02570E+02
 -1       151-7.79837E+01-7.72837E+01 5.25798E+01-1.05125E+02-8.31214E+01 2.32409E+02
 -1       152-2.12422E+02 7.45824E+01 9.91052E+01-2.17350E+02 5.72834E+01-8.61443E+01
 -1       153-1.78142E+02 6.85233E+01 3.90897E+01-1.69063E+02 2.29680E+00-4.26722E+01
 -1       154-1.57679E+02 4.51183E+01 3.77933E+01-1.13785E+02-1.93531E+01 6.67320E+00
 -1       155-1.45101E+02 4.71870E+01 3.35803E+01-9.84307E+01-2.16728E+01-3.45357E+00
 -1       156-1.12764E+02 5.08117E+01 3.09691E+01-8.71296E+01-1.83008E+01-3.44460E+01
 -1       157-8.73135E+01 6.27266E+01 5.31875E+00-7.82708E+01-1.22586E+01-7.21311E+00
 -1       158-6.65009E+01 7.48566E+01-1.32488E+01-8.61911E+01 7.47005E+00-1.58946E+00
 -1       159-3.90708E+01 5.84490E+01 1.28004E+01-8.31105E+01-5.73664E+01-5.82102E+01
 -1       160-1.01831E+01 1.55323E+02-1.00254E+00-5.19033E+01-1.90326E+01-2.19404E+01
 -1       161 2.16951E+01-4.67209E+01-2.90692E+01-9.73904E+01 2.11955E+02-8.91081E+01
 -1       162-1.49203E+02 3.04694E+01 6.56233E+01-1.51853E+02 1.38414E+01 2.15037E+00
 -1       163-1.48644E+02 5.68119E+01 3.39300E+01-1.06045E+02-1.15264E+01-1.05269E+01
 -1       164-1.07492E+02 6.62642E+01 1.72275E+01-7.75005E+01-1.02842E+01-2.96599E+01
 -1       165-5.77936E+01 8.11803E+01-7.70339E+00-7.45516E+01-5.87639E-01-1.98429E+01
 -1       166-2.44145E+01 7.77674E+01-4.24749E+01-8.85922E+00-3.10140E+01 1.78984E+01
 -1       167-5.80891E+00 5.11543E-01 2.11235E+01-4.15485E+01 2.99839E+01 1.08598E+02
 -1       168-4.55009E+01 5.88865E+00 3.06795E+01-1.04638E+02 3.12602E+01 1.17784E+01
 -1       169-9.15236E+01 1.08679E+01 1.92648E+01-1.38480E+02-2.45260E+01 3.19231E+01
 -1       170-1.26169E+02 4.32743E+01 3.05249E+01-1.05380E+02-1.84948E+01-3.44151E+00
 -1       171-1.46556E+02 6.82462E+01 2.88495E+01-9.67439E+01-1.25819E+01-1.00070E+01
 -1       172-1.21269E+02 7.58849E+01 1.80540E+01-8.53590E+01-1.32883E+01-1.29084E+01
 -1       173-1.01266E+02 8.20255E+01 7.10612E+00-7.41715E+01-1.59421E+01-2.49071E+01
 -1       174-7.18008E+01 8.53184E+01-4.69400E+00-6.43704E+01-1.63629E+01-1.53824E+01
 -1       175-4.50143E+01 9.13936E+01-1.78355E+01-6.04797E+01-2.14323E+01-2.62164E+01
 -1       176-3.78633E+01 1.11514E+02-2.64416E+01-3.86046E+01-1.06824E+01-5.09421E+00
 -1       177-3.06029E+01 1.09089E+02-1.13544E+01-1.53941E+01-7.43495E+01-2.47304E+01
 -1       178-3.63648E+00 1.87754E+01 2.24533E+01-3.27164E+01 7.34374E+01 6.63186E+01
 -1       179-8.36280E+01 3.90605E+01 1.59695E+01-9.97197E+01 2.23632E-01 3.94416E+01
 -1       180-1.38060E+02 7.27991E+01 2.37309E+01-8.66273E+01-7.62313E+00-1.55241E+01
 -1       181-8.81531E+01 8.72722E+01-8.11160E-02-6.72070E+01-9.22436E+00-2.63591E+01
 -1       182-3.97963E+01 1.03509E+02-2.05882E+01-4.74839E+01-9.32159E+00-1.96041E+01
 -1       183-3.00866E+01 1.14261E+02-2.09846E+01-1.51997E+01-3.90106E+01-1.86918E+00
 -1       184-2.00110E+01 4.36822E+01 6.97929E+01-1.53920E+01 1.08636E+02 1.39423E+02
 -1       185-5.14296E+01 5.64862E+01 4.75243E+00-3.33714E+01-5.03933E+01 1.01131E+01
 -1       186-8.74373E+01 3.28061E+01 1.83458E+01-6.41130E+01 1.30897E+01 2.97145E+01
 -1       187-1.18317E+02 6.32622E+01 2.12555E+01-7.89174E+01-3.74714E+00-2.82003E+00
 -1       188-1.34268E+02 8.96863E+01 1.69255E+01-7.77504E+01-7.26743E+00-1.37594E+01
 -1       189-1.01724E+02 9.00700E+01 5.43733E+00-6.95386E+01-7.69719E+00-1.40555E+01
 -1       190-7.48989E+01 9.10594E+01-5.22508E+00-6.08804E+01-3.49091E+00-2.72905E+01
 -1       191-5.12519E+01 9.87418E+01-1.82681E+01-4.69039E+01-4.56435E+00-1.43898E+01
 -1       192-3.28306E+01 1.10321E+02-2.62797E+01-3.35812E+01 2.37538E-03-1.35384E+01
 -1       193-3.22011E+01 1.28812E+02-3.62882E+01-2.26193E+01-1.41470E+01-9.46818E+00
 -1       194-3.08996E+01 1.29007E+02-2.16013E+01-1.38369E+01-1.31396E+01 1.29758E+01
 -1       195-1.03453E+01 2.04167E+00-8.82399E+01 5.56257E+01-1.12687E+02-1.18274E+02
 -1       196-1.52028E+02 8.05919E+01 4.58465E+01-7.94187E+01-4.52782E+01-5.13035E+00
 -1       197-1.14588E+02 7.88339E+01 1.14898E+01-7.20500E+01 2.13729E+00-1.37890E+01
 -1       198-6.15347E+01 7.86801E+01-4.32410E+00-5.60129E+01-5.89139E+00-3.13514E+01
 -1       199-1.40835E+01 9.82389E+01-3.68456E+01-1.30598E+01-1.05598E+01-1.77264E+01
 -1       200-4.02719E+01 1.12537E+02-4.80234E+01-4.77555E+00-4.50266E+00-1.47830E+00
 -1       201 2.36975E+01 4.40129E+02 9.07450E+01-1.00371E+02-3.04576E+02 1.05771E+02
 -1       202-9.66280E+01 1.01998E+01 8.86221E+01-1.30909E+02 1.65878E+02 2.90913E+02
 -1       203-2.11975E+02 1.61701E+02 2.29211E+01-5.52111E+01-1.21626E+02-1.07875E+02
 -1       204-1.42224E+02 1.16556E+02-7.03013E+00-5.30891E+01-1.51147E+01-5.34099E+01
 -1       205-9.93080E+01 5.92753E+01 1.45236E+01-9.66490E+01 2.63079E+01-5.90661E+00
 -1       206-8.13636E+01 5.80163E+01 9.32028E+00-8.02952E+01 2.30840E+01-5.32514E+00
 -1       207-4.32150E+01 6.09495E+01 1.18297E+00-5.96227E+01 9.19933E+00-3.49355E+01
 -1       208-1.53955E+01 6.79885E+01-2.39860E+01-2.65420E+01 6.26244E+00-2.44124E+01
 -1       209 1.20378E+01 8.17433E+01-6.31774E+01 1.13899E+01-1.26217E+01-3.60996E+01
 -1       210-1.43068E+01 1.10700E+02-1.08360E+01 2.19593E+01 3.99997E+01 1.83168E+01
 -1       211-3.85212E+01 1.50541E+02-3.48673E+01 2.01542E+01 4.31664E+01 1.81030E+01
 -1       212-3.58164E+02 1.47667E+03-7.70849E+02-9.11596E+01-1.18480E+02 2.36103E+02
 -1       213-9.07215E+01 8.89312E+01-6.42355E+01 6.45004E+01 2.91263E+02 1.67539E+02
 -1       214-1.46712E+02 5.41689E+01 3.23548E+01-7.93361E+01 1.33360E+00-7.29889E+01
 -1       215-1.43019E+01 2.83177E+01-1.55705E+01-4.38645E+01 9.75558E+00-3.56960E+01
 -1       216 5.29936E+01 2.43310E+01-8.77438E-01 1.39131E+01 3.11151E+01 3.43460E+00
 -1       217-4.05686E-02 1.53914E+02-6.02390E+01 9.24905E+01 1.03400E+02 4.19955E+01
 -1       218-2.01474E+03 2.02115E+03-3.57164E+01 7.17564E+00 2.38276E+03 2.46197E+03
 -1       219-1.52003E+03 3.65276E+02 7.83595E+02 9.40978E+01 1.94944E+02-1.08478E+02
 -1       220-5.26721E+02 5.25036E+00-6.45162E+01 8.09088E+01 9.13535E+01-3.39998E+02
 -1       221-8.90530E+01 4.20918E+01 1.08292E+02-9.49561E+01-1.26472E+02-2.07017E+02
 -1       222-1.29924E+02 4.81728E+01-5.87969E+01-3.61826E+01 1.38768E+02-4.02841E+01
 -1       223-7.32519E+01 2.01517E+01 3.55222E+00-2.33907E+01 3.65793E+01-6.68300E+01
 -1       224-1.90508E+01 1.15885E+00 3.83939E+01-2.48317E+01 6.78135E+00-1.05019E+02
 -1       225 1.37417E+01-1.71850E+01-1.01214E+01-1.38053E+01-4.90492E+00-4.33938E+01
 -1       226 8.08304E+01-2.78881E+01-2.98461E+01 7.65243E+00 4.03223E+01 1.33698E+01
 -1       227 9.01539E+01 1.14108E+01-3.36203E+01 8.61050E+01 5.78681E+01 8.98424E+01
 -1       228 4.77061E+01 9.82409E+01 1.48555E+02 1.47291E+02 4.98840E+02 4.23776E+02
 -1       229-2.97067E+03 2.20795E+03-4.73714E+02-4.90409E+02-1.54281E+03 3.89214E+03
 -1       230-2.05191E+02-1.26770E+02-1.79395E+02-3.96819E+01-6.71426E+01-4.65699E+01
 -1       231-8.90854E+01 1.02186E+02-1.26915E+02-8.82785E+01-1.02001E+02 1.94668E+02
 -1       232-8.19422E+01 3.64725E+01 1.99138E+01 1.15673E+01-3.77518E+01-9.60524E+00
 -1       233-3.49735E+01-5.53431E+01-5.81270E+01-6.77851E+00-3.38700E+01 1.09424E+02
 -1       234-6.59045E+02 7.72801E+02 1.25497E+02-7.48610E+01-9.75647E+02-5.52805E+02
 -1       235 2.66010E+02 2.72138E+00 2.00510E+02 7.93136E+00 4.58572E+02 1.16313E+02
 -1       236-2.86787E+02 1.45931E+02 1.26552E+02-1.68012E+02 1.47889E+02-1.93542E+02
 -1       237-9.48413E+01 1.66491E+01 2.73049E+01-6.51429E+01-3.56024E+01 2.48705E+01
 -1       238-7.76689E+01 3.41230E+01 3.17735E+01-6.31523E+01-1.92832E+01-5.08626E+01
 -1       239-7.47889E+01 8.63968E+01-2.07545E+01-6.08890E+01 3.08112E+01 2.20543E+01
 -1       240 4.29092E+01 6.60274E+01 4.60355E+01-2.19809E+01-2.42048E+01-2.89830E+01
 -1       241-7.78166E+01-2.60938E+01 6.18350E+01 5.64399E+01 1.86083E+01 1.83449E+02
 -1       242-4.78803E+01 2.46985E+00-7.15053E+00-1.03212E+02-4.89672E+01 3.98000E+01
 -1       243-9.81611E+01 4.68342E+01 1.99470E+01-6.52136E+01-1.25581E+01-1.24976E+01
 -1       244-6.86431E+01 5.51107E+01 4.18326E+00-5.04623E+01-2.07106E+01-3.03935E+01
 -1       245-2.46909E+01 5.94966E+01-1.61941E+01-3.71489E+01-3.14290E+01-3.60059E+01
 -1       246-4.40884E+01 6.06455E+01 1.96129E+01-3.06290E+01-1.05015E+02-3.94208E+01
 -1       247-1.12033E+02-2.73038E+01 1.64228E+02-1.18981E+02 1.78756E+02 2.14442E+02
 -1       248-3.77613E+01 8.18062E+00 3.80669E-01-2.88244E+01 4.12502E+01 4.64235E+01
 -1       249-9.15097E+01 6.17104E+01 1.24139E+01-5.23516E+01-1.26464E+01-1.77180E+01
 -1       250-5.03837E+01 5.99948E+01-3.81316E+00-4.14873E+01-1.92649E+00-3.17082E+01
 -1       251-2.76220E+01 7.43015E+01-1.41945E+01-2.46876E+01 1.12022E+00-1.64993E+01
 -1       252-4.03058E+00 8.08382E+01-1.98717E+00-4.91435E+00-2.88917E+00 3.00572E+01
 -1       253 2.98968E+02 1.07413E+02 2.81323E+02-3.90966E+01-3.59478E+02 1.33144E+02
 -1       254-3.17612E+02 2.84521E+02 1.86142E+01-3.79369E+01-2.70023E+02-2.51355E+02
 -1       255-4.96756E+01 1.20386E+01 1.95834E+01-7.89302E+01 4.77987E+01 1.01723E+01
 -1       256-3.56735E+01 4.74754E+01 1.07864E+01-4.01331E+01 2.36554E+00-5.15977E+01
 -1       257 2.86420E+01 7.63680E+01-8.41106E+01 2.57486E+01-2.35807E+01-4.92331E+01
 -1       258-5.92687E+01 7.03341E+01 1.27381E+01-2.75198E+01 4.09604E+01 7.70164E+00
 -1       259-3.75353E+03 3.76240E+03-6.13996E+01 2.12105E+00 3.88439E+03 3.98444E+03
 -1       260-1.64946E+02-2.83703E+02-2.58764E+02 3.03923E+01 1.14649E+02-4.02937E+02
 -1       261-2.61422E+01 1.47975E+02-1.66913E+02 7.83300E+01 2.12945E+02-1.03040E+01
 -1       262-2.55177E+01-7.65684E+00 5.31737E+01-2.89832E+01 2.55719E+01-1.23251E+02
 -1       263 2.82983E+01-4.96288E+01-1.73537E+00-2.95134E+01 3.85008E+01 8.57932E+00
 -1       264 2.72797E+02 3.69690E+02 1.66989E+02 3.96265E+02 8.59569E+02 7.37811E+02
 -1       265-6.36500E-04 7.02913E+03 4.16110E-03 2.43900E+02 1.57409E+03 1.98060E-03
 -1       266-4.27446E-04 7.38138E+03 2.20415E-03 1.12537E+02 1.95509E+03-3.94940E-03
 -1       267 4.23952E-04 8.11549E+03 2.10573E-03-3.45163E+00 2.31843E+03 3.33795E-03
 -1       268 1.13759E-03 8.44460E+03 3.51417E-03-2.87745E+00 2.17411E+03-1.72413E-03
 -1       269 2.35786E-03 8.62515E+03 4.83135E-03 2.94400E+00 1.56339E+03-2.68402E-04
 -1       270 2.83359E-03 8.14211E+03 4.75986E-03-8.71441E+01 1.99037E+03 1.97890E-03
 -1       271-5.12001E-05 7.23115E+03 2.95682E-03-2.26749E+02 9.03071E+02-6.64573E-04
 -1       272-1.00282E-03 6.09949E+03 4.78503E-03-1.35538E+02 6.54668E+02 2.41616E-03
 -1       273 3.56908E-04 5.39999E+03 3.55036E-03 4.83342E+01 1.39829E+03 1.01237E-03
 -1       274 2.07516E-04 4.75789E+03 2.65127E-03-2.73346E+00 1.26907E+03-1.64371E-03
 -1       275 1.93843E-04 3.98191E+03 2.60225E-03-7.21253E+01 8.72380E+02-4.55302E-04
 -1       276 7.36341E-04 3.09395E+03 1.11669E-03-9.39667E+01 9.14207E+02 3.89409E-03
 -1       277 6.21514E-04 2.14819E+03 6.16136E-04-9.32307E+01 5.21910E+02-2.91785E-03
 -1       278 1.29349E-04 8.61258E+02 2.76412E-04-1.26155E+02 3.94631E+01 2.94691E-03
 -1       279 5.89998E-05-3.17165E+02 1.12879E-03-1.64253E+02-6.33690E+02-2.25128E-03
 -1       280-1.50213E+02 5.60717E+03-3.07860E+02 3.06344E+02-7.84670E+02-4.95126E+02
 -1       281-1.01708E+02 6.40069E+03-8.83573E+02 6.01083E+02-4.35147E+02 9.76055E+01
 -1       282-2.06674E+02 7.17522E+03-1.01598E+03 8.59417E+01-1.76064E+02 1.01374E+02
 -1       283-2.14678E+02 6.64827E+03-1.55692E+03-1.14375E+03-1.13214E+02-1.09773E+02
 -1       284 1.98932E+02 4.36816E+03-1.02959E+03-5.49655E+02-1.72933E+02 1.06147E+02
 -1       285-1.31693E+02 3.31067E+03-4.03531E+02-7.45759E+02-8.53935E+01 1.28672E+02
 -1       286-4.33070E+01 1.66525E+03-2.00086E+02-1.01880E+03-1.98232E+02 1.54015E+01
 -1       287-6.86608E+01-8.67823E+00 5.06745E+01-1.00983E+03-2.22474E+02 7.52804E+01
 -1       288-4.46435E+01-1.63768E+02-6.15729E+02-3.92510E+01 2.17096E+03 6.79567E+01
 -1       289 1.68567E+01 5.24856E+02-1.19144E+03 7.50886E+02 2.20356E+03 7.31368E+01
 -1       290-1.86138E+02 1.34279E+03-1.76715E+03 1.34090E+03 1.65880E+03-9.29840E+01
 -1       291-4.29660E+02 2.61803E+03-1.89956E+03 8.33266E+02 1.70795E+03 2.57183E+02
 -1       292-7.12918E+02 3.39245E+03-2.03197E+03 3.31533E+02 1.09571E+03 9.94022E+01
 -1       293-1.21521E+03 4.55734E+03-2.57291E+03-4.30840E+02 1.01547E+03-1.33871E+02
 -1       294-8.84248E+02 5.71248E+03-3.11385E+03-1.54665E+03 1.38702E+03-1.03773E+02
 -1       295 5.44453E+02 4.48479E+03-2.58651E+03-1.92838E+03 1.65984E+03-6.62338E+02
 -1       296 2.53797E+02 2.47180E+03-2.05918E+03-9.79348E+02 9.15633E+02-8.11488E+01
 -1       297-1.50166E+02 1.85434E+03-1.43312E+03-1.08968E+03 8.78455E+02 6.91977E+01
 -1       298-3.03399E+02 1.41961E+03-8.07066E+02-1.45932E+03 8.16247E+02-5.00460E+01
 -1       299-2.93013E+02 8.39884E+02-6.03620E+02-1.65445E+03 5.66838E+02-6.39242E+01
 -1       300-1.36605E+02 3.73254E+02-4.00174E+02-1.82988E+03 6.02700E+02-2.29471E+01
 -1       301-9.12060E+01 1.05341E+02-1.49413E+02-1.72734E+03 2.88500E+02 2.07404E+01
 -1       302-1.11902E+02-3.81110E+00 1.01347E+02-1.56959E+03-3.43340E+02-6.63023E+01
 -1       303 1.41229E+03-6.87508E+03 9.63275E+02 1.42400E+03-3.07539E+02 2.29069E+02
 -1       304-1.42361E+01-3.41874E+03 8.87788E+02 3.29686E+03-6.06909E+01 1.32802E+02
 -1       305-1.58042E+03 1.06614E+03-2.84190E+02 1.62196E+03 1.81110E+02-5.99496E+01
 -1       306-1.39600E+03 3.25820E+03-1.06594E+03 3.30773E+02-2.19930E+02-5.44866E+02
 -1       307-5.58264E+02 4.86836E+02-4.23287E+02-8.30795E+02 7.97293E+01 3.09703E+02
 -1       308-6.31247E+02-4.38632E+02 2.17932E+02-2.05061E+03-1.92714E+02 2.80099E+01
 -1       309-8.93840E+01-8.39027E+02 2.12041E+02-1.80375E+03-2.08552E+02-2.82080E+01
 -1       310 1.92765E+02-3.90666E+02 7.03863E+01-1.19744E+03-3.27516E+02-4.74169E+01
 -1       311-1.42071E+03 4.68073E+02 2.89894E+02 1.46379E+03 5.73492E+02-1.00342E+03
 -1       312-6.02592E+02-2.76036E+03 1.41609E+03 3.79074E+03 4.13137E+02-1.48926E+02
 -1       313 1.85117E+03-7.18648E+03 2.54228E+03 4.44546E+03-4.76406E+01-5.47557E+02
 -1       314 2.03921E+03-7.70228E+03 3.04250E+03 4.10927E+03 6.86772E+02-2.66033E+02
 -1       315 4.58546E+02-7.23204E+03 3.54273E+03 5.10956E+03 4.16329E+02 1.53490E+03
 -1       316-2.07025E+03-1.45571E+03 2.50316E+03 4.62881E+03-1.67497E+02 1.04316E+03
 -1       317-2.76367E+03 1.07266E+03 1.46359E+03 2.85003E+03 4.38906E+02 6.05247E+02
 -1       318-2.34571E+03 1.26345E+03 1.22278E+03 1.65684E+03 7.91699E+02 3.87527E+02
 -1       319-1.86134E+03 1.50976E+03 9.81974E+02 8.45804E+02 1.58681E+03 2.32457E+01
 -1       320-9.94420E+02 2.30938E+02 1.21261E+03-1.13656E+03 6.47413E+02 1.18553E+02
 -1       321-1.31627E+03-2.40457E+02 1.22777E+03-1.87346E+03 7.74371E+01-3.98800E+02
 -1       322-5.63930E+02-1.90131E+03 1.24293E+03-2.51910E+03 2.94467E+02-5.97715E+01
 -1       323-1.85733E+01-1.98466E+03 1.03359E+03-2.09833E+03 2.81917E+02-2.31094E+02
 -1       324 9.35958E+01-1.71542E+03 8.24257E+02-1.75484E+03 9.65986E+01-3.11146E+02
 -1       325 3.79229E+02-1.09109E+03 4.31841E+02-1.23780E+03 2.73814E+02 1.75688E+02
 -1       326 5.67090E+02-6.33382E+02 3.94265E+01-6.53505E+02-2.85347E+02-1.01993E+01
 -1       327 2.58985E+02-6.05284E+01-4.62030E+01 1.85529E+02-1.63160E+02-4.47887E+02
 -1       328-6.13836E+01 5.14040E+02-1.31834E+02 1.04092E+03 3.02790E+02 1.81065E+02
 -1       329 1.31090E+03-4.36674E+02-4.84055E+02-1.05502E+03-8.36359E+02 2.99943E+02
 -1       330 8.70430E+02-5.42862E+03 1.84542E+03 2.87832E+03-1.07201E+02 3.69225E+01
 -1       331 2.26462E+03-1.04194E+04 2.32855E+03 8.64525E+02 4.26151E+02-1.22567E+03
 -1       332 1.23732E+02-2.63238E+03 9.13961E+02-1.98948E+03 8.80051E+02-2.29908E+02
 -1       333 9.41808E+02-2.52794E+03 4.99394E+02-1.00853E+03 1.91530E+02 1.10996E+01
 -1       334 9.37479E+02-4.92807E+02-2.44859E+02 1.77231E+01 2.26046E+02-1.39053E+01
 -1       335 1.12195E+03 3.31085E+02-6.10160E+02 1.59983E+03 2.49694E+02 1.80441E+02
 -1       336-2.16694E+03 4.97083E-04-3.77279E-03-4.52855E+02-6.07828E-03 6.90080E+02
 -1       337-2.25730E+03 2.13820E+02 3.17098E+01-2.35362E+03 4.01413E+02 6.85468E+02
 -1       338 7.11390E+01 2.63315E+02 6.34270E+01-3.50530E+03-1.11808E+02-1.06350E+02
 -1       339 3.61660E+03-9.21125E+02-5.97287E+02-3.06558E+03-2.77597E+02 9.27228E+02
 -1       340 4.41462E+03-1.91478E+03-1.25800E+03-2.90458E+03 4.82624E+01 7.59045E+02
 -1       341 3.20132E+03-2.48681E+03-5.47159E+01-9.87893E+02 2.45636E+01-6.75734E+02
 -1       342 6.22984E+01-3.16407E+03 1.14857E+03 1.03774E+03 4.46470E+02-3.92219E+02
 -1       343 2.05819E+02-3.50202E+03 1.13147E+03-3.01609E+02-1.94635E+03 2.21683E+03
 -1       344 2.43936E+03-4.05833E+03 1.11437E+03-2.74417E+03-2.85961E+03-8.33378E+02
 -1       345 6.69782E+02-1.71492E+03 5.84994E+02-1.83941E+03-3.12741E+02-4.80942E+02
 -1       346 1.28988E+03-2.08957E+03 3.79762E+02-1.56791E+03-8.19411E+02-5.16218E+02
 -1       347 1.91693E+03-2.40034E+03 1.74532E+02 4.91491E+02-6.60415E+02-3.82974E+02
 -1       348 1.34413E+03-8.61214E+02-1.77305E+02 8.62578E+02-4.70135E+02-2.42397E+02
 -1       349 1.23808E+03 2.11760E+02-5.29143E+02 6.22554E+02 1.54812E+02 9.99409E+01
 -1       350 2.01263E+03-6.69576E+01-8.08814E+02 1.16595E+03-3.11637E+00-3.15014E+01
 -1       351 2.74215E+03-4.61035E+02-1.08849E+03 1.54917E+03 1.62439E+02 6.88833E+01
 -1       352 2.61300E+03-4.13041E+02-3.91839E+02 9.99781E+01-1.06975E+02-7.45741E+01
 -1       353 1.48027E+01 2.81074E+01 3.04807E+02-6.37043E+02 4.41663E+00 1.04146E+03
 -1       354-2.26420E+03 5.54200E+01 1.52403E+02-2.67156E+02 1.60345E+02-1.67618E+02
 -1       355-2.92455E+03 2.72638E-04-1.00883E-03 3.72742E+01-1.42049E-04 8.60605E+02
 -1       356-4.95029E+03 2.45912E-05-1.40564E-03-3.22241E+02 8.18328E-03-9.08171E+02
 -1       357-3.16863E+02 1.24315E+02 7.59812E+02-4.08171E+03-1.69905E-01-1.56787E+03
 -1       358 5.25727E+03-1.42084E+03-2.22373E+03-4.03696E+03 5.82842E+02-9.51235E+02
 -1       359 3.52408E+03-3.64414E+03 8.61628E+01 2.12174E+03-9.11288E+02 2.01514E+03
 -1       360-5.32758E+03 6.05289E+03 7.43178E+02-8.81124E+02 3.20316E+02 1.68713E+03
 -1       361-5.40567E+02 1.00132E+03 9.32807E+01 2.24744E+03-8.08353E+02-3.16495E+02
 -1       362 1.37085E+03 7.85975E+00-4.97891E+02 2.51883E+02-6.71731E+02-5.93547E+02
 -1       363 2.54877E+03-4.92012E+02-1.06628E+03 1.27754E+03 8.53475E+01 2.22800E+02
 -1       364-1.62581E+02-9.32062E+00 3.89571E+02-4.48324E+02-4.07842E+01 7.53086E+02
 -1       365-2.62684E+03 1.45412E-04-7.20702E-04-6.43991E+00 5.89689E-04 7.62723E+02
 -1       366-8.06654E+03-1.92783E-03-2.13375E-03-2.26377E+02-8.02683E-03-2.16965E+03
 -1       367-6.22013E+03 1.01608E+02 7.28098E+02-2.49537E+03-5.92219E+01 6.15567E+02
 -1       368-1.11601E+03 2.88510E+02 1.45620E+03-4.49545E+03-1.20399E+02-2.23722E+03
 -1       369 3.53730E+03 2.29251E+02-8.66629E+02-4.84941E+03-4.51892E+01 6.43818E+02
 -1       370 6.52852E+03-2.33171E+02-3.18946E+03-5.29114E+03-1.08177E+03-3.79745E+02
 -1       371 9.19236E+03-2.73239E+03-2.08285E+03-3.35652E+03 3.86468E+01-6.78952E+02
 -1       372 8.38405E+03-5.73656E+03-9.76241E+02 1.13145E+03-1.05424E+03 2.35140E+03
 -1       373-4.52729E+03 2.43040E+03-3.02134E+02 6.08632E+03-7.55704E+02 2.49811E+03
 -1       374-7.56550E+03 5.89494E+03 1.08961E+02 4.68769E+02-9.45404E+02 3.61243E+03
 -1       375-2.08182E+03 6.26016E+02 5.39197E+02-1.66421E+02-1.36196E+02-5.90906E+02
 -1       376 1.12923E+02-3.04324E+02-5.36009E+01 9.23525E+01 1.97423E+00 1.31166E+02
 -1       377 4.68236E+01-1.48180E+02 1.10071E+02 1.46164E+02-3.46091E+01 1.81393E+02
 -1       378 3.64065E+01 1.41516E+02-6.08071E+01-1.54782E+02 6.73513E+01 5.31685E+00
 -1       379-1.15805E+02 6.99369E+01 1.53661E+00-2.69951E+01 8.65993E+00 6.96715E+01
 -1       380-3.45587E+01 3.71051E+01 8.52047E+00 5.13841E+01 2.15455E+00 7.05608E+01
 -1       381 3.31583E+00-7.01124E+01 3.18163E+01-3.29807E+01-2.14022E+01 5.69116E+01
 -1       382 3.18464E+01-1.15550E+02-1.29020E+01-8.19405E+00 1.67693E+01 7.31314E+01
 -1       383-4.40063E+02 2.31943E+02 1.05433E+02-7.71471E+01-9.30198E+01 3.14567E+02
 -1       384-1.74978E+03 1.92689E+03 5.03017E+01 4.69163E+02-9.54400E+02-3.44530E+02
 -1       385-1.63034E+03 1.39583E+03-2.27307E+02 3.05578E+02-4.40787E+02 2.20070E+02
 -1       386 1.49057E+03-6.80293E+02-4.66640E+02-3.96986E+02 3.66851E+02-7.56507E+02
 -1       387 3.20666E+03-5.25299E+02-7.55353E+02 5.36431E+02 3.42660E+02 1.77725E+02
 -1       388 1.92776E+03 6.04773E+01-1.04407E+03 1.36552E+03-3.32336E+02 1.73166E+02
 -1       389 8.82637E+02 7.48771E+01-2.84867E+02 4.86243E+02 9.19531E+00 6.52539E+01
 -1       390-3.44835E+02 4.45950E+01 4.74335E+02-3.10116E+02 1.73206E+01 4.78964E+02
 -1       391-1.85366E+03 2.36488E+01 2.37167E+02-2.23557E+02-9.46042E+01-1.40661E+02
 -1       392-2.39642E+03-3.77836E-04-8.13051E-04-4.07969E+01-2.40885E-04 6.73786E+02
 -1       393-1.03283E+04-2.24585E-03-3.58740E-03-2.03174E+02 1.04091E-02-3.09922E+03
 -1       394-2.47999E+03 9.33526E+02 1.93914E+03-3.90568E+03-9.13658E+01-1.91179E+03
 -1       395 6.78373E+03 2.27142E+02-3.61264E+03-6.31083E+03-6.52229E+02-8.85352E+02
 -1       396 7.18919E+03-3.96927E+03-1.46347E+03-5.64012E+03-1.80972E+03 2.76796E+03
 -1       397-8.98904E+02 1.41042E+03-2.59252E+02-3.92481E+02 1.15556E+03 3.40303E+02
 -1       398 3.07652E+02 9.47709E+01-6.70504E+01-2.37486E+02 1.08782E+02-2.21243E+02
 -1       399-9.17644E+01 4.75846E+01 1.90614E+01-3.86355E+01-1.15217E+01 1.04249E+01
 -1       400-3.84758E+01 2.62438E+01-1.01395E+00-2.05149E+01-8.42144E+00-3.58170E+01
 -1       401 6.38925E+01 4.25356E+01 3.05374E+00 4.01217E+01 3.30603E+01 2.69448E+01
 -1       402-1.91297E+02 5.40400E+02-1.19839E+02-1.44912E+01 1.45170E+02-5.31845E+01
 -1       403 2.58804E+02 5.02811E+02-5.63733E+02 1.02395E+03-2.25150E+02 3.82136E+01
 -1       404-7.89090E+02 2.12632E+02 5.34538E+02-4.43578E+02 1.06308E+01 3.76513E+02
 -1       405-1.97894E+03-5.13161E-04-9.88890E-04-4.57059E+01-7.72877E-04 5.55025E+02
 -1       406-1.23517E+04-2.32824E-03-7.09806E-03-9.45213E+01-1.68859E-03-2.59151E+03
 -1       407-1.01119E+04 4.62780E+02 1.21104E+03-1.57259E+03 6.49523E+01 3.81017E+02
 -1       408-4.19752E+03 1.27793E+03 2.42209E+03-3.26996E+03-1.15088E+02-2.68975E+03
 -1       409 1.29747E+03 2.29868E+03-8.06870E+02-5.53176E+03 3.93887E+01 5.17588E+02
 -1       410 5.87217E+03 2.11520E+03-4.03583E+03-7.52010E+03-6.90635E+01-7.36260E+02
 -1       411 8.43218E+03-2.11332E+02-2.99326E+03-6.44034E+03-6.83956E+02-2.92564E+03
 -1       412 5.48385E+03-2.04162E+03-1.95070E+03-6.46527E+03-1.47308E+03 9.01841E+02
 -1       413 4.94242E+02-1.51771E+02-1.14790E+01 2.94931E+01 3.62251E+02-6.26843E+01
 -1       414-1.38692E+02-2.75921E+02-1.98808E+01 1.77174E+02 1.92650E+02-1.58390E+02
 -1       415-3.56766E+02 2.17096E+02 7.04791E+01-1.18029E+02-8.62870E+01 1.94152E+02
 -1       416 3.38057E+01 7.55309E+01 3.43089E+00-1.33859E+02-5.18008E+01 5.09477E+01
 -1       417-3.49425E+01-1.24481E+01 9.16999E+00-1.67643E+01-1.95500E+01-4.20255E+01
 -1       418-7.13583E+01-4.60261E+00 7.68736E+00-2.36527E+01-1.41864E+01-2.24330E+01
 -1       419-4.26255E+01 1.75356E+01 1.62169E+01-3.96725E+01-2.18126E+01-2.79877E+01
 -1       420-7.59414E+00 4.47841E+01-1.58867E+00-1.07440E+01-3.90571E+01-3.47499E+01
 -1       421-8.25010E+01 9.67958E+01-8.60094E+00-3.58515E+01-6.82413E+01-6.04363E+01
 -1       422-3.65736E+01-7.36785E+01 9.03222E+00-7.45440E+01 3.58288E+01 2.48159E+01
 -1       423 9.86546E+01-2.02646E+01-4.15854E+00 1.08790E+01-7.71483E+01-6.83533E+00
 -1       424-4.37126E+02 3.87377E+02-8.33969E+01 6.82653E+02-1.23843E+02 4.88839E+02
 -1       425-6.78517E+02 2.87876E+02 2.55673E+02 1.13754E+02 1.64946E+02 8.68442E+01
 -1       426-1.17630E+03 1.84736E+02 5.94740E+02-6.70297E+02 2.59152E+01 1.83006E+02
 -1       427-1.40649E+03 5.81825E+01 2.97369E+02-4.48318E+02 1.65816E+01-1.44783E+01
 -1       428-1.50848E+03 3.82101E-04-7.50683E-04-6.97880E+01 2.97023E-04 1.84405E+02
 -1       429-1.34390E+04-3.16414E-03-7.21909E-03 5.57089E+01-4.50448E-03-3.59254E+03
 -1       430-5.90000E+03 1.40065E+03 3.90223E+03-1.83015E+03 8.76492E+01-2.34802E+03
 -1       431 3.95247E+02 4.53760E+03-3.50486E+03-5.49415E+03-1.41833E+03-6.05581E+02
 -1       432 2.92178E+02-9.60365E+01-8.63905E+01-1.12404E+02 1.77789E+02 8.20149E+01
 -1       433-1.32046E+02-5.52248E+01 4.57081E+01 1.67542E+01-6.31610E+01 8.35863E+01
 -1       434-5.12646E+01 2.68313E+01 9.58820E+00-4.51279E+01-1.12724E+01-2.60269E+01
 -1       435-3.91701E+01 2.24238E+01 7.34728E+00-2.32986E+01-1.79711E+01-3.54936E+01
 -1       436-3.51945E+01 4.28514E+00 4.40099E-01-4.78485E+01-3.00831E+01-4.35530E+01
 -1       437 4.19498E+01-4.56749E-01-3.51187E+01 3.24692E+01-9.17017E+01-1.87637E+01
 -1       438-7.75194E+02-1.96178E+02 5.21747E+02-7.52946E+02 2.57906E+02 2.96043E+02
 -1       439-1.04814E+03 4.32908E-04-9.65229E-04-6.47952E+01-9.66877E-04 9.24131E+01
 -1       440-1.38942E+04-1.62881E-03-6.57302E-03 2.35978E+02 1.95346E-03-2.70081E+03
 -1       441-1.18454E+04 1.00271E+01 2.69118E+03-6.09599E+01 2.14768E+02 3.09859E+02
 -1       442-7.90278E+03 7.43984E+02 5.38236E+03-5.10623E+02-2.62210E+01-2.45323E+03
 -1       443-2.89057E+03 2.33723E+03 1.20424E+03-2.04226E+03 1.09693E+03-2.88977E+02
 -1       444-1.66619E+03 3.29042E+03-2.97388E+03-3.51913E+03 4.32531E+02-2.00250E+03
 -1       445-1.52471E+02-5.79933E+01 4.65143E+01 1.56655E+02 2.16262E+02-1.73988E+01
 -1       446-5.92870E+01 4.92106E-01 3.25848E+01-2.77884E+01-8.94747E+00 1.90348E+01
 -1       447-5.40921E+00-4.74187E+00-2.89473E+00-6.98040E+01 4.48277E+00 2.22386E+01
 -1       448-4.78029E+01 1.50495E+01 1.03389E+01-2.89230E+01-1.09684E+01-6.53575E+00
 -1       449-4.99301E+01 2.53873E+01 1.05004E+01-3.34688E+01-2.36720E+01-1.45171E+01
 -1       450-4.23394E+01 2.80054E+01 7.21699E+00-3.20135E+01-2.50581E+01-2.05566E+01
 -1       451-3.60895E+01 2.82653E+01 2.66645E+00-2.67047E+01-2.12112E+01-3.73363E+01
 -1       452-2.83197E+01 2.96278E+01-2.02492E+00-2.41048E+01-1.96857E+01-2.15096E+01
 -1       453-4.17002E+00 2.81143E+01-9.39999E+00-1.39984E+01-1.57754E+01-2.91615E+01
 -1       454-2.29336E+01 4.22666E+01-1.92857E+00-1.85926E+01-3.33159E+01-1.42206E+01
 -1       455-5.76707E+01 1.09409E+01 2.09954E+01-4.69942E+01-6.05088E+01 1.46874E+01
 -1       456-3.61070E+02-3.49987E+02 4.48755E+02-4.58087E+02 8.95240E+01 1.25085E+02
 -1       457-5.32027E+02-1.41624E+02 2.24377E+02-2.41719E+02-2.11857E+01-4.35293E+01
 -1       458-7.02985E+02-2.61197E-05-6.09480E-04-1.68699E+01-9.34619E-05 2.83378E+02
 -1       459-1.40048E+04 4.90871E-04-1.03101E-02-8.05412E+01 1.25458E-03-1.81772E+03
 -1       460-1.01228E+04-5.17584E+02 5.57303E+03-9.25381E+02-3.63415E+02-3.72962E+03
 -1       461-1.33453E+02 1.03834E+02 2.75015E+01-2.34909E+01 8.69081E+01 1.79117E+01
 -1       462 2.13110E+01 4.53926E+01 4.46068E+00-2.84301E+01-1.14989E+01 8.54926E+00
 -1       463-5.21540E+01 2.15608E+01 8.72382E+00-3.10761E+01-1.10810E+01-1.23016E+01
 -1       464-3.03247E+01 3.28950E+01-1.28007E+00-2.38388E+01-1.45434E+01-3.99997E+01
 -1       465-1.25580E+01 4.30116E+01-2.30110E+00-1.36191E+01-1.17681E+01-2.75007E+01
 -1       466-1.41905E+01 5.97984E+01-1.42299E+01 1.14547E+00-4.85100E+01 2.98289E+00
 -1       467-3.19367E+02-2.07756E+02 2.91668E+02-1.82326E+02-4.18696E+01 1.82764E+02
 -1       468-5.24465E+02 5.21148E-04-5.39584E-04 6.45380E+00 3.50069E-04 5.30316E+01
 -1       469-1.47949E+04-1.25889E-03-6.20091E-03-3.24050E+02-1.82083E-03-2.39971E+03
 -1       470-1.29616E+04 3.17354E+02 2.88185E+03-7.08167E+02-3.07126E+02 2.73107E+02
 -1       471-9.34637E+03 1.58581E+03 5.76371E+03-5.64045E+02-5.48771E+01-2.64820E+03
 -1       472-4.08523E+03 3.09263E+03 1.32138E+03 2.14870E+03-1.38495E+03-3.33777E+02
 -1       473-2.38799E+03 4.02739E+03-3.12096E+03 4.01934E+03-5.90456E+02-2.37782E+03
 -1       474-2.05235E+02-1.09763E+02 9.34127E+01-2.27316E+02-8.20651E+01-5.78527E+01
 -1       475-7.00734E+01 3.30308E+01 1.76840E+01-2.73577E+01 1.01106E+01 1.92488E+01
 -1       476 1.13711E+01-1.32470E+01 3.71352E+00 7.39833E+00-4.24265E+01 2.17347E+01
 -1       477-4.85862E+01 2.15340E+01 9.40559E+00-3.93440E+01-2.23045E+01-1.15020E+01
 -1       478-4.88308E+01 3.35565E+01 7.12010E+00-2.69132E+01-4.20660E+00-1.56142E+01
 -1       479-3.42669E+01 3.31868E+01 1.44733E+00-2.23836E+01-4.44486E+00-1.95939E+01
 -1       480-2.60855E+01 2.92169E+01-3.82795E+00-2.22257E+01-9.30131E+00-3.86476E+01
 -1       481-1.72168E+01 3.52345E+01-4.67710E+00-1.54685E+01-9.08986E+00-2.44801E+01
 -1       482-2.14994E+01 3.89352E+01-6.22109E-01-1.53177E+01-1.32536E+01-2.87044E+01
 -1       483-5.10719E+00 4.66503E+01-2.53386E+01-7.10137E+00-4.87139E+00-2.02984E+00
 -1       484 2.48453E+01 3.17007E+01-3.08397E+01 3.73619E+00-4.20288E+01 2.87160E-01
 -1       485-2.86458E+01 2.46338E+02-1.37167E+02 5.52408E+00-1.19606E+02 6.99952E+01
 -1       486-1.52028E+02 2.08065E+02-1.29258E+00-1.24947E+02-9.58196E+01-2.16493E+01
 -1       487-3.28611E+02 1.20917E+02 1.34582E+02-1.05636E+02 2.82851E+01 1.06617E+02
 -1       488-3.89352E+02 3.60832E+01 6.72906E+01-3.78671E+01-8.75098E+01 4.18453E+00
 -1       489-4.23493E+02 2.49221E-04-5.15664E-04-1.29749E+00-2.51101E-04 6.95626E+01
 -1       490-1.49520E+04-5.09253E-03-7.87049E-03-8.89586E+01 5.01626E-03-4.05888E+03
 -1       491-6.97714E+03 2.17047E+03 4.25434E+03 1.48585E+03-6.47722E+01-2.51647E+03
 -1       492 1.49451E+02 5.67673E+03-3.91332E+03 6.21430E+03 1.73638E+03-8.84565E+02
 -1       493 3.28437E+02-1.28743E+02-1.37432E+02 1.84396E+02 5.23179E+01 9.00873E+01
 -1       494-1.48275E+02-8.90979E+01 4.27762E+01-1.33085E+02 7.88745E+01 8.97317E+01
 -1       495-3.75289E+01 3.92102E+01-5.72348E-01-1.75355E+01-9.98135E+00-3.53212E+01
 -1       496-2.35743E+01 2.28417E+01 3.48650E+00-2.24139E+01-5.07333E-01-3.92871E+01
 -1       497 3.25946E+00 1.83564E+01-2.49569E+01-4.58818E+00-3.06360E+00-1.88294E+01
 -1       498-4.94559E+01 2.01890E+01 1.30539E+01-2.68858E+01 8.75929E+00 1.17036E+01
 -1       499-1.97754E+02 4.05666E+02-9.85566E+01-7.94582E+01 6.57510E+01 4.84791E+01
 -1       500-2.59467E+02 2.04614E+02 7.91070E+01-2.67866E+02-9.15981E+00 5.13488E+00
 -1       501-3.22809E+02-5.08084E-04-1.46347E-04-1.29504E+01-1.19359E-04 1.29516E+02
 -1       502-1.42478E+04-3.85520E-03-7.68139E-03 6.58794E+01 2.19579E-03-2.88512E+03
 -1       503-1.15899E+04 5.78496E+02 1.37248E+03 1.57452E+03 6.03682E+01 5.10825E+02
 -1       504-4.79995E+03 1.70581E+03 2.74497E+03 3.36026E+03 9.90267E+01-3.14037E+03
 -1       505 1.27775E+03 3.00301E+03-9.80356E+02 6.14714E+03 7.33684E+00 5.11698E+02
 -1       506 6.48394E+03 2.90610E+03-4.70568E+03 8.67726E+03 2.65220E+01-7.63697E+02
 -1       507 9.62149E+03 8.96970E+01-3.62216E+03 7.67511E+03 6.96698E+02-3.41392E+03
 -1       508 6.23788E+03-2.11477E+03-2.53865E+03 7.88977E+03 1.52470E+03 1.00625E+03
 -1       509 5.88359E+02-2.14027E+02 2.05983E+01 4.27199E+01-1.63587E+02-4.25971E+01
 -1       510-1.64475E+02-4.44078E+02 3.53418E+01-3.13220E+02-3.18254E+02-1.97089E+02
 -1       511-4.20068E+02 4.04094E+02 1.37775E+01-2.09223E+01 1.79595E+02 1.93863E+02
 -1       512 6.33625E+01 1.30775E+02-2.68038E+01 9.08009E+01 7.50081E+01 6.89272E+01
 -1       513-3.67081E+00-3.48590E+01 1.92689E+00-6.28327E+01 8.41787E+00-6.22240E+01
 -1       514-4.66740E+01-1.07395E+01 5.46373E+00-5.00189E+01 3.04702E+00-3.97924E+01
 -1       515-2.71513E+01 3.47163E+01 1.41755E+01-2.03703E+01 1.48165E+01-4.76513E+01
 -1       516-1.47656E+01 4.19767E+01-1.91720E+01-6.01976E+00 2.33304E+01-2.07476E+01
 -1       517 4.35138E+01 6.90953E+01-6.75800E+01 3.81427E+01 4.83504E+01 5.87635E+00
 -1       518 6.87226E+00-2.07700E+01 5.50350E+01-1.50051E+01-1.57335E+01-3.11822E+01
 -1       519-8.49271E+01-2.35146E+00 1.09538E+02-7.46480E+01 6.81618E+01-1.73686E+01
 -1       520-1.69596E+02 2.16975E+02-1.06567E+01 9.31728E+01-1.41835E+02 6.47483E+01
 -1       521-3.01303E+02 3.36068E+02-3.53013E+01-1.67627E+02-9.96902E+01 1.10130E+01
 -1       522-4.17513E+02 5.25237E+02-5.99459E+01-2.96266E+02-4.25637E+01 4.17836E+01
 -1       523-3.36732E+02 3.65803E+02-1.81569E+01-3.38738E+02 2.47238E+01 2.26796E+01
 -1       524-1.88478E+02 1.78149E+02 2.36321E+01-4.21141E+02-2.65500E+01 1.09598E+01
 -1       525-1.31094E+02 5.15225E+01 1.18161E+01-2.38018E+02-2.74284E+01-1.82859E+01
 -1       526-1.48931E+02-5.67802E-04 1.61578E-05-1.99806E+01 5.04363E-04-6.62783E+01
 -1       527-1.20874E+04-2.81313E-03-4.12077E-03 2.07943E+02-1.15571E-02-3.65672E+03
 -1       528-2.86398E+03 1.18370E+03 2.22746E+03 4.19453E+03 9.27509E+01-2.23696E+03
 -1       529 7.83760E+03 4.91277E+02-4.32605E+03 7.41050E+03 7.33250E+02-1.04197E+03
 -1       530 8.40779E+03-4.11372E+03-1.80177E+03 6.95496E+03 2.25893E+03 3.20137E+03
 -1       531-1.10629E+03 2.52248E+03-5.59534E+02 1.64574E+02-1.28373E+03 3.66786E+02
 -1       532 4.19272E+02 1.61780E+02-3.95312E+01 2.88984E+02-2.02136E+02-3.15295E+02
 -1       533-7.35020E+01 7.17820E+01 1.15349E+00-6.96138E+00 2.11042E+01-3.61023E+01
 -1       534 1.02960E+01 1.62974E+01-2.25711E+01-8.40051E+00 6.29070E-01-6.08442E+01
 -1       535-3.04040E+01 2.83927E+01 5.91263E+01-2.32091E+01-2.27573E+01-4.63672E+01
 -1       536 1.09600E+02 3.08616E+02-2.22984E+02 2.15561E+02 5.35719E+01 3.44971E+01
 -1       537-4.44709E+02 4.23312E+02 1.57891E+01 1.41407E+02 2.81328E+01 1.36096E+02
 -1       538-5.36735E+02 4.15537E+02 8.73959E+01-3.56378E+02-5.55283E-01-5.13593E+00
 -1       539-1.65843E+02 1.98121E+02-5.46565E+01-5.96557E+02 3.91468E+01-9.67297E+01
 -1       540 2.04494E+02-4.69675E-04 1.01114E-04-3.27250E+01-9.45287E-04-3.16313E+01
 -1       541-9.60533E+03-2.44204E-03-2.37288E-03 2.55399E+02 9.16207E-03-2.60367E+03
 -1       542-7.41259E+03 1.37708E+02 8.54971E+02 2.76960E+03 7.70362E+01 7.10005E+02
 -1       543-1.31058E+03 3.83209E+02 1.70995E+03 4.97658E+03 1.24569E+02-2.68414E+03
 -1       544 4.30539E+03 4.38173E+02-1.11823E+03 5.50060E+03 1.04263E+02 7.54616E+02
 -1       545 7.79576E+03-3.27010E+01-3.94642E+03 6.27726E+03 1.49616E+03-5.54342E+02
 -1       546 1.08567E+04-3.15943E+03-2.50565E+03 4.33623E+03-2.67191E+02-6.84662E+02
 -1       547 1.00525E+04-7.32743E+03-1.06489E+03-5.97023E+02 7.47546E+02 2.92480E+03
 -1       548-5.47712E+03 4.04444E+03-4.81768E+02-6.05840E+03 2.54492E+03 1.94064E+03
 -1       549-9.30887E+03 9.23649E+03 4.46184E+01-6.51736E+02 3.30292E+03 3.51962E+03
 -1       550-2.53279E+03 1.10412E+03 5.96120E+02-1.64309E+02 3.15201E+02-1.26606E+03
 -1       551 1.83338E+02-5.86882E+02-3.64362E+01-4.10373E+01-5.30961E+01-2.20882E+02
 -1       552 9.24984E+01-3.03058E+02 1.33550E+02-1.99748E+02 6.82213E+01-7.80151E+01
 -1       553 8.81304E+01 2.49129E+02-8.53746E+01 1.95452E+02-8.29164E+01-2.69094E+02
 -1       554-8.18217E+01 8.93113E+01-1.73209E+01 1.18319E+01 5.79034E+00-1.49512E+02
 -1       555-3.39116E+01-1.51892E+01 4.64163E-01-3.49022E+01 2.82281E+01-1.17461E+02
 -1       556 3.33799E+00-7.16189E+01 3.53652E+01-3.09736E+01 3.30635E+01-4.66571E+01
 -1       557-1.59965E+01-7.71967E+01 1.04264E+02-6.56370E+01-1.14166E+01 7.53876E+00
 -1       558 2.28130E+02 1.42245E+02-2.05591E+02 2.17342E+02 5.66943E+01 6.40666E+01
 -1       559 8.89856E+02 1.11322E+03-5.04186E+02 1.14615E+03 7.20481E+02 6.05112E+02
 -1       560 9.32712E+02 6.23640E+02-3.75765E+02 8.55684E+02 1.12494E+02 1.04503E+01
 -1       561-4.51683E+02 1.57683E+02 4.22342E+01-6.62491E+01 1.45082E+02 1.05251E+02
 -1       562-7.97985E+02 2.46956E+02 1.38486E+02-1.87200E+02-3.17936E+01 2.73837E+01
 -1       563-7.04667E+02 3.37348E+02 2.34738E+02-3.72800E+02 9.54217E+01-6.06669E+01
 -1       564-5.71235E+02 3.16984E+02 5.08962E+01-5.92008E+02 4.47837E+01-4.54819E+01
 -1       565-1.25988E+02 2.26621E+02-1.32945E+02-7.73998E+02 1.24751E+01-1.39666E+02
 -1       566 4.54720E+02 7.56697E+01-6.64724E+01-4.43618E+02-4.46497E+01 9.07816E+00
 -1       567 6.24830E+02-3.26637E-04 1.82031E-04-5.24564E+01 7.15210E-04-2.78003E+02
 -1       568-6.14281E+03-4.26198E-05-1.64879E-03 3.66345E+02-9.33802E-03-1.20869E+03
 -1       569-3.56333E+02 1.79424E+02 8.91246E+02 4.56310E+03 4.78674E+01-1.93952E+03
 -1       570 6.54265E+03-1.58254E+03-2.74915E+03 4.73812E+03-8.04240E+02-1.04501E+03
 -1       571 4.73540E+03-4.44959E+03-1.64868E+02-1.80266E+03 2.21114E+03 2.22357E+03
 -1       572-5.17642E+03 5.12048E+03 9.93047E+02 2.82828E+03 8.77672E+02 2.15572E+03
 -1       573 5.45433E+02 9.67181E+02-3.27694E+02 7.67397E+02 3.37188E+01 2.44333E+01
 -1       574-4.71509E+02-1.59560E+01 1.69751E+02-1.02237E+02 1.20324E+02 3.74332E+02
 -1       575-1.05418E+03 3.54625E+02 4.08323E+02-1.59501E+02-3.69878E+01-2.71010E+01
 -1       576-3.85296E+01 1.75400E+02-1.86881E+02-9.00871E+02-3.28947E+01-3.64602E+02
 -1       577 1.22444E+03-4.54589E-04 3.45728E-04-6.07878E+01-1.07819E-03-4.36263E+02
 -1       578-3.04441E+03 6.99294E-04-4.43170E-03 5.31856E+02 7.11540E-03 6.17187E+02
 -1       579-2.98717E+03 2.92217E+02 3.62696E+01 2.64121E+03-5.02740E+02 8.10723E+02
 -1       580 1.40697E+02 3.97684E+02 7.25483E+01 3.91252E+03 7.31216E+01-3.18602E+02
 -1       581 4.62096E+03-1.13785E+03-7.39669E+02 3.49820E+03 4.64914E+02 1.08094E+03
 -1       582 5.62857E+03-2.46214E+03-1.55189E+03 3.66025E+03 1.70222E+02 7.27918E+02
 -1       583 4.18100E+03-2.66037E+03-4.08365E+02 1.32238E+03-2.00934E+02-7.57099E+02
 -1       584 1.02740E+03-2.97046E+03 7.35154E+02-1.22266E+03-3.56967E+02-5.15165E+02
 -1       585 2.65935E+03-5.98180E+03 1.30994E+03-4.56216E+02 2.26495E+03 2.54517E+03
 -1       586 5.73430E+03-1.01978E+04 1.88473E+03-1.29139E+03 2.70721E+03 4.85090E+02
 -1       587 2.81731E+03-7.55042E+03 2.05501E+03-7.13045E+03 2.93867E+03 1.90251E+03
 -1       588 8.28438E+02-5.08813E+03 2.22530E+03-6.52313E+03 1.62234E+02 1.40553E+03
 -1       589 2.30139E+02-3.26653E+02 6.38610E+01 4.55208E+02 8.48739E+01-1.54906E+02
 -1       590 4.47472E+02-7.31608E+02 1.01119E+02 4.56490E+02 2.30137E+02-8.95822E+01
 -1       591 3.13468E+02-8.44036E+02 1.38376E+02 3.32747E+01 2.07983E+02 1.23940E+02
 -1       592 1.10774E+02-7.12694E+02 2.17822E+02-7.59662E+01 4.51663E+02 6.14496E+01
 -1       593-3.06158E+02-4.20301E+02 2.97268E+02 6.00069E+01-3.65484E+00-6.13835E+00
 -1       594-8.90430E+02-1.93864E+02 4.39588E+02 2.10945E+02 7.49470E+01 5.27201E+01
 -1       595-1.32935E+03 1.90932E+02 5.81908E+02 2.08792E+02 9.51379E+01-1.02972E+02
 -1       596-1.30961E+03 2.67014E+02 1.70546E+02-6.38928E+02-3.71052E+00-1.23597E+02
 -1       597-1.27320E+00 1.23626E+02-2.40817E+02-1.00336E+03 4.57575E+01-7.01155E+02
 -1       598 1.32327E+03 1.98227E+01-1.20408E+02-5.78582E+02 1.19739E+02-2.81580E+01
 -1       599 1.84833E+03-6.30579E-04 1.62391E-04-5.61763E+01 1.08156E-03-8.50510E+02
 -1       600 1.74693E+03-4.22011E+02-6.37970E+02 1.60039E+03 9.66468E+02 2.35247E+02
 -1       601 1.23583E+03-6.47607E+03 1.99892E+03-3.40490E+03-5.04171E+02-2.75979E+02
 -1       602 2.28022E+03-1.09442E+04 2.82911E+03-4.57001E+03-4.36681E+02-6.42565E+02
 -1       603 6.37895E+02-7.75095E+03 2.51956E+03-5.55638E+03-2.53416E+03 3.44123E+02
 -1       604 2.30892E+02-5.34795E+02 1.15000E+02 1.23321E+02-1.21596E+02-9.77486E+01
 -1       605 2.70694E+02-1.20804E+03 2.77914E+02 1.88954E+01-4.69263E+00-3.89822E+01
 -1       606-1.18345E+02-1.12567E+03 4.97341E+02 3.15299E+02 3.62392E+01 7.42667E+01
 -1       607-5.62095E+02-8.68313E+01 2.82121E+02 9.01393E+02 3.74383E+02-1.24271E+02
 -1       608-1.61259E+03 9.15919E+02 2.75951E+02-1.72227E+03-1.19969E+03-1.09990E+03
 -1       609-5.81453E+02-3.53211E+03 1.76933E+03-4.40629E+03-2.15818E+02-1.90602E+02
 -1       610 2.16349E+03-8.88800E+03 3.26270E+03-4.90075E+03 8.12230E+00-1.89538E+01
 -1       611 1.54351E+03-8.12277E+03 3.51810E+03-4.56971E+03-9.48058E+02-7.49445E+02
 -1       612-6.33771E+00-7.32815E+03 3.77351E+03-5.04394E+03-3.90457E+02 7.30313E+02
 -1       613 9.89302E+02-7.26882E+03 3.29366E+03-5.43594E+03-1.42788E+03 1.07667E+03
 -1       614 2.05792E+03-7.73759E+03 2.81382E+03-6.11857E+03-1.51970E+03-7.29525E+02
 -1       615 3.28874E+02-6.90212E+02 1.66140E+02-1.21408E+02 1.88179E+01-2.97071E+01
 -1       616 2.93679E+02-8.28586E+02 2.91796E+02-1.38507E+02-4.77626E+01-8.67694E+00
 -1       617 2.94669E+02-1.02494E+03 4.17453E+02-1.51385E+02-8.39103E+01 2.55973E+01
 -1       618 3.84614E+02-1.37361E+03 5.57435E+02 3.42565E+01-5.55349E+01-9.43358E+00
 -1       619 2.55710E+02-1.63786E+03 6.97415E+02 3.99015E+02-9.90748E+01 8.76042E+01
 -1       620-8.55676E+01-6.74811E+02 3.39875E+02 1.02793E+03-1.33007E+02 3.70454E+02
 -1       621-6.15138E+01-2.59182E+01-1.76643E+01 1.28577E+03 1.59869E+02 1.85314E+02
 -1       622 1.36810E+03-7.59851E+03 1.17881E+03-1.65665E+03 9.82561E+02 6.12134E+02
 -1       623-6.37280E+01-4.26604E+03 1.17417E+03-3.30408E+03-2.70993E+02 2.01610E+02
 -1       624-4.48531E+02-4.31940E+02-4.31969E+01-5.38434E+03-6.79167E+02-5.90529E+02
 -1       625 2.68394E+02-4.16448E+02-1.01429E-01-2.32930E+02 1.24573E+02 4.94403E+01
 -1       626 2.68235E+02-7.70405E+02 1.21101E+02-4.18168E+02-1.92914E+01 4.29255E+01
 -1       627 2.99908E+02-1.58453E+03 2.15464E+02-5.17995E+02-7.80232E+01-3.67697E+01
 -1       628-3.41620E+02 2.79200E+02-9.05072E+02-7.57611E+02-2.47965E+03-4.90237E+01
 -1       629 3.93217E+01 3.52204E+02-1.16511E+03-1.35806E+03-2.51382E+03 1.76503E+02
 -1       630-3.72585E+02 6.39380E+02-1.42516E+03-1.88293E+03-2.54779E+03-4.52169E+00
 -1       631-2.28297E+03 3.30358E+03-2.16269E+03-1.55316E+03-2.08188E+03 3.20117E+01
 -1       632-3.38383E+03 6.96692E+03-2.90021E+03 4.43504E+02-3.27433E+03-5.38655E+02
 -1       633-1.32362E+03 5.21295E+03-2.70383E+03 4.67935E+03-1.59665E+03-1.89417E+03
 -1       634 1.47464E+03 2.24991E+03-2.50746E+03 4.70205E+03-9.72504E+02-7.25548E+02
 -1       635 1.96472E+03 1.05875E+03-1.55059E+03 2.77007E+03-1.05171E+03-4.11996E+02
 -1       636 1.28083E+03 4.92858E+02-5.93714E+02 1.05760E+03 3.36555E+02-4.25667E+02
 -1       637 7.81197E+02 2.10350E+02-3.80028E+02 2.70645E+02-1.48695E+02 7.70126E+00
 -1       638 3.35361E+02 6.67206E+01-1.66342E+02-3.70332E+02-5.71972E+01-2.89267E+01
 -1       639 1.66682E+02-4.60689E+01-1.70797E+02-5.19858E+02-2.12719E+02 4.39360E+01
 -1       640 1.90079E+02-7.76914E+01-1.75252E+02-6.51217E+02-2.31745E+02 1.01261E+01
 -1       641 1.56352E+02-2.59251E+01-2.20870E+02-7.78680E+02-4.64030E+02-3.91677E+01
 -1       642 1.04937E+02-1.44761E+01-2.66488E+02-9.00296E+02-7.65770E+02 4.69840E+01
 -1       643-3.62092E+02 6.31018E+03-4.52533E+02-9.32481E+02 4.81555E+02-7.66012E+02
 -1       644-1.06107E+02 7.66233E+03-7.12576E+02-9.89874E+02 8.28972E+02 4.56773E+02
 -1       645-1.28976E+03 8.99856E+03-1.45010E+03 1.40444E+03 4.58606E+02-4.62976E+01
 -1       646 7.31086E+02 3.33063E+03-1.25373E+03 2.47349E+03 3.75822E+02-4.43767E+02
 -1       647 3.44416E+02 5.58736E+02-2.96856E+02 6.43303E+02-9.78456E+01 3.45110E+02
 -1       648 1.30323E+02 2.74804E+02-8.31706E+01-1.95799E+02 1.50799E+01 6.81036E+01
 -1       649 6.06775E+01 7.83113E+02-8.76257E+01-3.80588E+02 3.29981E+01-4.71803E+01
 -1       650 1.04610E+01 1.53017E+03-1.33244E+02-5.08831E+02 9.44368E+00 1.36616E+02
 -1       651-1.96031E-03 7.57772E+03 3.03938E-03-4.01937E+02-1.54891E+03 3.15797E-03
 -1       652-6.65410E-04 8.88402E+03 2.15545E-03-1.72869E+02-2.31842E+03-5.04172E-03
 -1       653 4.87061E-03 1.03955E+04 3.88972E-03-3.90394E+01-2.98151E+03 4.88536E-03
 -1       654 5.31301E-03 1.02361E+04 4.00095E-03 4.03693E+01-3.24114E+03-4.03562E-03
 -1       655-7.74993E-04 9.64549E+03 2.91426E-03 3.99156E+02-6.71240E+02 6.81072E-03
 -1       656 3.82537E-03 6.94061E+03 5.00208E-03 5.39083E+02-1.49781E+03 5.81902E-03
 -1       657 3.31061E-03 4.41136E+03 2.64279E-03 1.72308E+02-1.40834E+03-4.94243E-04
 -1       658-5.05007E-03 2.20535E+03 2.86857E-03 1.02761E+02 1.29036E+01 4.74655E-04
 -1       659-3.77026E-03 6.24615E+02 3.04892E-03 1.03549E+02-7.23190E+02 1.93806E-03
 -1       660-1.86408E-03 3.53245E+02 7.03049E-04 3.13123E+01 1.61846E+01-2.33064E-04
 -1       661-1.30228E-03 3.51823E+02 8.80261E-04-1.66632E+01-1.84247E+02 7.73571E-04
 -1       662-3.91140E-04 6.65930E+02 3.15973E-04-3.09014E+01-1.71299E+02-5.94194E-04
 -1       663-3.08184E-04 1.03922E+03 4.32250E-04-4.65683E+01-3.80346E+02 3.77241E-04
 -1       664-4.19405E-04 1.55465E+03 4.08608E-04-5.00757E+01-5.17596E+02-7.33431E-04
 -1       665-5.94175E-04 2.10512E+03 2.53544E-04-4.07299E+01-8.87233E+02 8.16324E-04
 -1       666-3.11196E-13 4.24052E-10 1.32303E-11 2.30742E-10 1.56087E+03-5.64064E-03
 -1       667 6.85563E-14 2.37975E-10-1.98952E-13 1.31291E-10 2.28038E+03-1.65384E-03
 -1       668-1.08358E-13 1.59730E-11-6.47873E-11 1.01204E-10 1.51963E+03 1.03359E-03
 -1       669 3.12639E-13-4.90559E-11-1.89431E-11 5.23102E-11 8.35967E+02 8.48005E-04
 -1       670-1.28786E-13 4.14815E-11 4.63203E-11 5.41149E-11 1.35392E+03-8.37656E-04
 -1       671 7.54952E-14 7.64189E-11 6.27089E-11-5.67013E-12 8.55003E+02 1.60218E-03
 -1       672-2.05169E-13-2.03606E-11 5.71867E-11 1.54472E-11 5.13293E+02 2.85286E-03
 -1       673-8.49099E-13-8.88178E-13-4.95683E-11-1.11413E-11-6.31505E+02 3.41628E-03
 -1       674 1.23374E-10 1.75589E-10-4.02359E-10-2.05418E-11 2.19842E+03 4.31257E+01
 -1       675 1.39222E-13 1.42363E-10 2.25686E-10 2.14873E-10 1.69704E+03-1.08252E+02
 -1       676-1.76581E-10 2.64356E-10-2.47748E-10 1.54614E-11 1.11153E+03 8.48851E+01
 -1       677-9.07955E-11 2.47364E-11-2.88468E-10 1.02541E-10 1.37173E+03-1.11746E+02
 -1       678 1.21562E-11 1.26806E-10-3.10232E-10-2.87722E-11 9.09574E+02-5.55686E+01
 -1       679-3.24305E-11-3.61098E-11 1.19734E-10 3.33245E-11 8.29668E+02-3.21586E+01
 -1       680 1.57618E-11 1.93445E-12-3.63904E-10 6.85461E-11 6.11596E+02-1.31524E+01
 -1       681-6.09290E-13-6.74127E-11 5.05844E-11 2.98428E-12-3.42915E+02-5.54869E+01
 -1       682-1.72207E-10-2.04636E-11 6.05723E-10 5.80513E-11 5.40110E+02-9.54860E+02
 -1       683-5.67960E-12-9.36211E-11 5.13102E-10 7.73971E-11-4.49742E+01-5.16980E+02
 -1       684 4.51526E-11 2.26471E-10-5.83872E-10 1.92036E-11 4.75218E+02 1.53435E+03
 -1       685 5.67155E-11 1.55239E-10-1.78099E-09 1.21943E-10 5.14309E+02 5.77641E+02
 -1       686-4.24507E-10 2.56762E-10 9.15179E-12-1.44951E-10 1.67516E+03 1.28540E+01
 -1       687-1.16856E-10 2.79769E-10 5.02041E-10 1.23009E-10 7.17978E+02 1.19213E+02
 -1       688-1.93186E-10-1.44619E-10 9.43230E-10-2.27042E-11 3.19216E+02-6.55770E+01
 -1       689 1.31770E-11 3.53619E-11-2.41318E-10 1.32676E-11 1.02797E+02-3.24128E+02
 -1       690 7.42754E-12 5.59552E-13 4.21160E-10-9.49048E-12-2.93965E+02-2.27156E+01
 -1       691-5.72129E-11 1.04412E-10-4.59906E-10 6.92069E-11 2.82164E+02 1.77370E+02
 -1       692-1.03000E-10 5.81757E-14 4.80611E-11-9.40759E-11 1.02872E-02 6.91426E+02
 -1       693 1.54955E-10-8.34310E-12 2.14357E-10-2.26237E-11-8.17722E+01-1.19933E+02
 -1       694 8.15040E-11-5.19265E-11-7.39088E-10-1.76049E-11 9.36301E+00 7.84137E+02
 -1       695 1.68988E-10-5.05480E-11-1.33366E-10 5.68789E-12 4.08514E+02-3.66609E+02
 -1       696 7.58291E-11 2.53635E-10-3.43048E-10-2.02078E-11-2.89383E+03-8.34052E+02
 -1       697 9.44453E-11 2.68784E-10-1.85951E-09 6.57963E-12-3.26932E+02-4.89809E+02
 -1       698 3.47337E-11-2.92960E-10-3.28958E-11-1.00463E-10-6.70934E+02-3.96051E+02
 -1       699-1.13859E-10 1.72915E-11 3.46001E-10 6.39981E-11 1.49348E+02 8.63170E+01
 -1       700-5.25754E-11-5.33055E-11-2.05951E-10-2.56234E-11 1.56201E+02 7.08594E+01
 -1       701 1.54543E-11-1.91188E-11 1.69240E-10-2.51696E-11 8.07286E+00 1.05322E+03
 -1       702-2.50395E-11-4.47864E-13 5.61490E-10 2.31513E-11 1.17473E-03 8.54055E+02
 -1       703 4.57590E-12 6.87006E-13-4.28315E-11-7.51612E-11 7.62835E-03-2.13830E+03
 -1       704-2.16978E-10-6.89515E-11 7.25599E-10-1.23023E-10-9.49679E+01-2.27165E+03
 -1       705 7.21627E-11-1.88045E-11 6.13117E-10 1.36364E-10-1.11174E+03-4.05982E+02
 -1       706 2.02628E-10-2.95150E-10 8.37402E-10-1.35032E-10-1.09183E+03 2.39295E+03
 -1       707-7.29781E-11 1.55874E-10 6.59677E-10 1.97757E-10-6.39056E+02 3.26890E+03
 -1       708 2.93001E-11-3.14460E-12-1.78812E-10-3.66792E-11 7.91316E+01 4.69212E+02
 -1       709 2.52687E-12 2.75590E-11-1.81918E-10 1.11696E-11 2.10875E+02-1.95872E+02
 -1       710 1.05356E-11 1.57827E-11-1.02573E-10-2.12841E-11 5.07224E+01 1.50891E+02
 -1       711-3.77929E-11 4.43046E-12 1.51764E-10-9.04832E-12 4.56798E+01-2.56664E-01
 -1       712-5.82698E-11-2.76566E-10 2.56170E-10 2.04278E-10-8.94182E+02-2.30200E+02
 -1       713 4.07674E-12 3.67173E-12 1.76854E-10-8.10552E-12 3.68182E+02-7.67903E+02
 -1       714 5.45602E-11-9.85031E-11-7.44588E-10-3.01762E-11-3.24793E+02 1.90850E+02
 -1       715-5.32498E-11 4.59355E-13 4.21878E-11 1.87619E-11 2.04468E+01 4.90236E+02
 -1       716 2.36327E-11-1.57652E-14 3.10373E-10 1.21299E-11-6.49622E-04 6.63575E+02
 -1       717-3.12923E-10 1.19371E-12-8.00640E-11 3.41096E-11 1.47006E-03-2.53936E+03
 -1       718 2.96403E-11 1.50909E-10-1.94221E-09-1.02462E-10-7.27571E+01-2.73333E+03
 -1       719-2.97878E-10-3.81865E-10 2.80513E-10-7.75534E-11-7.36123E+01-8.14136E+02
 -1       720 7.44194E-10-1.83604E-11-3.78361E-09 8.77662E-11-1.49414E+03 9.46815E+02
 -1       721 2.88888E-11 3.39817E-11 7.88501E-11-9.44311E-12 1.42638E+02-1.52050E+02
 -1       722-8.79280E-12 1.82815E-12 8.07411E-11 2.62305E-11-3.14702E+02 5.49828E+02
 -1       723 2.65773E-11-2.81619E-11 5.14573E-11 1.16733E-11 4.02930E-01-1.01288E+02
 -1       724-1.57416E-11-1.75328E-11 5.58346E-11 5.70610E-12-2.41084E+01-2.18331E+00
 -1       725 8.64420E-13 2.21715E-11-8.81583E-11 4.70002E-12-1.57495E+02-1.35499E+02
 -1       726-2.59848E-11-3.63885E-11 1.90510E-10 2.57772E-12-1.66041E+02 1.11150E+01
 -1       727-1.78417E-11-2.85674E-11-8.03702E-10-2.11635E-11-1.03126E+02 5.03472E+02
 -1       728-2.04399E-12 1.53363E-11 8.24819E-11 1.89484E-11 2.65972E+01 1.79340E+02
 -1       729 3.17861E-11-2.70894E-13 1.84762E-10-1.17963E-11-2.54977E-04 1.71590E+02
 -1       730-9.60085E-11-1.33227E-13-9.09210E-11-1.83864E-10-3.43271E-03-2.58484E+03
 -1       731 2.21992E-10 1.03846E-10-1.14794E-09 1.10513E-10 1.90764E+01-2.43599E+03
 -1       732 5.66502E-10-8.38895E-10 2.70018E-09-7.27596E-12 4.55448E+02-2.18274E+03
 -1       733 1.97949E-11 2.99197E-11-7.42878E-11-5.83933E-12 4.00180E+02-2.33782E+02
 -1       734-8.82949E-12 4.80044E-12 2.33319E-10 1.93112E-11 6.16009E+01 8.35067E+00
 -1       735 2.45026E-12 3.57993E-11-9.73617E-11 1.07742E-11-3.24588E+01-1.55109E+01
 -1       736 9.70612E-12 1.61939E-11-1.43619E-11 9.23819E-12-1.78318E+01-3.94710E+01
 -1       737-3.57963E-11-1.54300E-11 3.52373E-10 3.00666E-11-8.48802E-02-1.97477E+01
 -1       738 3.06971E-11-1.58230E-11-7.41141E-11-7.14079E-12-5.61365E+00 6.74631E+01
 -1       739-6.23146E-12 2.62071E-11-7.45111E-11 1.01013E-11 8.45630E+01 1.15413E+02
 -1       740 9.27258E-12 5.26801E-14 1.28308E-10-1.12124E-11-1.37934E-05 2.73706E+02
 -1       741-2.04579E-10 2.80664E-13-1.20323E-10-3.94493E-11 2.96951E-03-2.27552E+03
 -1       742-4.79190E-10-2.20600E-10 2.42835E-10-1.83491E-10-9.55348E+01-2.62928E+03
 -1       743-8.51003E-10 7.54312E-10 2.97513E-09 2.39311E-10-6.24650E+02-2.56946E+03
 -1       744 3.58811E-11-5.32868E-12-2.27782E-10 1.72262E-12-3.46733E+02-3.19005E+02
 -1       745-3.54449E-11 9.00435E-12 8.45437E-11 1.15514E-11-1.22422E+02-2.65561E+00
 -1       746 1.86939E-11 8.92575E-12-6.50714E-11 1.92369E-11 4.96216E+00-1.05169E+01
 -1       747 7.05799E-12 1.02096E-11 2.80434E-11 1.73089E-11-1.57479E+01-4.07713E+01
 -1       748-2.05322E-11 1.19175E-11 9.08099E-12 3.72954E-12-2.40684E+01-3.51537E+01
 -1       749 2.42617E-11 5.60756E-11-1.83707E-10-2.07009E-11-8.17692E+01-4.17145E+01
 -1       750-8.65796E-12-2.53273E-11 6.93234E-11 1.52696E-11-1.17943E+02 7.58566E+01
 -1       751 5.86571E-11 3.33806E-11-1.04985E-10-3.95855E-11 2.44313E+01 1.06638E+02
 -1       752 1.81242E-11 1.82188E-13 5.79577E-11-7.24931E-12-7.22648E-04 6.66629E+01
 -1       753 1.84542E-10 5.71987E-13-3.44613E-11-1.16827E-10-2.57951E-04-2.82602E+03
 -1       754 4.99682E-10-1.07907E-10-5.78538E-10-1.25439E-10 5.53202E+01-3.19118E+03
 -1       755-5.23187E-10 3.77597E-10 4.73364E-09-4.52284E-11 2.60630E+01-8.55261E+02
 -1       756-1.44155E-09 4.58442E-10 1.36197E-09-2.17085E-10 1.55653E+03 1.05299E+03
 -1       757-7.52820E-12-7.23650E-11 1.25126E-10 5.09992E-12 2.36864E+02-1.60356E+02
 -1       758 9.96225E-12 8.96150E-12 1.99315E-11 2.54770E-11 6.05439E+02 6.13099E+02
 -1       759-3.80347E-11 2.99561E-11-3.16095E-11 1.39855E-12-3.06889E+01-1.31981E+02
 -1       760 1.28644E-11 1.77770E-11 1.48884E-11-9.34780E-12 3.01345E+01-3.95440E+01
 -1       761 2.31892E-12 9.92784E-12-9.05405E-11-3.72155E-11 1.07583E+02 5.34595E+01
 -1       762 3.74012E-12 8.04432E-11 2.21068E-11 4.59557E-11 1.23462E+02-4.54286E+00
 -1       763 1.01601E-10-4.15561E-11-8.20961E-11-5.97069E-11-1.40695E+02 6.36885E+01
 -1       764-2.02789E-11 2.11706E-11 4.14800E-11 9.68825E-12-3.77728E+01 4.26317E+01
 -1       765-4.97966E-11 3.03210E-11-1.40831E-10-2.75147E-11-2.94348E+01 1.16060E+01
 -1       766-4.30909E-11-2.40419E-13-2.85830E-11 1.11253E-11-4.62998E-04-6.67880E+01
 -1       767 1.79057E-10-1.74083E-12-1.56389E-10-2.27885E-10-8.71397E-03-2.56686E+03
 -1       768 2.25285E-10-8.05720E-11-1.61844E-11-2.46956E-10 9.57555E+01-2.72674E+03
 -1       769 4.79645E-10-2.36042E-11 1.19853E-09-1.00842E-10 1.53019E+03-5.84274E+02
 -1       770 2.23736E-10 1.00522E-09 2.61412E-09 1.60126E-10 7.84077E+02 2.97465E+03
 -1       771 4.83666E-10-3.19549E-10 9.82439E-10-6.81624E-11 2.86885E+03 3.12504E+03
 -1       772 2.79723E-11-1.32259E-11 1.87875E-10-3.30589E-11-1.65234E+02 1.71210E+02
 -1       773 5.71716E-11-1.19436E-11 3.78206E-11-1.92639E-11-3.62276E+02-5.06321E+02
 -1       774-4.47486E-12 1.50776E-11 5.23999E-11 9.94453E-12 1.05544E+01-9.57102E+01
 -1       775-9.51030E-11 2.89013E-12 8.62954E-12-2.23961E-11-1.91669E+01 3.47764E+01
 -1       776-6.42306E-10 3.49952E-10-1.76215E-12-1.88055E-10 5.82908E+02 4.75848E+02
 -1       777-4.17330E-10-1.88110E-11 4.61649E-10 1.28644E-10 1.49135E+02 1.14033E+02
 -1       778-1.83908E-10 1.26477E-10 4.06898E-10-1.86251E-11 1.02343E+02-6.25570E+01
 -1       779-1.27967E-10 2.09612E-11 3.32438E-10-5.46869E-11 9.62410E+00-1.42203E+02
 -1       780-9.11911E-11-2.47483E-13-1.58756E-10-1.93419E-11-9.87156E-04-2.75144E+02
 -1       781 6.60464E-10 7.10543E-14-1.30900E-10-2.42892E-10-1.20037E-02 6.18722E+02
 -1       782 2.49514E-10-2.09255E-10 1.27683E-09-5.01359E-11 3.78107E+01-3.35361E+02
 -1       783-1.86804E-10-1.09556E-10 2.97210E-09-1.67283E-10 2.17793E+02 7.49112E+02
 -1       784-1.80927E-10 2.98627E-10 2.52667E-09 1.97296E-10-3.10272E+02-4.78078E+02
 -1       785-1.43151E-11-2.96609E-10 1.75270E-09 2.34498E-10 2.74722E+03 5.04119E+02
 -1       786 7.80844E-10-8.94715E-11-2.01877E-09-1.66324E-10 1.74928E+02 1.41290E+03
 -1       787 6.40767E-11-2.95302E-11 2.78899E-10 1.25784E-11 8.70824E+01-1.53301E+02
 -1       788 3.09653E-11 7.35003E-11 7.87222E-11 7.12057E-11 2.18702E+02 1.26764E+02
 -1       789 5.95235E-11-1.40064E-10 2.49173E-10-6.23901E-12 3.41527E+00-1.35143E+00
 -1       790-1.03011E-11 2.39804E-10-6.98955E-11-5.41173E-11 9.58220E+01-1.04794E+02
 -1       791-2.44327E-10 8.78283E-11 2.84012E-10 2.70317E-11 4.34320E+01-7.07440E+02
 -1       792-2.78476E-10 4.73177E-13-6.84324E-11-6.47020E-11-4.60630E-04-8.45331E+02
 -1       793-4.54037E-12-1.38698E-11 1.33701E-09-3.27987E-11-1.16027E+03-1.03550E+03
 -1       794 2.36125E-11 4.21153E-10-1.81224E-09 8.84484E-11 1.44885E+01 9.86349E+00
 -1       795 4.70262E-10-1.17311E-11-2.44860E-09 1.36822E-10-4.26173E+02 7.25488E+02
 -1       796 2.85922E-11-5.50486E-10 1.38255E-09 3.07267E-10-1.57500E+03-7.50201E+02
 -1       797 5.43130E-11 4.95284E-11-1.03788E-10-2.50031E-11 1.63354E+01-2.42889E+01
 -1       798-4.67919E-11 1.08979E-11-2.52094E-10-1.42215E-11-8.72939E+01 3.13258E+01
 -1       799 3.10401E-11-1.40719E-10 1.54553E-10 1.63472E-11-1.00252E+02 8.64914E+01
 -1       800 7.19069E-12 9.90426E-11 4.72511E-13 2.49543E-11 1.46944E+02 1.69898E+02
 -1       801-1.05236E-10-8.15419E-11 1.03339E-10-8.56453E-11-2.51488E+03-6.02429E+01
 -1       802 3.25148E-11-2.27139E-10 5.34222E-11 1.70982E-10-2.58854E+03-2.60326E+01
 -1       803 1.96215E-10-3.85455E-10-4.24421E-10-1.93007E-11-3.27378E+03-5.57040E+02
 -1       804 6.26432E-12 1.13552E-10 1.94202E-10 3.24327E-11-9.18462E+02-7.00689E+02
 -1       805-2.02094E-11-3.29088E-11-1.20356E-10 1.12022E-12 3.49353E+02-4.00426E+02
 -1       806-1.84283E-11 8.53291E-11-2.29520E-10-2.71312E-11-5.71998E+01-2.59830E+01
 -1       807 2.66847E-11-2.35332E-11-1.11138E-10 4.06897E-11-2.36255E+02 9.04655E+00
 -1       808 2.16215E-11-1.17609E-10 5.03324E-11 1.16085E-12-7.73303E+02 4.50173E+01
 -1       809 1.68887E-12-1.10049E-10-1.34204E-09 1.23134E-10-1.52946E+03-9.27849E-03
 -1       810-8.70415E-14 2.17710E-11-4.17231E-11 6.95195E-11-2.95085E+03 8.29242E-04
 -1       811-1.60405E-12-1.67404E-10 4.39242E-10-2.21760E-11-6.08760E+02-3.89700E-06
 -1       812-9.77440E-13-1.32971E-10 2.55008E-10-4.36184E-11-1.35430E+03-8.24554E-03
 -1       813 7.67164E-13 1.33795E-11 4.99345E-11 6.17240E-12-7.10392E+02 3.50354E-03
 -1       814 2.08389E-13 1.77707E-11-5.70223E-11 5.31930E-12-1.80664E+02 6.33477E-04
 -1       815 1.69698E-13 1.56035E-11-6.68401E-11 1.11493E-11-3.76578E+02-5.76612E-04
 -1       816-2.99649E-13-2.00657E-11 2.61542E-10 3.41061E-12-8.81503E+02-1.31099E-04
 -1       817 6.36500E-04-7.02913E+03-4.16110E-03-2.43900E+02 1.57409E+03 1.98060E-03
 -1       818 4.27446E-04-7.38138E+03-2.20415E-03-1.12537E+02 1.95509E+03-3.94940E-03
 -1       819-4.23952E-04-8.11549E+03-2.10573E-03 3.45163E+00 2.31843E+03 3.33795E-03
 -1       820-1.13759E-03-8.44460E+03-3.51417E-03 2.87745E+00 2.17411E+03-1.72413E-03
 -1       821-2.35786E-03-8.62515E+03-4.83135E-03-2.94400E+00 1.56339E+03-2.68402E-04
 -1       822-2.83359E-03-8.14211E+03-4.75986E-03 8.71441E+01 1.99037E+03 1.97890E-03
 -1       823 5.12001E-05-7.23115E+03-2.95682E-03 2.26749E+02 9.03071E+02-6.64573E-04
 -1       824 1.00282E-03-6.09949E+03-4.78503E-03 1.35538E+02 6.54668E+02 2.41616E-03
 -1       825-3.56908E-04-5.39999E+03-3.55036E-03-4.83342E+01 1.39829E+03 1.01237E-03
 -1       826-2.07516E-04-4.75789E+03-2.65127E-03 2.73346E+00 1.26907E+03-1.64371E-03
 -1       827-1.93843E-04-3.98191E+03-2.60225E-03 7.21253E+01 8.72380E+02-4.55302E-04
 -1       828-7.36341E-04-3.09395E+03-1.11669E-03 9.39667E+01 9.14207E+02 3.89409E-03
 -1       829-6.21514E-04-2.14819E+03-6.16136E-04 9.32307E+01 5.21910E+02-2.91785E-03
 -1       830-1.29349E-04-8.61258E+02-2.76412E-04 1.26155E+02 3.94631E+01 2.94691E-03
 -1       831-5.89998E-05 3.17165E+02-1.12879E-03 1.64253E+02-6.33690E+02-2.25128E-03
 -1       832 1.50213E+02-5.60717E+03 3.07860E+02-3.06344E+02-7.84670E+02-4.95126E+02
 -1       833 1.01708E+02-6.40069E+03 8.83573E+02-6.01083E+02-4.35147E+02 9.76055E+01
 -1       834 2.06674E+02-7.17522E+03 1.01598E+03-8.59417E+01-1.76064E+02 1.01374E+02
 -1       835 2.14678E+02-6.64827E+03 1.55692E+03 1.14375E+03-1.13214E+02-1.09773E+02
 -1       836-1.98932E+02-4.36816E+03 1.02959E+03 5.49655E+02-1.72933E+02 1.06147E+02
 -1       837 1.31693E+02-3.31067E+03 4.03531E+02 7.45759E+02-8.53935E+01 1.28672E+02
 -1       838 4.33070E+01-1.66525E+03 2.00086E+02 1.01880E+03-1.98232E+02 1.54015E+01
 -1       839 6.86608E+01 8.67823E+00-5.06745E+01 1.00983E+03-2.22474E+02 7.52804E+01
 -1       840 4.46435E+01 1.63768E+02 6.15729E+02 3.92510E+01 2.17096E+03 6.79567E+01
 -1       841-1.68567E+01-5.24856E+02 1.19144E+03-7.50886E+02 2.20356E+03 7.31368E+01
 -1       842 1.86138E+02-1.34279E+03 1.76715E+03-1.34090E+03 1.65880E+03-9.29840E+01
 -1       843 4.29660E+02-2.61803E+03 1.89956E+03-8.33266E+02 1.70795E+03 2.57183E+02
 -1       844 7.12918E+02-3.39245E+03 2.03197E+03-3.31533E+02 1.09571E+03 9.94022E+01
 -1       845 1.21521E+03-4.55734E+03 2.57291E+03 4.30840E+02 1.01547E+03-1.33871E+02
 -1       846 8.84248E+02-5.71248E+03 3.11385E+03 1.54665E+03 1.38702E+03-1.03773E+02
 -1       847-5.44453E+02-4.48479E+03 2.58651E+03 1.92838E+03 1.65984E+03-6.62338E+02
 -1       848-2.53797E+02-2.47180E+03 2.05918E+03 9.79348E+02 9.15633E+02-8.11488E+01
 -1       849 1.50166E+02-1.85434E+03 1.43312E+03 1.08968E+03 8.78455E+02 6.91977E+01
 -1       850 3.03399E+02-1.41961E+03 8.07066E+02 1.45932E+03 8.16247E+02-5.00460E+01
 -1       851 2.93013E+02-8.39884E+02 6.03620E+02 1.65445E+03 5.66838E+02-6.39242E+01
 -1       852 1.36605E+02-3.73254E+02 4.00174E+02 1.82988E+03 6.02700E+02-2.29471E+01
 -1       853 9.12060E+01-1.05341E+02 1.49413E+02 1.72734E+03 2.88500E+02 2.07404E+01
 -1       854 1.11902E+02 3.81110E+00-1.01347E+02 1.56959E+03-3.43340E+02-6.63023E+01
 -1       855-1.41229E+03 6.87508E+03-9.63275E+02-1.42400E+03-3.07539E+02 2.29069E+02
 -1       856 1.42361E+01 3.41874E+03-8.87788E+02-3.29686E+03-6.06909E+01 1.32802E+02
 -1       857 1.58042E+03-1.06614E+03 2.84190E+02-1.62196E+03 1.81110E+02-5.99496E+01
 -1       858 1.39600E+03-3.25820E+03 1.06594E+03-3.30773E+02-2.19930E+02-5.44866E+02
 -1       859 5.58264E+02-4.86836E+02 4.23287E+02 8.30795E+02 7.97293E+01 3.09703E+02
 -1       860 6.31247E+02 4.38632E+02-2.17932E+02 2.05061E+03-1.92714E+02 2.80099E+01
 -1       861 8.93840E+01 8.39027E+02-2.12041E+02 1.80375E+03-2.08552E+02-2.82080E+01
 -1       862-1.92765E+02 3.90666E+02-7.03863E+01 1.19744E+03-3.27516E+02-4.74169E+01
 -1       863 1.42071E+03-4.68073E+02-2.89894E+02-1.46379E+03 5.73492E+02-1.00342E+03
 -1       864 6.02592E+02 2.76036E+03-1.41609E+03-3.79074E+03 4.13137E+02-1.48926E+02
 -1       865-1.85117E+03 7.18648E+03-2.54228E+03-4.44546E+03-4.76406E+01-5.47557E+02
 -1       866-2.03921E+03 7.70228E+03-3.04250E+03-4.10927E+03 6.86772E+02-2.66033E+02
 -1       867-4.58546E+02 7.23204E+03-3.54273E+03-5.10956E+03 4.16329E+02 1.53490E+03
 -1       868 2.07025E+03 1.45571E+03-2.50316E+03-4.62881E+03-1.67497E+02 1.04316E+03
 -1       869 2.76367E+03-1.07266E+03-1.46359E+03-2.85003E+03 4.38906E+02 6.05247E+02
 -1       870 2.34571E+03-1.26345E+03-1.22278E+03-1.65684E+03 7.91699E+02 3.87527E+02
 -1       871 1.86134E+03-1.50976E+03-9.81974E+02-8.45804E+02 1.58681E+03 2.32457E+01
 -1       872 9.94420E+02-2.30938E+02-1.21261E+03 1.13656E+03 6.47413E+02 1.18553E+02
 -1       873 1.31627E+03 2.40457E+02-1.22777E+03 1.87346E+03 7.74371E+01-3.98800E+02
 -1       874 5.63930E+02 1.90131E+03-1.24293E+03 2.51910E+03 2.94467E+02-5.97715E+01
 -1       875 1.85733E+01 1.98466E+03-1.03359E+03 2.09833E+03 2.81917E+02-2.31094E+02
 -1       876-9.35958E+01 1.71542E+03-8.24257E+02 1.75484E+03 9.65986E+01-3.11146E+02
 -1       877-3.79229E+02 1.09109E+03-4.31841E+02 1.23780E+03 2.73814E+02 1.75688E+02
 -1       878-5.67090E+02 6.33382E+02-3.94265E+01 6.53505E+02-2.85347E+02-1.01993E+01
 -1       879-2.58985E+02 6.05284E+01 4.62030E+01-1.85529E+02-1.63160E+02-4.47887E+02
 -1       880 6.13836E+01-5.14040E+02 1.31834E+02-1.04092E+03 3.02790E+02 1.81065E+02
 -1       881-1.31090E+03 4.36674E+02 4.84055E+02 1.05502E+03-8.36359E+02 2.99943E+02
 -1       882-8.70430E+02 5.42862E+03-1.84542E+03-2.87832E+03-1.07201E+02 3.69225E+01
 -1       883-2.26462E+03 1.04194E+04-2.32855E+03-8.64525E+02 4.26151E+02-1.22567E+03
 -1       884-1.23732E+02 2.63238E+03-9.13961E+02 1.98948E+03 8.80051E+02-2.29908E+02
 -1       885-9.41808E+02 2.52794E+03-4.99394E+02 1.00853E+03 1.91530E+02 1.10996E+01
 -1       886-9.37479E+02 4.92807E+02 2.44859E+02-1.77231E+01 2.26046E+02-1.39053E+01
 -1       887-1.12195E+03-3.31085E+02 6.10160E+02-1.59983E+03 2.49694E+02 1.80441E+02
 -1       888 2.16694E+03-4.97083E-04 3.77279E-03 4.52855E+02-6.07828E-03 6.90080E+02
 -1       889 2.25730E+03-2.13820E+02-3.17098E+01 2.35362E+03 4.01413E+02 6.85468E+02
 -1       890-7.11390E+01-2.63315E+02-6.34270E+01 3.50530E+03-1.11808E+02-1.06350E+02
 -1       891-3.61660E+03 9.21125E+02 5.97287E+02 3.06558E+03-2.77597E+02 9.27228E+02
 -1       892-4.41462E+03 1.91478E+03 1.25800E+03 2.90458E+03 4.82624E+01 7.59045E+02
 -1       893-3.20132E+03 2.48681E+03 5.47159E+01 9.87893E+02 2.45636E+01-6.75734E+02
 -1       894-6.22984E+01 3.16407E+03-1.14857E+03-1.03774E+03 4.46470E+02-3.92219E+02
 -1       895-2.05819E+02 3.50202E+03-1.13147E+03 3.01609E+02-1.94635E+03 2.21683E+03
 -1       896-2.43936E+03 4.05833E+03-1.11437E+03 2.74417E+03-2.85961E+03-8.33378E+02
 -1       897-6.69782E+02 1.71492E+03-5.84994E+02 1.83941E+03-3.12741E+02-4.80942E+02
 -1       898-1.28988E+03 2.08957E+03-3.79762E+02 1.56791E+03-8.19411E+02-5.16218E+02
 -1       899-1.91693E+03 2.40034E+03-1.74532E+02-4.91491E+02-6.60415E+02-3.82974E+02
 -1       900-1.34413E+03 8.61214E+02 1.77305E+02-8.62578E+02-4.70135E+02-2.42397E+02
 -1       901-1.23808E+03-2.11760E+02 5.29143E+02-6.22554E+02 1.54812E+02 9.99409E+01
 -1       902-2.01263E+03 6.69576E+01 8.08814E+02-1.16595E+03-3.11637E+00-3.15014E+01
 -1       903-2.74215E+03 4.61035E+02 1.08849E+03-1.54917E+03 1.62439E+02 6.88833E+01
 -1       904-2.61300E+03 4.13041E+02 3.91839E+02-9.99781E+01-1.06975E+02-7.45741E+01
 -1       905-1.48027E+01-2.81074E+01-3.04807E+02 6.37043E+02 4.41663E+00 1.04146E+03
 -1       906 2.26420E+03-5.54200E+01-1.52403E+02 2.67156E+02 1.60345E+02-1.67618E+02
 -1       907 2.92455E+03-2.72638E-04 1.00883E-03-3.72742E+01-1.42049E-04 8.60605E+02
 -1       908 4.95029E+03-2.45912E-05 1.40564E-03 3.22241E+02 8.18328E-03-9.08171E+02
 -1       909 3.16863E+02-1.24315E+02-7.59812E+02 4.08171E+03-1.69905E-01-1.56787E+03
 -1       910-5.25727E+03 1.42084E+03 2.22373E+03 4.03696E+03 5.82842E+02-9.51235E+02
 -1       911-3.52408E+03 3.64414E+03-8.61628E+01-2.12174E+03-9.11288E+02 2.01514E+03
 -1       912 5.32758E+03-6.05289E+03-7.43178E+02 8.81124E+02 3.20316E+02 1.68713E+03
 -1       913 5.40567E+02-1.00132E+03-9.32807E+01-2.24744E+03-8.08353E+02-3.16495E+02
 -1       914-1.37085E+03-7.85975E+00 4.97891E+02-2.51883E+02-6.71731E+02-5.93547E+02
 -1       915-2.54877E+03 4.92012E+02 1.06628E+03-1.27754E+03 8.53475E+01 2.22800E+02
 -1       916 1.62581E+02 9.32062E+00-3.89571E+02 4.48324E+02-4.07842E+01 7.53086E+02
 -1       917 2.62684E+03-1.45412E-04 7.20702E-04 6.43991E+00 5.89689E-04 7.62723E+02
 -1       918 8.06654E+03 1.92783E-03 2.13375E-03 2.26377E+02-8.02683E-03-2.16965E+03
 -1       919 6.22013E+03-1.01608E+02-7.28098E+02 2.49537E+03-5.92219E+01 6.15567E+02
 -1       920 1.11601E+03-2.88510E+02-1.45620E+03 4.49545E+03-1.20399E+02-2.23722E+03
 -1       921-3.53730E+03-2.29251E+02 8.66629E+02 4.84941E+03-4.51892E+01 6.43818E+02
 -1       922-6.52852E+03 2.33171E+02 3.18946E+03 5.29114E+03-1.08177E+03-3.79745E+02
 -1       923-9.19236E+03 2.73239E+03 2.08285E+03 3.35652E+03 3.86468E+01-6.78952E+02
 -1       924-8.38405E+03 5.73656E+03 9.76241E+02-1.13145E+03-1.05424E+03 2.35140E+03
 -1       925 4.52729E+03-2.43040E+03 3.02134E+02-6.08632E+03-7.55704E+02 2.49811E+03
 -1       926 7.56550E+03-5.89494E+03-1.08961E+02-4.68769E+02-9.45404E+02 3.61243E+03
 -1       927 2.08182E+03-6.26016E+02-5.39197E+02 1.66421E+02-1.36196E+02-5.90906E+02
 -1       928-1.12923E+02 3.04324E+02 5.36009E+01-9.23525E+01 1.97423E+00 1.31166E+02
 -1       929-4.68236E+01 1.48180E+02-1.10071E+02-1.46164E+02-3.46091E+01 1.81393E+02
 -1       930-3.64065E+01-1.41516E+02 6.08071E+01 1.54782E+02 6.73513E+01 5.31685E+00
 -1       931 1.15805E+02-6.99369E+01-1.53661E+00 2.69951E+01 8.65993E+00 6.96715E+01
 -1       932 3.45587E+01-3.71051E+01-8.52047E+00-5.13841E+01 2.15455E+00 7.05608E+01
 -1       933-3.31583E+00 7.01124E+01-3.18163E+01 3.29807E+01-2.14022E+01 5.69116E+01
 -1       934-3.18464E+01 1.15550E+02 1.29020E+01 8.19405E+00 1.67693E+01 7.31314E+01
 -1       935 4.40063E+02-2.31943E+02-1.05433E+02 7.71471E+01-9.30198E+01 3.14567E+02
 -1       936 1.74978E+03-1.92689E+03-5.03017E+01-4.69163E+02-9.54400E+02-3.44530E+02
 -1       937 1.63034E+03-1.39583E+03 2.27307E+02-3.05578E+02-4.40787E+02 2.20070E+02
 -1       938-1.49057E+03 6.80293E+02 4.66640E+02 3.96986E+02 3.66851E+02-7.56507E+02
 -1       939-3.20666E+03 5.25299E+02 7.55353E+02-5.36431E+02 3.42660E+02 1.77725E+02
 -1       940-1.92776E+03-6.04773E+01 1.04407E+03-1.36552E+03-3.32336E+02 1.73166E+02
 -1       941-8.82637E+02-7.48771E+01 2.84867E+02-4.86243E+02 9.19531E+00 6.52539E+01
 -1       942 3.44835E+02-4.45950E+01-4.74335E+02 3.10116E+02 1.73206E+01 4.78964E+02
 -1       943 1.85366E+03-2.36488E+01-2.37167E+02 2.23557E+02-9.46042E+01-1.40661E+02
 -1       944 2.39642E+03 3.77836E-04 8.13051E-04 4.07969E+01-2.40885E-04 6.73786E+02
 -1       945 1.03283E+04 2.24585E-03 3.58740E-03 2.03174E+02 1.04091E-02-3.09922E+03
 -1       946 2.47999E+03-9.33526E+02-1.93914E+03 3.90568E+03-9.13658E+01-1.91179E+03
 -1       947-6.78373E+03-2.27142E+02 3.61264E+03 6.31083E+03-6.52229E+02-8.85352E+02
 -1       948-7.18919E+03 3.96927E+03 1.46347E+03 5.64012E+03-1.80972E+03 2.76796E+03
 -1       949 8.98904E+02-1.41042E+03 2.59252E+02 3.92481E+02 1.15556E+03 3.40303E+02
 -1       950-3.07652E+02-9.47709E+01 6.70504E+01 2.37486E+02 1.08782E+02-2.21243E+02
 -1       951 9.17644E+01-4.75846E+01-1.90614E+01 3.86355E+01-1.15217E+01 1.04249E+01
 -1       952 3.84758E+01-2.62438E+01 1.01395E+00 2.05149E+01-8.42144E+00-3.58170E+01
 -1       953-6.38925E+01-4.25356E+01-3.05374E+00-4.01217E+01 3.30603E+01 2.69448E+01
 -1       954 1.91297E+02-5.40400E+02 1.19839E+02 1.44912E+01 1.45170E+02-5.31845E+01
 -1       955-2.58804E+02-5.02811E+02 5.63733E+02-1.02395E+03-2.25150E+02 3.82136E+01
 -1       956 7.89090E+02-2.12632E+02-5.34538E+02 4.43578E+02 1.06308E+01 3.76513E+02
 -1       957 1.97894E+03 5.13161E-04 9.88889E-04 4.57059E+01-7.72877E-04 5.55025E+02
 -1       958 1.23517E+04 2.32824E-03 7.09806E-03 9.45213E+01-1.68859E-03-2.59151E+03
 -1       959 1.01119E+04-4.62780E+02-1.21104E+03 1.57259E+03 6.49523E+01 3.81017E+02
 -1       960 4.19752E+03-1.27793E+03-2.42209E+03 3.26996E+03-1.15088E+02-2.68975E+03
 -1       961-1.29747E+03-2.29868E+03 8.06870E+02 5.53176E+03 3.93887E+01 5.17588E+02
 -1       962-5.87217E+03-2.11520E+03 4.03583E+03 7.52010E+03-6.90635E+01-7.36260E+02
 -1       963-8.43218E+03 2.11332E+02 2.99326E+03 6.44034E+03-6.83956E+02-2.92564E+03
 -1       964-5.48385E+03 2.04162E+03 1.95070E+03 6.46527E+03-1.47308E+03 9.01841E+02
 -1       965-4.94242E+02 1.51771E+02 1.14790E+01-2.94931E+01 3.62251E+02-6.26843E+01
 -1       966 1.38692E+02 2.75921E+02 1.98808E+01-1.77174E+02 1.92650E+02-1.58390E+02
 -1       967 3.56766E+02-2.17096E+02-7.04791E+01 1.18029E+02-8.62870E+01 1.94152E+02
 -1       968-3.38057E+01-7.55309E+01-3.43089E+00 1.33859E+02-5.18008E+01 5.09477E+01
 -1       969 3.49425E+01 1.24481E+01-9.16999E+00 1.67643E+01-1.95500E+01-4.20255E+01
 -1       970 7.13583E+01 4.60261E+00-7.68736E+00 2.36527E+01-1.41864E+01-2.24330E+01
 -1       971 4.26255E+01-1.75356E+01-1.62169E+01 3.96725E+01-2.18126E+01-2.79877E+01
 -1       972 7.59414E+00-4.47841E+01 1.58867E+00 1.07440E+01-3.90571E+01-3.47499E+01
 -1       973 8.25010E+01-9.67958E+01 8.60094E+00 3.58515E+01-6.82413E+01-6.04363E+01
 -1       974 3.65736E+01 7.36785E+01-9.03222E+00 7.45440E+01 3.58288E+01 2.48159E+01
 -1       975-9.86546E+01 2.02646E+01 4.15854E+00-1.08790E+01-7.71483E+01-6.83533E+00
 -1       976 4.37126E+02-3.87377E+02 8.33969E+01-6.82653E+02-1.23843E+02 4.88839E+02
 -1       977 6.78517E+02-2.87876E+02-2.55673E+02-1.13754E+02 1.64946E+02 8.68442E+01
 -1       978 1.17630E+03-1.84736E+02-5.94740E+02 6.70297E+02 2.59152E+01 1.83006E+02
 -1       979 1.40649E+03-5.81825E+01-2.97369E+02 4.48318E+02 1.65816E+01-1.44783E+01
 -1       980 1.50848E+03-3.82101E-04 7.50683E-04 6.97880E+01 2.97023E-04 1.84405E+02
 -1       981 1.34390E+04 3.16414E-03 7.21909E-03-5.57089E+01-4.50448E-03-3.59254E+03
 -1       982 5.90000E+03-1.40065E+03-3.90223E+03 1.83015E+03 8.76492E+01-2.34802E+03
 -1       983-3.95247E+02-4.53760E+03 3.50486E+03 5.49415E+03-1.41833E+03-6.05581E+02
 -1       984-2.92178E+02 9.60365E+01 8.63905E+01 1.12404E+02 1.77789E+02 8.20149E+01
 -1       985 1.32046E+02 5.52248E+01-4.57081E+01-1.67542E+01-6.31610E+01 8.35863E+01
 -1       986 5.12646E+01-2.68313E+01-9.58820E+00 4.51279E+01-1.12724E+01-2.60269E+01
 -1       987 3.91701E+01-2.24238E+01-7.34728E+00 2.32986E+01-1.79711E+01-3.54936E+01
 -1       988 3.51945E+01-4.28514E+00-4.40099E-01 4.78485E+01-3.00831E+01-4.35530E+01
 -1       989-4.19498E+01 4.56749E-01 3.51187E+01-3.24692E+01-9.17017E+01-1.87637E+01
 -1       990 7.75194E+02 1.96178E+02-5.21747E+02 7.52946E+02 2.57906E+02 2.96043E+02
 -1       991 1.04814E+03-4.32908E-04 9.65229E-04 6.47952E+01-9.66877E-04 9.24131E+01
 -1       992 1.38942E+04 1.62881E-03 6.57302E-03-2.35978E+02 1.95346E-03-2.70081E+03
 -1       993 1.18454E+04-1.00271E+01-2.69118E+03 6.09599E+01 2.14768E+02 3.09859E+02
 -1       994 7.90278E+03-7.43984E+02-5.38236E+03 5.10623E+02-2.62210E+01-2.45323E+03
 -1       995 2.89057E+03-2.33723E+03-1.20424E+03 2.04226E+03 1.09693E+03-2.88977E+02
 -1       996 1.66619E+03-3.29042E+03 2.97388E+03 3.51913E+03 4.32531E+02-2.00250E+03
 -1       997 1.52471E+02 5.79933E+01-4.65143E+01-1.56655E+02 2.16262E+02-1.73988E+01
 -1       998 5.92870E+01-4.92106E-01-3.25848E+01 2.77884E+01-8.94747E+00 1.90348E+01
 -1       999 5.40921E+00 4.74187E+00 2.89473E+00 6.98040E+01 4.48277E+00 2.22386E+01
 -1      1000 4.78029E+01-1.50495E+01-1.03389E+01 2.89230E+01-1.09684E+01-6.53575E+00
 -1      1001 4.99301E+01-2.53873E+01-1.05004E+01 3.34688E+01-2.36720E+01-1.45171E+01
 -1      1002 4.23394E+01-2.80054E+01-7.21699E+00 3.20135E+01-2.50581E+01-2.05566E+01
 -1      1003 3.60895E+01-2.82653E+01-2.66645E+00 2.67047E+01-2.12112E+01-3.73363E+01
 -1      1004 2.83197E+01-2.96278E+01 2.02492E+00 2.41048E+01-1.96857E+01-2.15096E+01
 -1      1005 4.17002E+00-2.81143E+01 9.39999E+00 1.39984E+01-1.57754E+01-2.91615E+01
 -1      1006 2.29336E+01-4.22666E+01 1.92857E+00 1.85926E+01-3.33159E+01-1.42206E+01
 -1      1007 5.76707E+01-1.09409E+01-2.09954E+01 4.69942E+01-6.05088E+01 1.46874E+01
 -1      1008 3.61070E+02 3.49987E+02-4.48755E+02 4.58087E+02 8.95240E+01 1.25085E+02
 -1      1009 5.32027E+02 1.41624E+02-2.24377E+02 2.41719E+02-2.11857E+01-4.35293E+01
 -1      1010 7.02985E+02 2.61197E-05 6.09481E-04 1.68699E+01-9.34619E-05 2.83378E+02
 -1      1011 1.40048E+04-4.90871E-04 1.03101E-02 8.05412E+01 1.25458E-03-1.81772E+03
 -1      1012 1.01228E+04 5.17584E+02-5.57303E+03 9.25381E+02-3.63415E+02-3.72962E+03
 -1      1013 1.33453E+02-1.03834E+02-2.75015E+01 2.34909E+01 8.69081E+01 1.79117E+01
 -1      1014-2.13110E+01-4.53926E+01-4.46068E+00 2.84301E+01-1.14989E+01 8.54926E+00
 -1      1015 5.21540E+01-2.15608E+01-8.72382E+00 3.10761E+01-1.10810E+01-1.23016E+01
 -1      1016 3.03247E+01-3.28950E+01 1.28007E+00 2.38388E+01-1.45434E+01-3.99997E+01
 -1      1017 1.25580E+01-4.30116E+01 2.30110E+00 1.36191E+01-1.17681E+01-2.75007E+01
 -1      1018 1.41905E+01-5.97984E+01 1.42299E+01-1.14547E+00-4.85100E+01 2.98289E+00
 -1      1019 3.19367E+02 2.07756E+02-2.91668E+02 1.82326E+02-4.18696E+01 1.82764E+02
 -1      1020 5.24465E+02-5.21148E-04 5.39584E-04-6.45380E+00 3.50069E-04 5.30316E+01
 -1      1021 1.47949E+04 1.25889E-03 6.20091E-03 3.24050E+02-1.82083E-03-2.39971E+03
 -1      1022 1.29616E+04-3.17354E+02-2.88185E+03 7.08167E+02-3.07126E+02 2.73107E+02
 -1      1023 9.34637E+03-1.58581E+03-5.76371E+03 5.64045E+02-5.48771E+01-2.64820E+03
 -1      1024 4.08523E+03-3.09263E+03-1.32138E+03-2.14870E+03-1.38495E+03-3.33777E+02
 -1      1025 2.38799E+03-4.02739E+03 3.12096E+03-4.01934E+03-5.90456E+02-2.37782E+03
 -1      1026 2.05235E+02 1.09763E+02-9.34127E+01 2.27316E+02-8.20651E+01-5.78527E+01
 -1      1027 7.00734E+01-3.30308E+01-1.76840E+01 2.73577E+01 1.01106E+01 1.92488E+01
 -1      1028-1.13711E+01 1.32470E+01-3.71352E+00-7.39833E+00-4.24265E+01 2.17347E+01
 -1      1029 4.85862E+01-2.15340E+01-9.40559E+00 3.93440E+01-2.23045E+01-1.15020E+01
 -1      1030 4.88308E+01-3.35565E+01-7.12010E+00 2.69132E+01-4.20660E+00-1.56142E+01
 -1      1031 3.42669E+01-3.31868E+01-1.44733E+00 2.23836E+01-4.44486E+00-1.95939E+01
 -1      1032 2.60855E+01-2.92169E+01 3.82795E+00 2.22257E+01-9.30131E+00-3.86476E+01
 -1      1033 1.72168E+01-3.52345E+01 4.67710E+00 1.54685E+01-9.08986E+00-2.44801E+01
 -1      1034 2.14994E+01-3.89352E+01 6.22109E-01 1.53177E+01-1.32536E+01-2.87044E+01
 -1      1035 5.10719E+00-4.66503E+01 2.53386E+01 7.10137E+00-4.87139E+00-2.02984E+00
 -1      1036-2.48453E+01-3.17007E+01 3.08397E+01-3.73619E+00-4.20288E+01 2.87160E-01
 -1      1037 2.86458E+01-2.46338E+02 1.37167E+02-5.52408E+00-1.19606E+02 6.99952E+01
 -1      1038 1.52028E+02-2.08065E+02 1.29258E+00 1.24947E+02-9.58196E+01-2.16493E+01
 -1      1039 3.28611E+02-1.20917E+02-1.34582E+02 1.05636E+02 2.82851E+01 1.06617E+02
 -1      1040 3.89352E+02-3.60832E+01-6.72906E+01 3.78671E+01-8.75098E+01 4.18453E+00
 -1      1041 4.23493E+02-2.49221E-04 5.15664E-04 1.29749E+00-2.51101E-04 6.95626E+01
 -1      1042 1.49520E+04 5.09253E-03 7.87049E-03 8.89586E+01 5.01626E-03-4.05888E+03
 -1      1043 6.97714E+03-2.17047E+03-4.25434E+03-1.48585E+03-6.47722E+01-2.51647E+03
 -1      1044-1.49451E+02-5.67673E+03 3.91332E+03-6.21430E+03 1.73638E+03-8.84565E+02
 -1      1045-3.28437E+02 1.28743E+02 1.37432E+02-1.84396E+02 5.23179E+01 9.00873E+01
 -1      1046 1.48275E+02 8.90979E+01-4.27762E+01 1.33085E+02 7.88745E+01 8.97317E+01
 -1      1047 3.75289E+01-3.92102E+01 5.72348E-01 1.75355E+01-9.98135E+00-3.53212E+01
 -1      1048 2.35743E+01-2.28417E+01-3.48650E+00 2.24139E+01-5.07333E-01-3.92871E+01
 -1      1049-3.25946E+00-1.83564E+01 2.49569E+01 4.58818E+00-3.06360E+00-1.88294E+01
 -1      1050 4.94559E+01-2.01890E+01-1.30539E+01 2.68858E+01 8.75929E+00 1.17036E+01
 -1      1051 1.97754E+02-4.05666E+02 9.85566E+01 7.94582E+01 6.57510E+01 4.84791E+01
 -1      1052 2.59467E+02-2.04614E+02-7.91070E+01 2.67866E+02-9.15981E+00 5.13488E+00
 -1      1053 3.22809E+02 5.08084E-04 1.46347E-04 1.29504E+01-1.19359E-04 1.29516E+02
 -1      1054 1.42478E+04 3.85520E-03 7.68139E-03-6.58794E+01 2.19579E-03-2.88512E+03
 -1      1055 1.15899E+04-5.78496E+02-1.37248E+03-1.57452E+03 6.03682E+01 5.10825E+02
 -1      1056 4.79995E+03-1.70581E+03-2.74497E+03-3.36026E+03 9.90267E+01-3.14037E+03
 -1      1057-1.27775E+03-3.00301E+03 9.80356E+02-6.14714E+03 7.33684E+00 5.11698E+02
 -1      1058-6.48394E+03-2.90610E+03 4.70568E+03-8.67726E+03 2.65220E+01-7.63697E+02
 -1      1059-9.62149E+03-8.96970E+01 3.62216E+03-7.67511E+03 6.96698E+02-3.41392E+03
 -1      1060-6.23788E+03 2.11477E+03 2.53865E+03-7.88977E+03 1.52470E+03 1.00625E+03
 -1      1061-5.88359E+02 2.14027E+02-2.05983E+01-4.27199E+01-1.63587E+02-4.25971E+01
 -1      1062 1.64475E+02 4.44078E+02-3.53418E+01 3.13220E+02-3.18254E+02-1.97089E+02
 -1      1063 4.20068E+02-4.04094E+02-1.37775E+01 2.09223E+01 1.79595E+02 1.93863E+02
 -1      1064-6.33625E+01-1.30775E+02 2.68038E+01-9.08009E+01 7.50081E+01 6.89272E+01
 -1      1065 3.67081E+00 3.48590E+01-1.92689E+00 6.28327E+01 8.41787E+00-6.22240E+01
 -1      1066 4.66740E+01 1.07395E+01-5.46373E+00 5.00189E+01 3.04702E+00-3.97924E+01
 -1      1067 2.71513E+01-3.47163E+01-1.41755E+01 2.03703E+01 1.48165E+01-4.76513E+01
 -1      1068 1.47656E+01-4.19767E+01 1.91720E+01 6.01976E+00 2.33304E+01-2.07476E+01
 -1      1069-4.35138E+01-6.90953E+01 6.75800E+01-3.81427E+01 4.83504E+01 5.87635E+00
 -1      1070-6.87226E+00 2.07700E+01-5.50350E+01 1.50051E+01-1.57335E+01-3.11822E+01
 -1      1071 8.49271E+01 2.35146E+00-1.09538E+02 7.46480E+01 6.81618E+01-1.73686E+01
 -1      1072 1.69596E+02-2.16975E+02 1.06567E+01-9.31728E+01-1.41835E+02 6.47483E+01
 -1      1073 3.01303E+02-3.36068E+02 3.53013E+01 1.67627E+02-9.96902E+01 1.10130E+01
 -1      1074 4.17513E+02-5.25237E+02 5.99459E+01 2.96266E+02-4.25637E+01 4.17836E+01
 -1      1075 3.36732E+02-3.65803E+02 1.81569E+01 3.38738E+02 2.47238E+01 2.26796E+01
 -1      1076 1.88478E+02-1.78149E+02-2.36321E+01 4.21141E+02-2.65500E+01 1.09598E+01
 -1      1077 1.31094E+02-5.15225E+01-1.18161E+01 2.38018E+02-2.74284E+01-1.82859E+01
 -1      1078 1.48931E+02 5.67802E-04-1.61578E-05 1.99806E+01 5.04363E-04-6.62783E+01
 -1      1079 1.20874E+04 2.81313E-03 4.12077E-03-2.07943E+02-1.15571E-02-3.65672E+03
 -1      1080 2.86398E+03-1.18370E+03-2.22746E+03-4.19453E+03 9.27509E+01-2.23696E+03
 -1      1081-7.83760E+03-4.91277E+02 4.32605E+03-7.41050E+03 7.33250E+02-1.04197E+03
 -1      1082-8.40779E+03 4.11372E+03 1.80177E+03-6.95496E+03 2.25893E+03 3.20137E+03
 -1      1083 1.10629E+03-2.52248E+03 5.59534E+02-1.64574E+02-1.28373E+03 3.66786E+02
 -1      1084-4.19272E+02-1.61780E+02 3.95312E+01-2.88984E+02-2.02136E+02-3.15295E+02
 -1      1085 7.35020E+01-7.17820E+01-1.15349E+00 6.96138E+00 2.11042E+01-3.61023E+01
 -1      1086-1.02960E+01-1.62974E+01 2.25711E+01 8.40051E+00 6.29070E-01-6.08442E+01
 -1      1087 3.04040E+01-2.83927E+01-5.91263E+01 2.32091E+01-2.27573E+01-4.63672E+01
 -1      1088-1.09600E+02-3.08616E+02 2.22984E+02-2.15561E+02 5.35719E+01 3.44971E+01
 -1      1089 4.44709E+02-4.23312E+02-1.57891E+01-1.41407E+02 2.81328E+01 1.36096E+02
 -1      1090 5.36735E+02-4.15537E+02-8.73959E+01 3.56378E+02-5.55283E-01-5.13593E+00
 -1      1091 1.65843E+02-1.98121E+02 5.46565E+01 5.96557E+02 3.91468E+01-9.67297E+01
 -1      1092-2.04494E+02 4.69675E-04-1.01114E-04 3.27250E+01-9.45287E-04-3.16313E+01
 -1      1093 9.60533E+03 2.44204E-03 2.37288E-03-2.55399E+02 9.16207E-03-2.60367E+03
 -1      1094 7.41259E+03-1.37708E+02-8.54971E+02-2.76960E+03 7.70362E+01 7.10005E+02
 -1      1095 1.31058E+03-3.83209E+02-1.70995E+03-4.97658E+03 1.24569E+02-2.68414E+03
 -1      1096-4.30539E+03-4.38173E+02 1.11823E+03-5.50060E+03 1.04263E+02 7.54616E+02
 -1      1097-7.79576E+03 3.27010E+01 3.94642E+03-6.27726E+03 1.49616E+03-5.54342E+02
 -1      1098-1.08567E+04 3.15943E+03 2.50565E+03-4.33623E+03-2.67191E+02-6.84662E+02
 -1      1099-1.00525E+04 7.32743E+03 1.06489E+03 5.97023E+02 7.47546E+02 2.92480E+03
 -1      1100 5.47712E+03-4.04444E+03 4.81768E+02 6.05840E+03 2.54492E+03 1.94064E+03
 -1      1101 9.30887E+03-9.23649E+03-4.46184E+01 6.51736E+02 3.30292E+03 3.51962E+03
 -1      1102 2.53279E+03-1.10412E+03-5.96120E+02 1.64309E+02 3.15201E+02-1.26606E+03
 -1      1103-1.83338E+02 5.86882E+02 3.64362E+01 4.10373E+01-5.30961E+01-2.20882E+02
 -1      1104-9.24984E+01 3.03058E+02-1.33550E+02 1.99748E+02 6.82213E+01-7.80151E+01
 -1      1105-8.81304E+01-2.49129E+02 8.53746E+01-1.95452E+02-8.29164E+01-2.69094E+02
 -1      1106 8.18217E+01-8.93113E+01 1.73209E+01-1.18319E+01 5.79034E+00-1.49512E+02
 -1      1107 3.39116E+01 1.51892E+01-4.64163E-01 3.49022E+01 2.82281E+01-1.17461E+02
 -1      1108-3.33799E+00 7.16189E+01-3.53652E+01 3.09736E+01 3.30635E+01-4.66571E+01
 -1      1109 1.59965E+01 7.71967E+01-1.04264E+02 6.56370E+01-1.14166E+01 7.53876E+00
 -1      1110-2.28130E+02-1.42245E+02 2.05591E+02-2.17342E+02 5.66943E+01 6.40666E+01
 -1      1111-8.89856E+02-1.11322E+03 5.04186E+02-1.14615E+03 7.20481E+02 6.05112E+02
 -1      1112-9.32712E+02-6.23640E+02 3.75765E+02-8.55684E+02 1.12494E+02 1.04503E+01
 -1      1113 4.51683E+02-1.57683E+02-4.22342E+01 6.62491E+01 1.45082E+02 1.05251E+02
 -1      1114 7.97985E+02-2.46956E+02-1.38486E+02 1.87200E+02-3.17936E+01 2.73837E+01
 -1      1115 7.04667E+02-3.37348E+02-2.34738E+02 3.72800E+02 9.54217E+01-6.06669E+01
 -1      1116 5.71235E+02-3.16984E+02-5.08962E+01 5.92008E+02 4.47837E+01-4.54819E+01
 -1      1117 1.25988E+02-2.26621E+02 1.32945E+02 7.73998E+02 1.24751E+01-1.39666E+02
 -1      1118-4.54720E+02-7.56697E+01 6.64724E+01 4.43618E+02-4.46497E+01 9.07816E+00
 -1      1119-6.24830E+02 3.26637E-04-1.82032E-04 5.24564E+01 7.15210E-04-2.78003E+02
 -1      1120 6.14281E+03 4.26198E-05 1.64879E-03-3.66345E+02-9.33802E-03-1.20869E+03
 -1      1121 3.56333E+02-1.79424E+02-8.91246E+02-4.56310E+03 4.78674E+01-1.93952E+03
 -1      1122-6.54265E+03 1.58254E+03 2.74915E+03-4.73812E+03-8.04240E+02-1.04501E+03
 -1      1123-4.73540E+03 4.44959E+03 1.64868E+02 1.80266E+03 2.21114E+03 2.22357E+03
 -1      1124 5.17642E+03-5.12048E+03-9.93047E+02-2.82828E+03 8.77672E+02 2.15572E+03
 -1      1125-5.45433E+02-9.67181E+02 3.27694E+02-7.67397E+02 3.37188E+01 2.44333E+01
 -1      1126 4.71509E+02 1.59560E+01-1.69751E+02 1.02237E+02 1.20324E+02 3.74332E+02
 -1      1127 1.05418E+03-3.54625E+02-4.08323E+02 1.59501E+02-3.69878E+01-2.71010E+01
 -1      1128 3.85296E+01-1.75400E+02 1.86881E+02 9.00871E+02-3.28947E+01-3.64602E+02
 -1      1129-1.22444E+03 4.54589E-04-3.45728E-04 6.07878E+01-1.07819E-03-4.36263E+02
 -1      1130 3.04441E+03-6.99294E-04 4.43170E-03-5.31856E+02 7.11540E-03 6.17187E+02
 -1      1131 2.98717E+03-2.92217E+02-3.62696E+01-2.64121E+03-5.02740E+02 8.10723E+02
 -1      1132-1.40697E+02-3.97684E+02-7.25483E+01-3.91252E+03 7.31216E+01-3.18602E+02
 -1      1133-4.62096E+03 1.13785E+03 7.39669E+02-3.49820E+03 4.64914E+02 1.08094E+03
 -1      1134-5.62857E+03 2.46214E+03 1.55189E+03-3.66025E+03 1.70222E+02 7.27918E+02
 -1      1135-4.18100E+03 2.66037E+03 4.08365E+02-1.32238E+03-2.00934E+02-7.57099E+02
 -1      1136-1.02740E+03 2.97046E+03-7.35154E+02 1.22266E+03-3.56967E+02-5.15165E+02
 -1      1137-2.65935E+03 5.98180E+03-1.30994E+03 4.56216E+02 2.26495E+03 2.54517E+03
 -1      1138-5.73430E+03 1.01978E+04-1.88473E+03 1.29139E+03 2.70721E+03 4.85090E+02
 -1      1139-2.81731E+03 7.55042E+03-2.05501E+03 7.13045E+03 2.93867E+03 1.90251E+03
 -1      1140-8.28438E+02 5.08813E+03-2.22530E+03 6.52313E+03 1.62234E+02 1.40553E+03
 -1      1141-2.30139E+02 3.26653E+02-6.38610E+01-4.55208E+02 8.48739E+01-1.54906E+02
 -1      1142-4.47472E+02 7.31608E+02-1.01119E+02-4.56490E+02 2.30137E+02-8.95822E+01
 -1      1143-3.13468E+02 8.44036E+02-1.38376E+02-3.32747E+01 2.07983E+02 1.23940E+02
 -1      1144-1.10774E+02 7.12694E+02-2.17822E+02 7.59662E+01 4.51663E+02 6.14496E+01
 -1      1145 3.06158E+02 4.20301E+02-2.97268E+02-6.00069E+01-3.65484E+00-6.13835E+00
 -1      1146 8.90430E+02 1.93864E+02-4.39588E+02-2.10945E+02 7.49470E+01 5.27201E+01
 -1      1147 1.32935E+03-1.90932E+02-5.81908E+02-2.08792E+02 9.51379E+01-1.02972E+02
 -1      1148 1.30961E+03-2.67014E+02-1.70546E+02 6.38928E+02-3.71052E+00-1.23597E+02
 -1      1149 1.27320E+00-1.23626E+02 2.40817E+02 1.00336E+03 4.57575E+01-7.01155E+02
 -1      1150-1.32327E+03-1.98227E+01 1.20408E+02 5.78582E+02 1.19739E+02-2.81580E+01
 -1      1151-1.84833E+03 6.30579E-04-1.62391E-04 5.61763E+01 1.08156E-03-8.50510E+02
 -1      1152-1.74693E+03 4.22011E+02 6.37970E+02-1.60039E+03 9.66468E+02 2.35247E+02
 -1      1153-1.23583E+03 6.47607E+03-1.99892E+03 3.40490E+03-5.04171E+02-2.75979E+02
 -1      1154-2.28022E+03 1.09442E+04-2.82911E+03 4.57001E+03-4.36681E+02-6.42565E+02
 -1      1155-6.37895E+02 7.75095E+03-2.51956E+03 5.55638E+03-2.53416E+03 3.44123E+02
 -1      1156-2.30892E+02 5.34795E+02-1.15000E+02-1.23321E+02-1.21596E+02-9.77486E+01
 -1      1157-2.70694E+02 1.20804E+03-2.77914E+02-1.88954E+01-4.69263E+00-3.89822E+01
 -1      1158 1.18345E+02 1.12567E+03-4.97341E+02-3.15299E+02 3.62392E+01 7.42667E+01
 -1      1159 5.62095E+02 8.68313E+01-2.82121E+02-9.01393E+02 3.74383E+02-1.24271E+02
 -1      1160 1.61259E+03-9.15919E+02-2.75951E+02 1.72227E+03-1.19969E+03-1.09990E+03
 -1      1161 5.81453E+02 3.53211E+03-1.76933E+03 4.40629E+03-2.15818E+02-1.90602E+02
 -1      1162-2.16349E+03 8.88800E+03-3.26270E+03 4.90075E+03 8.12230E+00-1.89538E+01
 -1      1163-1.54351E+03 8.12277E+03-3.51810E+03 4.56971E+03-9.48058E+02-7.49445E+02
 -1      1164 6.33771E+00 7.32815E+03-3.77351E+03 5.04394E+03-3.90457E+02 7.30313E+02
 -1      1165-9.89302E+02 7.26882E+03-3.29366E+03 5.43594E+03-1.42788E+03 1.07667E+03
 -1      1166-2.05792E+03 7.73759E+03-2.81382E+03 6.11857E+03-1.51970E+03-7.29525E+02
 -1      1167-3.28874E+02 6.90212E+02-1.66140E+02 1.21408E+02 1.88179E+01-2.97071E+01
 -1      1168-2.93679E+02 8.28586E+02-2.91796E+02 1.38507E+02-4.77626E+01-8.67694E+00
 -1      1169-2.94669E+02 1.02494E+03-4.17453E+02 1.51385E+02-8.39103E+01 2.55973E+01
 -1      1170-3.84614E+02 1.37361E+03-5.57435E+02-3.42565E+01-5.55349E+01-9.43358E+00
 -1      1171-2.55710E+02 1.63786E+03-6.97415E+02-3.99015E+02-9.90748E+01 8.76042E+01
 -1      1172 8.55676E+01 6.74811E+02-3.39875E+02-1.02793E+03-1.33007E+02 3.70454E+02
 -1      1173 6.15138E+01 2.59182E+01 1.76643E+01-1.28577E+03 1.59869E+02 1.85314E+02
 -1      1174-1.36810E+03 7.59851E+03-1.17881E+03 1.65665E+03 9.82561E+02 6.12134E+02
 -1      1175 6.37280E+01 4.26604E+03-1.17417E+03 3.30408E+03-2.70993E+02 2.01610E+02
 -1      1176 4.48531E+02 4.31940E+02 4.31969E+01 5.38434E+03-6.79167E+02-5.90529E+02
 -1      1177-2.68394E+02 4.16448E+02 1.01429E-01 2.32930E+02 1.24573E+02 4.94403E+01
 -1      1178-2.68235E+02 7.70405E+02-1.21101E+02 4.18168E+02-1.92914E+01 4.29255E+01
 -1      1179-2.99908E+02 1.58453E+03-2.15464E+02 5.17995E+02-7.80232E+01-3.67697E+01
 -1      1180 3.41620E+02-2.79200E+02 9.05072E+02 7.57611E+02-2.47965E+03-4.90237E+01
 -1      1181-3.93217E+01-3.52204E+02 1.16511E+03 1.35806E+03-2.51382E+03 1.76503E+02
 -1      1182 3.72585E+02-6.39380E+02 1.42516E+03 1.88293E+03-2.54779E+03-4.52169E+00
 -1      1183 2.28297E+03-3.30358E+03 2.16269E+03 1.55316E+03-2.08188E+03 3.20117E+01
 -1      1184 3.38383E+03-6.96692E+03 2.90021E+03-4.43504E+02-3.27433E+03-5.38655E+02
 -1      1185 1.32362E+03-5.21295E+03 2.70383E+03-4.67935E+03-1.59665E+03-1.89417E+03
 -1      1186-1.47464E+03-2.24991E+03 2.50746E+03-4.70205E+03-9.72504E+02-7.25548E+02
 -1      1187-1.96472E+03-1.05875E+03 1.55059E+03-2.77007E+03-1.05171E+03-4.11996E+02
 -1      1188-1.28083E+03-4.92858E+02 5.93714E+02-1.05760E+03 3.36555E+02-4.25667E+02
 -1      1189-7.81197E+02-2.10350E+02 3.80028E+02-2.70645E+02-1.48695E+02 7.70126E+00
 -1      1190-3.35361E+02-6.67206E+01 1.66342E+02 3.70332E+02-5.71972E+01-2.89267E+01
 -1      1191-1.66682E+02 4.60689E+01 1.70797E+02 5.19858E+02-2.12719E+02 4.39360E+01
 -1      1192-1.90079E+02 7.76914E+01 1.75252E+02 6.51217E+02-2.31745E+02 1.01261E+01
 -1      1193-1.56352E+02 2.59251E+01 2.20870E+02 7.78680E+02-4.64030E+02-3.91677E+01
 -1      1194-1.04937E+02 1.44761E+01 2.66488E+02 9.00296E+02-7.65770E+02 4.69840E+01
 -1      1195 3.62092E+02-6.31018E+03 4.52533E+02 9.32481E+02 4.81555E+02-7.66012E+02
 -1      1196 1.06107E+02-7.66233E+03 7.12576E+02 9.89874E+02 8.28972E+02 4.56773E+02
 -1      1197 1.28976E+03-8.99856E+03 1.45010E+03-1.40444E+03 4.58606E+02-4.62976E+01
 -1      1198-7.31086E+02-3.33063E+03 1.25373E+03-2.47349E+03 3.75822E+02-4.43767E+02
 -1      1199-3.44416E+02-5.58736E+02 2.96856E+02-6.43303E+02-9.78456E+01 3.45110E+02
 -1      1200-1.30323E+02-2.74804E+02 8.31706E+01 1.95799E+02 1.50799E+01 6.81036E+01
 -1      1201-6.06775E+01-7.83113E+02 8.76257E+01 3.80588E+02 3.29981E+01-4.71803E+01
 -1      1202-1.04610E+01-1.53017E+03 1.33244E+02 5.08831E+02 9.44368E+00 1.36616E+02
 -1      1203 1.96031E-03-7.57772E+03-3.03938E-03 4.01937E+02-1.54891E+03 3.15797E-03
 -1      1204 6.65410E-04-8.88402E+03-2.15545E-03 1.72869E+02-2.31842E+03-5.04172E-03
 -1      1205-4.87061E-03-1.03955E+04-3.88973E-03 3.90394E+01-2.98151E+03 4.88536E-03
 -1      1206-5.31301E-03-1.02361E+04-4.00095E-03-4.03693E+01-3.24114E+03-4.03562E-03
 -1      1207 7.74993E-04-9.64549E+03-2.91426E-03-3.99156E+02-6.71240E+02 6.81072E-03
 -1      1208-3.82537E-03-6.94061E+03-5.00207E-03-5.39083E+02-1.49781E+03 5.81902E-03
 -1      1209-3.31061E-03-4.41136E+03-2.64280E-03-1.72308E+02-1.40834E+03-4.94243E-04
 -1      1210 5.05007E-03-2.20535E+03-2.86857E-03-1.02761E+02 1.29036E+01 4.74655E-04
 -1      1211 3.77026E-03-6.24615E+02-3.04892E-03-1.03549E+02-7.23190E+02 1.93806E-03
 -1      1212 1.86408E-03-3.53245E+02-7.03049E-04-3.13123E+01 1.61846E+01-2.33064E-04
 -1      1213 1.30228E-03-3.51823E+02-8.80261E-04 1.66632E+01-1.84247E+02 7.73571E-04
 -1      1214 3.91140E-04-6.65930E+02-3.15973E-04 3.09014E+01-1.71299E+02-5.94194E-04
 -1      1215 3.08184E-04-1.03922E+03-4.32251E-04 4.65683E+01-3.80346E+02 3.77241E-04
 -1      1216 4.19405E-04-1.55465E+03-4.08608E-04 5.00757E+01-5.17596E+02-7.33431E-04
 -1      1217 5.94175E-04-2.10512E+03-2.53544E-04 4.07299E+01-8.87233E+02 8.16324E-04
 -1      1218 2.97067E+03-2.20795E+03 4.73714E+02 4.90409E+02-1.54281E+03 3.89214E+03
 -1      1219 2.05191E+02 1.26770E+02 1.79395E+02 3.96819E+01-6.71426E+01-4.65699E+01
 -1      1220 8.90854E+01-1.02186E+02 1.26915E+02 8.82785E+01-1.02001E+02 1.94668E+02
 -1      1221 8.19422E+01-3.64725E+01-1.99138E+01-1.15673E+01-3.77518E+01-9.60524E+00
 -1      1222 3.49735E+01 5.53431E+01 5.81270E+01 6.77851E+00-3.38700E+01 1.09424E+02
 -1      1223 6.59045E+02-7.72801E+02-1.25497E+02 7.48610E+01-9.75647E+02-5.52805E+02
 -1      1224-2.66010E+02-2.72138E+00-2.00510E+02-7.93136E+00 4.58572E+02 1.16313E+02
 -1      1225 2.86787E+02-1.45931E+02-1.26552E+02 1.68012E+02 1.47889E+02-1.93542E+02
 -1      1226 9.48413E+01-1.66491E+01-2.73049E+01 6.51429E+01-3.56024E+01 2.48705E+01
 -1      1227 7.76689E+01-3.41230E+01-3.17735E+01 6.31523E+01-1.92832E+01-5.08626E+01
 -1      1228 7.47889E+01-8.63968E+01 2.07545E+01 6.08890E+01 3.08112E+01 2.20543E+01
 -1      1229-4.29092E+01-6.60274E+01-4.60355E+01 2.19809E+01-2.42048E+01-2.89830E+01
 -1      1230 7.78166E+01 2.60938E+01-6.18350E+01-5.64399E+01 1.86083E+01 1.83449E+02
 -1      1231 4.78803E+01-2.46985E+00 7.15053E+00 1.03212E+02-4.89672E+01 3.98000E+01
 -1      1232 9.81611E+01-4.68342E+01-1.99470E+01 6.52136E+01-1.25581E+01-1.24976E+01
 -1      1233 6.86431E+01-5.51107E+01-4.18326E+00 5.04623E+01-2.07106E+01-3.03935E+01
 -1      1234 2.46909E+01-5.94966E+01 1.61941E+01 3.71489E+01-3.14290E+01-3.60059E+01
 -1      1235 4.40884E+01-6.06455E+01-1.96129E+01 3.06290E+01-1.05015E+02-3.94208E+01
 -1      1236 1.12033E+02 2.73038E+01-1.64228E+02 1.18981E+02 1.78756E+02 2.14442E+02
 -1      1237 3.77613E+01-8.18062E+00-3.80669E-01 2.88244E+01 4.12502E+01 4.64235E+01
 -1      1238 9.15097E+01-6.17104E+01-1.24139E+01 5.23516E+01-1.26464E+01-1.77180E+01
 -1      1239 5.03837E+01-5.99948E+01 3.81316E+00 4.14873E+01-1.92649E+00-3.17082E+01
 -1      1240 2.76220E+01-7.43015E+01 1.41945E+01 2.46876E+01 1.12022E+00-1.64993E+01
 -1      1241 4.03058E+00-8.08382E+01 1.98717E+00 4.91435E+00-2.88917E+00 3.00572E+01
 -1      1242-2.98968E+02-1.07413E+02-2.81323E+02 3.90966E+01-3.59478E+02 1.33144E+02
 -1      1243 3.17612E+02-2.84521E+02-1.86142E+01 3.79369E+01-2.70023E+02-2.51355E+02
 -1      1244 4.96756E+01-1.20386E+01-1.95834E+01 7.89302E+01 4.77987E+01 1.01723E+01
 -1      1245 3.56735E+01-4.74754E+01-1.07864E+01 4.01331E+01 2.36554E+00-5.15977E+01
 -1      1246-2.86420E+01-7.63680E+01 8.41106E+01-2.57486E+01-2.35807E+01-4.92331E+01
 -1      1247 5.92687E+01-7.03341E+01-1.27381E+01 2.75198E+01 4.09604E+01 7.70164E+00
 -1      1248 3.75353E+03-3.76240E+03 6.13996E+01-2.12105E+00 3.88439E+03 3.98444E+03
 -1      1249 1.64946E+02 2.83703E+02 2.58764E+02-3.03923E+01 1.14649E+02-4.02937E+02
 -1      1250 2.61422E+01-1.47975E+02 1.66913E+02-7.83300E+01 2.12945E+02-1.03040E+01
 -1      1251 2.55177E+01 7.65684E+00-5.31737E+01 2.89832E+01 2.55719E+01-1.23251E+02
 -1      1252-2.82983E+01 4.96288E+01 1.73537E+00 2.95134E+01 3.85008E+01 8.57932E+00
 -1      1253-2.72797E+02-3.69690E+02-1.66989E+02-3.96265E+02 8.59569E+02 7.37811E+02
 -1      1254 1.49004E+03-1.28879E+03 3.17276E+02 2.05684E+02-9.52238E+02 2.39348E+03
 -1      1255 1.23229E+03-2.51040E+02-6.06425E+02 2.37848E+02-6.60401E+01 1.99032E+02
 -1      1256 5.39815E+02-4.67030E+01-2.23984E+00 1.60670E+02-4.28630E+01-3.82754E+01
 -1      1257 1.65924E+02-7.15331E+01-1.28264E+02-3.98756E+00 8.23577E+01 8.60422E+00
 -1      1258 2.06426E+02-6.19876E+01 2.67337E+01 2.51467E+01-7.24835E+01 1.21135E+02
 -1      1259 1.60276E+02-4.51775E+01-2.02679E+01 3.24820E+01-1.91773E+01 6.89254E+01
 -1      1260 1.29352E+02-3.63305E+01-3.91057E+01 2.78551E+01-1.85827E+01 3.17448E-01
 -1      1261 7.74219E+01-2.01443E+01-3.92248E+01 3.49727E+01 2.84300E+01 6.45486E+01
 -1      1262 1.02712E+02-8.25321E-01 1.77911E+01 1.03862E+01-2.83704E+01 8.91246E+01
 -1      1263 2.68468E+02-7.07162E+01-1.39822E+02 1.99434E+01-6.22372E+01 8.52409E+01
 -1      1264 3.61925E+02-4.01427E+02-7.53361E+01 3.64030E+01-6.06072E+02-3.35566E+02
 -1      1265 2.49002E+02-8.45747E+02 4.67914E+02 1.08387E+02 3.47633E+02 2.35903E+02
 -1      1266 1.76146E+02-6.69303E+01 4.51950E+01 2.41466E+02-1.72471E+02 1.65689E+02
 -1      1267 2.16596E+02-5.48213E+01-6.24339E+01 7.12145E+01-6.32308E+00-3.89769E+01
 -1      1268 1.27242E+02-4.30851E+01-2.13983E+01 6.35061E+01-1.07301E+01-7.25027E+00
 -1      1269 3.29520E+01-3.75611E+01 6.72315E-01 4.39419E+01-6.40606E+01-5.05619E+01
 -1      1270 7.03012E+01-3.35361E+02 1.64489E+02 5.88546E+01-5.95919E+01-3.10396E+01
 -1      1271-5.38200E+01-1.57153E+02-1.07372E+02 3.12201E+01 3.86177E+02 1.02570E+02
 -1      1272 7.79837E+01 7.72837E+01-5.25798E+01 1.05125E+02-8.31214E+01 2.32409E+02
 -1      1273 2.12422E+02-7.45824E+01-9.91052E+01 2.17350E+02 5.72834E+01-8.61443E+01
 -1      1274 1.78142E+02-6.85233E+01-3.90897E+01 1.69063E+02 2.29680E+00-4.26722E+01
 -1      1275 1.57679E+02-4.51183E+01-3.77933E+01 1.13785E+02-1.93531E+01 6.67320E+00
 -1      1276 1.45101E+02-4.71870E+01-3.35803E+01 9.84307E+01-2.16728E+01-3.45357E+00
 -1      1277 1.12764E+02-5.08117E+01-3.09691E+01 8.71296E+01-1.83008E+01-3.44460E+01
 -1      1278 8.73135E+01-6.27266E+01-5.31875E+00 7.82708E+01-1.22586E+01-7.21311E+00
 -1      1279 6.65009E+01-7.48566E+01 1.32488E+01 8.61911E+01 7.47005E+00-1.58946E+00
 -1      1280 3.90708E+01-5.84490E+01-1.28004E+01 8.31105E+01-5.73664E+01-5.82102E+01
 -1      1281 1.01831E+01-1.55323E+02 1.00254E+00 5.19033E+01-1.90326E+01-2.19404E+01
 -1      1282-2.16951E+01 4.67209E+01 2.90692E+01 9.73904E+01 2.11955E+02-8.91081E+01
 -1      1283 1.49203E+02-3.04694E+01-6.56233E+01 1.51853E+02 1.38414E+01 2.15037E+00
 -1      1284 1.48644E+02-5.68119E+01-3.39300E+01 1.06045E+02-1.15264E+01-1.05269E+01
 -1      1285 1.07492E+02-6.62642E+01-1.72275E+01 7.75005E+01-1.02842E+01-2.96599E+01
 -1      1286 5.77936E+01-8.11803E+01 7.70339E+00 7.45516E+01-5.87639E-01-1.98429E+01
 -1      1287 2.44145E+01-7.77674E+01 4.24749E+01 8.85922E+00-3.10140E+01 1.78984E+01
 -1      1288 5.80891E+00-5.11543E-01-2.11235E+01 4.15485E+01 2.99839E+01 1.08598E+02
 -1      1289 4.55009E+01-5.88865E+00-3.06795E+01 1.04638E+02 3.12602E+01 1.17784E+01
 -1      1290 9.15236E+01-1.08679E+01-1.92648E+01 1.38480E+02-2.45260E+01 3.19231E+01
 -1      1291 1.26169E+02-4.32743E+01-3.05249E+01 1.05380E+02-1.84948E+01-3.44151E+00
 -1      1292 1.46556E+02-6.82462E+01-2.88495E+01 9.67439E+01-1.25819E+01-1.00070E+01
 -1      1293 1.21269E+02-7.58849E+01-1.80540E+01 8.53590E+01-1.32883E+01-1.29084E+01
 -1      1294 1.01266E+02-8.20255E+01-7.10612E+00 7.41715E+01-1.59421E+01-2.49071E+01
 -1      1295 7.18008E+01-8.53184E+01 4.69400E+00 6.43704E+01-1.63629E+01-1.53824E+01
 -1      1296 4.50143E+01-9.13936E+01 1.78355E+01 6.04797E+01-2.14323E+01-2.62164E+01
 -1      1297 3.78633E+01-1.11514E+02 2.64416E+01 3.86046E+01-1.06824E+01-5.09421E+00
 -1      1298 3.06029E+01-1.09089E+02 1.13544E+01 1.53941E+01-7.43495E+01-2.47304E+01
 -1      1299 3.63648E+00-1.87754E+01-2.24533E+01 3.27164E+01 7.34374E+01 6.63186E+01
 -1      1300 8.36280E+01-3.90605E+01-1.59695E+01 9.97197E+01 2.23632E-01 3.94416E+01
 -1      1301 1.38060E+02-7.27991E+01-2.37309E+01 8.66273E+01-7.62313E+00-1.55241E+01
 -1      1302 8.81531E+01-8.72722E+01 8.11160E-02 6.72070E+01-9.22436E+00-2.63591E+01
 -1      1303 3.97963E+01-1.03509E+02 2.05882E+01 4.74839E+01-9.32159E+00-1.96041E+01
 -1      1304 3.00866E+01-1.14261E+02 2.09846E+01 1.51997E+01-3.90106E+01-1.86918E+00
 -1      1305 2.00110E+01-4.36822E+01-6.97929E+01 1.53920E+01 1.08636E+02 1.39423E+02
 -1      1306 5.14296E+01-5.64862E+01-4.75243E+00 3.33714E+01-5.03933E+01 1.01131E+01
 -1      1307 8.74373E+01-3.28061E+01-1.83458E+01 6.41130E+01 1.30897E+01 2.97145E+01
 -1      1308 1.18317E+02-6.32622E+01-2.12555E+01 7.89174E+01-3.74714E+00-2.82003E+00
 -1      1309 1.34268E+02-8.96863E+01-1.69255E+01 7.77504E+01-7.26743E+00-1.37594E+01
 -1      1310 1.01724E+02-9.00700E+01-5.43733E+00 6.95386E+01-7.69719E+00-1.40555E+01
 -1      1311 7.48989E+01-9.10594E+01 5.22508E+00 6.08804E+01-3.49091E+00-2.72905E+01
 -1      1312 5.12519E+01-9.87418E+01 1.82681E+01 4.69039E+01-4.56435E+00-1.43898E+01
 -1      1313 3.28306E+01-1.10321E+02 2.62797E+01 3.35812E+01 2.37538E-03-1.35384E+01
 -1      1314 3.22011E+01-1.28812E+02 3.62882E+01 2.26193E+01-1.41470E+01-9.46818E+00
 -1      1315 3.08996E+01-1.29007E+02 2.16013E+01 1.38369E+01-1.31396E+01 1.29758E+01
 -1      1316 1.03453E+01-2.04167E+00 8.82399E+01-5.56257E+01-1.12687E+02-1.18274E+02
 -1      1317 1.52028E+02-8.05919E+01-4.58465E+01 7.94187E+01-4.52782E+01-5.13035E+00
 -1      1318 1.14588E+02-7.88339E+01-1.14898E+01 7.20500E+01 2.13729E+00-1.37890E+01
 -1      1319 6.15347E+01-7.86801E+01 4.32410E+00 5.60129E+01-5.89139E+00-3.13514E+01
 -1      1320 1.40835E+01-9.82389E+01 3.68456E+01 1.30598E+01-1.05598E+01-1.77264E+01
 -1      1321 4.02719E+01-1.12537E+02 4.80234E+01 4.77555E+00-4.50266E+00-1.47830E+00
 -1      1322-2.36975E+01-4.40129E+02-9.07450E+01 1.00371E+02-3.04576E+02 1.05771E+02
 -1      1323 9.66280E+01-1.01998E+01-8.86221E+01 1.30909E+02 1.65878E+02 2.90913E+02
 -1      1324 2.11975E+02-1.61701E+02-2.29211E+01 5.52111E+01-1.21626E+02-1.07875E+02
 -1      1325 1.42224E+02-1.16556E+02 7.03013E+00 5.30891E+01-1.51147E+01-5.34099E+01
 -1      1326 9.93080E+01-5.92753E+01-1.45236E+01 9.66490E+01 2.63079E+01-5.90661E+00
 -1      1327 8.13636E+01-5.80163E+01-9.32028E+00 8.02952E+01 2.30840E+01-5.32514E+00
 -1      1328 4.32150E+01-6.09495E+01-1.18297E+00 5.96227E+01 9.19933E+00-3.49355E+01
 -1      1329 1.53955E+01-6.79885E+01 2.39860E+01 2.65420E+01 6.26244E+00-2.44124E+01
 -1      1330-1.20378E+01-8.17433E+01 6.31774E+01-1.13899E+01-1.26217E+01-3.60996E+01
 -1      1331 1.43068E+01-1.10700E+02 1.08360E+01-2.19593E+01 3.99997E+01 1.83168E+01
 -1      1332 3.85212E+01-1.50541E+02 3.48673E+01-2.01542E+01 4.31664E+01 1.81030E+01
 -1      1333 3.58164E+02-1.47667E+03 7.70849E+02 9.11596E+01-1.18480E+02 2.36103E+02
 -1      1334 9.07215E+01-8.89312E+01 6.42355E+01-6.45004E+01 2.91263E+02 1.67539E+02
 -1      1335 1.46712E+02-5.41689E+01-3.23548E+01 7.93361E+01 1.33360E+00-7.29889E+01
 -1      1336 1.43019E+01-2.83177E+01 1.55705E+01 4.38645E+01 9.75558E+00-3.56960E+01
 -1      1337-5.29936E+01-2.43310E+01 8.77438E-01-1.39131E+01 3.11151E+01 3.43460E+00
 -1      1338 4.05686E-02-1.53914E+02 6.02390E+01-9.24905E+01 1.03400E+02 4.19955E+01
 -1      1339 2.01474E+03-2.02115E+03 3.57164E+01-7.17564E+00 2.38276E+03 2.46197E+03
 -1      1340 1.52003E+03-3.65276E+02-7.83595E+02-9.40978E+01 1.94944E+02-1.08478E+02
 -1      1341 5.26721E+02-5.25036E+00 6.45162E+01-8.09088E+01 9.13535E+01-3.39998E+02
 -1      1342 8.90530E+01-4.20918E+01-1.08292E+02 9.49561E+01-1.26472E+02-2.07017E+02
 -1      1343 1.29924E+02-4.81728E+01 5.87969E+01 3.61826E+01 1.38768E+02-4.02841E+01
 -1      1344 7.32519E+01-2.01517E+01-3.55222E+00 2.33907E+01 3.65793E+01-6.68300E+01
 -1      1345 1.90508E+01-1.15885E+00-3.83939E+01 2.48317E+01 6.78135E+00-1.05019E+02
 -1      1346-1.37417E+01 1.71850E+01 1.01214E+01 1.38053E+01-4.90492E+00-4.33938E+01
 -1      1347-8.08304E+01 2.78881E+01 2.98461E+01-7.65243E+00 4.03223E+01 1.33698E+01
 -1      1348-9.01539E+01-1.14108E+01 3.36203E+01-8.61050E+01 5.78681E+01 8.98424E+01
 -1      1349-4.77061E+01-9.82409E+01-1.48555E+02-1.47291E+02 4.98840E+02 4.23776E+02
 -1      1350 1.27698E+03-1.08084E+03 5.41978E+01 2.34695E+02-3.53882E+02 9.44390E+02
 -1      1351 6.76401E+02-8.82536E+01-1.74115E+02 2.22822E+02-2.63219E+01-9.58355E+01
 -1      1352 2.65278E+02-7.51351E+01-8.36028E+01 4.07870E+01-1.55354E+01 1.25470E+01
 -1      1353 1.62401E+02-4.59712E+01-5.79176E+01 4.55008E+01-3.71697E+00 1.06065E+01
 -1      1354 1.27539E+02-1.22994E+01-2.72061E+01 2.88328E+01-1.60414E+01 6.08886E+01
 -1      1355 3.01758E+02-3.45370E+02-1.39449E+01 4.84913E+01-2.44266E+02-1.23622E+02
 -1      1356-2.70133E+01-1.76121E+02 1.18140E+01 9.46731E+01 2.64372E+02 5.99249E+01
 -1      1357 2.50397E+02-7.40243E+01-7.59978E+01 2.80293E+02 5.76890E+00 2.51580E+01
 -1      1358 2.17556E+02-6.35346E+01-4.78163E+01 1.51101E+02-1.00043E+01 1.07949E+00
 -1      1359 1.52258E+02-6.72360E+01-3.09479E+01 1.14968E+02-9.55484E+00-1.47486E+01
 -1      1360 8.05384E+01-9.08187E+01 6.10634E+00 1.11345E+02-1.47863E+01-1.26067E+01
 -1      1361 2.38067E+01-1.93532E+02 4.95959E+01 7.20611E+01 6.61109E+00-1.29623E+01
 -1      1362 2.51216E+00 1.78003E+01 9.61270E+00 7.98015E+01 5.06382E+01 2.82125E+01
 -1      1363 1.25612E+02-2.16296E+01-4.55912E+01 1.79509E+02-7.19488E+00 1.59502E+01
 -1      1364 1.92134E+02-8.95653E+01-3.92192E+01 1.27886E+02-6.75630E+00-6.36581E+00
 -1      1365 1.33231E+02-1.08107E+02-1.00168E+01 9.79039E+01-9.04776E+00-1.50527E+01
 -1      1366 6.03558E+01-1.23385E+02 2.05956E+01 7.91286E+01-1.12324E+01-1.34920E+01
 -1      1367 3.80839E+01-1.42824E+02 4.31829E+01 2.58304E+01-2.89256E+01-6.15699E+00
 -1      1368 1.90486E+01-3.90072E+01 2.38440E+01 1.39784E+01-3.05159E+00 3.57437E+01
 -1      1369 1.22462E+02-5.46605E+01-3.78599E+01 8.75324E+01 3.06141E+00 1.57191E+01
 -1      1370 1.75872E+02-1.16795E+02-2.19330E+01 1.03249E+02-5.93984E+00-9.41120E+00
 -1      1371 9.94600E+01-1.20506E+02 7.77650E+00 8.07934E+01-9.64236E-01-1.65015E+01
 -1      1372 4.21179E+01-1.47457E+02 3.81770E+01 4.46323E+01-2.26641E+00-1.00735E+01
 -1      1373 4.21771E+01-1.67624E+02 5.20397E+01 1.74616E+01-1.78962E+01 1.28171E+00
 -1      1374 2.02295E+01-5.28684E+02 1.08258E+02 1.04412E+02-2.62303E+02 6.49743E+01
 -1      1375 2.40529E+02-1.73273E+02-2.74980E+01 7.21516E+01 2.70859E+00 1.05543E+01
 -1      1376 1.42063E+02-8.60223E+01-9.15487E+00 1.22187E+02 1.03916E+01-7.10934E+00
 -1      1377 5.69769E+01-8.00333E+01 7.40162E+00 7.72567E+01 7.41630E+00-1.86167E+01
 -1      1378-1.34635E+01-1.05127E+02 4.82665E+01-1.36461E+01 1.11605E+01-6.57945E+00
 -1      1379 4.45522E+01-1.99648E+02 6.26294E+01-3.98100E+01 1.32670E+01 8.75813E+00
 -1      1380 1.71474E+03-1.71015E+03 8.57944E+00-1.30946E+01 9.15594E+02 9.63912E+02
 -1      1381 6.51478E+02-5.58255E+01-1.43935E+02-7.35312E+01 5.61091E+01-2.84238E+02
 -1      1382 1.64242E+02-5.32878E+01-5.11547E+01 6.99707E+01 3.09481E+01-8.75838E+01
 -1      1383 1.34869E+01-3.26212E+00-1.45615E+01 3.70651E+01 4.06453E+00-6.76483E+01
 -1      1384-1.11689E+02 2.65327E+01 3.82025E+01-2.33222E+01 1.74255E+01-8.83235E+00
 -1      1385-3.68290E+01-7.94605E+01-1.97262E+01-1.35547E+02 1.82335E+02 1.52071E+02
 -1      1386 1.12391E+03-8.98132E+02 4.21674E+00 2.91456E+02-3.03712E+02 5.61085E+02
 -1      1387 1.18239E+03-2.13853E+02-4.68037E+02 3.55391E+02 3.57258E+01 5.85791E+01
 -1      1388 8.34154E+02-1.21301E+02-1.93603E+02 2.77177E+02-2.39671E+01 1.74180E+00
 -1      1389 3.58651E+02-1.31609E+02-9.50821E+01 7.66379E+01 1.55992E+01 6.84161E+01
 -1      1390 3.18933E+02-8.97307E+01-1.03618E+02 6.19604E+01-1.40021E+01-3.28921E+01
 -1      1391 2.74772E+02-7.00149E+01-5.97010E+01 6.34043E+01-1.98269E+00 1.63448E+01
 -1      1392 1.95931E+02-5.49681E+01-7.01758E+01 6.27586E+01 9.62124E-01 1.13530E+01
 -1      1393 1.40255E+02-4.04741E+01-4.10775E+01 6.38830E+01-4.12695E+00 1.53777E+01
 -1      1394 1.53481E+02-1.98026E+01-3.37377E+01 5.48595E+01-2.98145E+01 1.65893E+01
 -1      1395 2.33546E+02-6.78376E+01-8.53199E+01 6.08173E+01 1.93778E+01 2.31306E+01
 -1      1396 2.50122E+02-3.02804E+02-1.36292E+00 6.64024E+01-1.47898E+02-9.68495E+01
 -1      1397 2.31592E+02-6.71792E+02 2.50018E+02 2.49939E+02 8.21678E+01-7.74243E+01
 -1      1398 4.18899E+02-8.42414E+01-1.03945E+02 3.42038E+02-4.01652E+01 4.39869E+01
 -1      1399 3.23460E+02-9.03917E+01-1.08445E+02 1.36815E+02-2.67719E+00-4.08468E+01
 -1      1400 2.00123E+02-6.58261E+01-5.45664E+01 1.09769E+02 2.39073E+00-8.07980E+00
 -1      1401 8.64609E+01-5.43903E+01-1.51387E+01 1.02004E+02-2.22403E+01-2.85202E+01
 -1      1402 6.11057E+01-3.21348E+02 1.25569E+02 9.61070E+01-1.56830E+01 6.16508E+00
 -1      1403-1.38565E+01-1.96506E+02 1.29254E+01 1.85001E+02 9.50475E+01 1.15269E+02
 -1      1404 1.08852E+02 1.28022E+01-3.88806E+01 2.83211E+02-7.30395E+01 8.17090E+01
 -1      1405 2.85239E+02-7.31307E+01-9.57991E+01 3.46061E+02 5.22100E+01-5.42219E+00
 -1      1406 3.14290E+02-9.15089E+01-9.45552E+01 2.42336E+02 2.04280E+01-2.06328E+01
 -1      1407 2.80011E+02-8.16079E+01-6.51747E+01 1.88739E+02-1.27524E+01 2.18959E+01
 -1      1408 2.36318E+02-8.23687E+01-6.09890E+01 1.63297E+02-7.90946E+00 9.71183E+00
 -1      1409 1.91778E+02-8.34801E+01-3.99829E+01 1.43718E+02-1.08383E+00-7.72186E+00
 -1      1410 1.46343E+02-9.47632E+01-1.98869E+01 1.34464E+02-4.25405E-01 1.36021E+01
 -1      1411 9.38348E+01-1.05597E+02 7.63010E+00 1.37600E+02-2.99413E+00 8.73368E+00
 -1      1412 5.50457E+01-1.29195E+02 2.26826E+01 1.21647E+02-1.32570E+01-1.03684E+01
 -1      1413 3.36743E+01-2.35930E+02 5.57917E+01 9.03167E+01-8.68707E+00-1.35818E+01
 -1      1414 1.85242E+00 5.43273E+01-1.42746E+01 1.65160E+02 1.75746E+01 2.23952E+01
 -1      1415 2.21146E+02-6.52003E+01-6.40387E+01 2.70787E+02 3.32729E+01-1.55710E+00
 -1      1416 2.53583E+02-9.11316E+01-5.92679E+01 1.68923E+02-5.05755E+00 7.64380E+00
 -1      1417 1.79264E+02-1.10099E+02-2.66905E+01 1.29030E+02 2.44824E+00-8.77019E+00
 -1      1418 8.80717E+01-1.37540E+02 2.10557E+01 1.12142E+02 4.83338E+00 6.14138E-01
 -1      1419 4.59392E+01-1.47607E+02 4.08275E+01 4.23474E+01-2.03190E+01 9.54596E-01
 -1      1420 1.63770E+00 4.43451E+01 8.90249E-01 1.15167E+02 4.40519E+01 7.17703E+00
 -1      1421 7.18828E+01 1.61656E+01-2.60698E+01 1.80525E+02 7.52679E+00-9.64842E+00
 -1      1422 1.61297E+02-3.43453E+01-5.41883E+01 2.22345E+02-9.87637E+00 1.14896E+01
 -1      1423 2.13605E+02-7.87374E+01-5.19267E+01 1.79922E+02-7.87521E+00-1.74262E+00
 -1      1424 2.38636E+02-1.10735E+02-4.99388E+01 1.58727E+02 1.91329E+00-3.86355E+00
 -1      1425 2.02998E+02-1.23390E+02-2.99853E+01 1.39679E+02 3.89285E-01 2.16725E-01
 -1      1426 1.65375E+02-1.34391E+02-1.22612E+01 1.21506E+02-2.46289E+00-4.99712E+00
 -1      1427 1.17239E+02-1.42997E+02 9.24885E+00 1.04973E+02-6.46134E+00 5.62170E-01
 -1      1428 7.52214E+01-1.55969E+02 2.80742E+01 9.79642E+01-1.05985E+01-7.54110E+00
 -1      1429 5.83381E+01-1.74618E+02 4.96910E+01 7.08067E+01 7.57949E+00 9.07628E-01
 -1      1430 4.53282E+01-1.75669E+02 5.48265E+01 3.81572E+01-3.51200E+00-3.70887E+00
 -1      1431 2.18433E+00-1.02508E+01-2.87956E+01 6.82049E+01 1.67261E+01 7.95872E+00
 -1      1432 1.52090E+02-5.49300E+01-3.44583E+01 1.64200E+02 8.10970E+00 1.60287E+01
 -1      1433 2.23592E+02-1.23942E+02-4.07275E+01 1.42430E+02-6.58511E-01-7.14879E+00
 -1      1434 1.45039E+02-1.44726E+02-2.80558E-01 1.10356E+02 1.30142E+00-5.11435E+00
 -1      1435 6.45199E+01-1.71189E+02 4.10825E+01 7.72119E+01-3.56695E+00-5.69625E+00
 -1      1436 4.91231E+01-1.99564E+02 5.17390E+01 3.14710E+01-6.59588E+00-1.72085E+00
 -1      1437 2.16335E+01-2.19241E+01 1.93473E+01 2.02449E+01-4.52934E+01 1.86055E+01
 -1      1438 8.58113E+01-5.10655E+01 5.41055E+00 6.96498E+01-4.37249E+01-5.30697E+00
 -1      1439 1.59050E+02-8.00370E+01-4.22770E+01 1.10574E+02 2.48862E+01 1.88730E+01
 -1      1440 1.98327E+02-1.15253E+02-3.42991E+01 1.20635E+02 8.88832E+00 4.78467E+00
 -1      1441 2.17863E+02-1.43877E+02-2.77970E+01 1.28666E+02-9.05642E+00-5.63536E+00
 -1      1442 1.71205E+02-1.46586E+02-8.26482E+00 1.16026E+02-3.85603E+00 1.70811E+00
 -1      1443 1.24238E+02-1.50837E+02 1.04107E+01 1.00717E+02 4.19913E+00-4.59385E+00
 -1      1444 8.24520E+01-1.64322E+02 2.98970E+01 7.68448E+01 2.00134E+00 3.03793E+00
 -1      1445 5.01553E+01-1.84610E+02 4.91290E+01 5.57545E+01 8.08831E-01-2.84093E+00
 -1      1446 5.02280E+01-2.06426E+02 6.39726E+01 3.69462E+01-2.44149E+00-2.27559E+00
 -1      1447 5.17139E+01-2.08216E+02 6.78559E+01 2.15368E+01-1.42667E+01-4.17649E+00
 -1      1448 5.68832E+01-7.12308E+01 1.56175E+01-2.30325E+01 5.17560E+01 8.71889E+00
 -1      1449 2.18233E+02-1.58515E+02-2.07481E+01 8.85843E+01-3.39959E+01-1.52480E+01
 -1      1450 1.99895E+02-1.29903E+02-2.47856E+01 1.28155E+02 5.33361E+00 5.02366E+00
 -1      1451 1.01265E+02-1.34216E+02 1.18873E+01 9.27283E+01-3.93664E+00-9.47383E+00
 -1      1452 2.32737E+01-1.64025E+02 5.78650E+01 2.49482E+01-3.21554E+00 4.61714E-01
 -1      1453 5.76420E+01-2.10887E+02 5.89174E+01 8.37444E-01 5.60874E+00 8.78663E+00
 -1      1454 4.83430E+01-6.31488E+02 1.15601E+02 8.35237E+01-7.13223E+01 1.03262E+02
 -1      1455 1.27077E+02-1.91641E+02 1.32855E+01 9.70288E+01 7.71662E+01 8.69406E+01
 -1      1456 2.66552E+02-1.82621E+02-3.44896E+01 8.97049E+01-4.73765E+01-4.34707E+01
 -1      1457 2.65030E+02-1.60245E+02-4.42168E+01 1.28072E+02-1.95505E+01-4.35828E+01
 -1      1458 1.89138E+02-1.13953E+02-1.83298E+01 1.49535E+02 1.63252E+01 1.08738E+01
 -1      1459 1.30046E+02-1.04111E+02-1.18235E+01 1.25698E+02 9.40276E+00 2.27196E+00
 -1      1460 7.00236E+01-9.95579E+01 1.09009E+01 9.54711E+01 1.81890E+00-1.34560E+01
 -1      1461 2.09098E+01-1.08691E+02 3.72666E+01 4.66356E+01 5.80715E+00-2.46007E+00
 -1      1462-1.41665E+01-1.27757E+02 6.15552E+01-1.57170E+01 9.63802E+00 1.31607E+00
 -1      1463 1.83831E+01-1.93956E+02 6.05185E+01-4.84621E+01 5.26483E+00 7.94142E+00
 -1      1464 5.13490E+01-2.55810E+02 7.60041E+01-6.23233E+01 1.52622E+01 2.29371E+01
 -1      1465 3.22066E+02-1.28497E+03 4.98445E+02 6.98721E+01-1.60828E+01-7.92229E+01
 -1      1466 3.29567E+02-1.13442E+02-6.80671E+01 1.58727E+01 9.12698E+01 8.56382E+01
 -1      1467 2.02381E+02-9.10378E+01-6.10368E+01 1.29989E+02-4.95470E+00-3.54237E+01
 -1      1468 2.37984E+01-4.32207E+01 9.15112E+00 7.66286E+01-2.90755E+00-6.58494E+00
 -1      1469-9.66808E+01-4.31684E+01 4.45416E+01-3.70490E+01 7.82609E+00-4.83217E+00
 -1      1470-2.36474E+00-1.84764E+02 7.53759E+01-1.22834E+02 2.41948E+01-9.80019E+00
 -1      1471 1.47985E+03-1.45842E+03-3.40949E-01-2.08437E+01 6.16632E+02 6.36555E+02
 -1      1472 1.37781E+03-3.20753E+02-5.36459E+02-7.78708E+01-8.90413E+01-1.91177E+01
 -1      1473 7.96270E+02-9.09822E+01-1.62589E+02-4.09633E+01 9.56414E+01-8.01547E+01
 -1      1474 2.35573E+02-1.04353E+02-6.09232E+01 1.11999E+02-9.74476E-01 3.24531E+01
 -1      1475 1.88234E+02-6.26601E+01-5.72876E+01 1.00989E+02 1.39817E+01-8.05206E+01
 -1      1476 1.11892E+02-2.95519E+01-1.31178E+01 7.65777E+01 3.70791E+00-1.92927E+01
 -1      1477 7.82872E+00-4.60018E+00-1.44710E+01 5.29562E+01 3.56502E-01-3.35551E+01
 -1      1478-4.89032E+01 1.61249E+01 1.10212E+01 2.30789E+01 1.47967E+01 1.02621E+01
 -1      1479-1.51363E+02 2.71371E+01 4.69295E+01-4.25170E+01 3.03429E+01-7.23032E-01
 -1      1480-1.14925E+02-1.51048E+01 5.26831E+01-1.11793E+02-6.84641E+00 2.29774E+01
 -1      1481-3.90218E+01-7.41714E+01-1.36493E+00-1.38615E+02 8.65037E+01 6.72134E+01
 -3
    1PSTEP                        32           1           1          
    1PGM                1.000000E+00                                  
    1PGK                1.952310E+12                                  
    1PHID                         -1                                  
    1PSUBC                         0                                  
    1PMODE                         8                                  
  100CL  108 222379.3981        1481                     2    8MODAL      1
 -4  ERROR       1    1
 -5  STR(%)      1    1    0    0
 -1         1 2.24554E+01
 -1         2 2.24554E+01
 -1         3 2.24554E+01
 -1         4 1.70041E+01
 -1         5 1.15528E+01
 -1         6 1.07660E+01
 -1         7 9.97912E+00
 -1         8 1.64855E+01
 -1         9 2.29918E+01
 -1        10 2.29918E+01
 -1        11 2.29918E+01
 -1        12 2.24554E+01
 -1        13 2.24554E+01
 -1        14 1.15528E+01
 -1        15 1.16486E+01
 -1        16 2.29918E+01
 -1        17 2.29918E+01
 -1        18 2.24554E+01
 -1        19 2.24554E+01
 -1        20 2.24554E+01
 -1        21 1.70041E+01
 -1        22 1.15528E+01
 -1        23 1.24354E+01
 -1        24 1.33180E+01
 -1        25 1.81549E+01
 -1        26 2.29918E+01
 -1        27 2.29918E+01
 -1        28 2.29918E+01
 -1        29 1.95080E+01
 -1        30 1.95080E+01
 -1        31 1.12229E+01
 -1        32 1.33180E+01
 -1        33 1.81549E+01
 -1        34 1.72249E+01
 -1        35 1.65606E+01
 -1        36 1.65606E+01
 -1        37 1.65606E+01
 -1        38 1.37267E+01
 -1        39 1.08929E+01
 -1        40 1.21055E+01
 -1        41 1.33180E+01
 -1        42 1.33180E+01
 -1        43 1.33180E+01
 -1        44 1.23880E+01
 -1        45 1.14579E+01
 -1        46 1.77789E+01
 -1        47 1.77789E+01
 -1        48 1.17143E+01
 -1        49 1.29268E+01
 -1        50 1.08561E+01
 -1        51 9.40046E+00
 -1        52 1.89972E+01
 -1        53 1.89972E+01
 -1        54 1.89972E+01
 -1        55 1.57665E+01
 -1        56 1.25357E+01
 -1        57 1.25357E+01
 -1        58 1.25357E+01
 -1        59 1.04649E+01
 -1        60 8.39411E+00
 -1        61 7.86855E+00
 -1        62 7.34298E+00
 -1        63 2.16542E+01
 -1        64 2.16542E+01
 -1        65 1.33180E+01
 -1        66 1.33180E+01
 -1        67 1.09099E+01
 -1        68 1.03843E+01
 -1        69 2.43111E+01
 -1        70 2.43111E+01
 -1        71 2.43111E+01
 -1        72 1.92057E+01
 -1        73 1.41003E+01
 -1        74 1.41003E+01
 -1        75 1.41003E+01
 -1        76 1.37630E+01
 -1        77 1.34257E+01
 -1        78 1.34257E+01
 -1        79 1.34257E+01
 -1        80 2.43111E+01
 -1        81 2.43111E+01
 -1        82 1.41003E+01
 -1        83 1.41003E+01
 -1        84 1.34257E+01
 -1        85 1.34257E+01
 -1        86 2.43111E+01
 -1        87 2.43111E+01
 -1        88 2.43111E+01
 -1        89 1.92057E+01
 -1        90 1.41003E+01
 -1        91 1.41003E+01
 -1        92 1.41003E+01
 -1        93 1.37630E+01
 -1        94 1.34257E+01
 -1        95 1.34257E+01
 -1        96 1.34257E+01
 -1        97 2.24554E+01
 -1        98 2.24554E+01
 -1        99 1.64491E+01
 -1       100 1.64008E+01
 -1       101 2.29918E+01
 -1       102 2.29918E+01
 -1       103 2.48897E+01
 -1       104 2.48897E+01
 -1       105 1.64491E+01
 -1       106 1.80702E+01
 -1       107 2.29918E+01
 -1       108 2.29918E+01
 -1       109 2.19423E+01
 -1       110 2.19423E+01
 -1       111 1.33634E+01
 -1       112 1.38636E+01
 -1       113 1.59634E+01
 -1       114 1.50334E+01
 -1       115 2.15921E+01
 -1       116 2.15921E+01
 -1       117 1.70676E+01
 -1       118 1.63918E+01
 -1       119 1.43210E+01
 -1       120 1.15624E+01
 -1       121 2.43111E+01
 -1       122 2.43111E+01
 -1       123 1.91293E+01
 -1       124 1.71741E+01
 -1       125 1.78079E+01
 -1       126 1.78079E+01
 -1       127 2.43111E+01
 -1       128 2.43111E+01
 -1       129 1.91293E+01
 -1       130 1.51141E+01
 -1       131 1.78079E+01
 -1       132 1.78079E+01
 -1       133 2.24554E+01
 -1       134 2.24554E+01
 -1       135 2.24554E+01
 -1       136 2.19004E+01
 -1       137 2.13454E+01
 -1       138 2.20839E+01
 -1       139 2.28225E+01
 -1       140 2.29072E+01
 -1       141 2.29918E+01
 -1       142 2.29918E+01
 -1       143 2.29918E+01
 -1       144 2.48897E+01
 -1       145 2.48897E+01
 -1       146 2.13454E+01
 -1       147 2.28225E+01
 -1       148 2.29918E+01
 -1       149 2.29918E+01
 -1       150 2.73240E+01
 -1       151 2.73240E+01
 -1       152 2.73240E+01
 -1       153 2.43347E+01
 -1       154 2.13454E+01
 -1       155 2.20839E+01
 -1       156 2.28225E+01
 -1       157 2.29072E+01
 -1       158 2.29918E+01
 -1       159 2.29918E+01
 -1       160 2.29918E+01
 -1       161 2.73240E+01
 -1       162 2.73240E+01
 -1       163 1.85896E+01
 -1       164 1.86158E+01
 -1       165 2.08003E+01
 -1       166 2.08003E+01
 -1       167 2.73240E+01
 -1       168 2.73240E+01
 -1       169 2.73240E+01
 -1       170 2.15789E+01
 -1       171 1.58338E+01
 -1       172 1.51215E+01
 -1       173 1.44092E+01
 -1       174 1.65090E+01
 -1       175 1.86088E+01
 -1       176 1.86088E+01
 -1       177 1.86088E+01
 -1       178 2.57555E+01
 -1       179 2.57555E+01
 -1       180 1.87167E+01
 -1       181 1.73285E+01
 -1       182 1.94283E+01
 -1       183 1.71953E+01
 -1       184 2.41869E+01
 -1       185 2.41869E+01
 -1       186 2.41869E+01
 -1       187 2.28932E+01
 -1       188 2.15996E+01
 -1       189 2.09237E+01
 -1       190 2.02478E+01
 -1       191 2.02478E+01
 -1       192 2.02478E+01
 -1       193 1.80148E+01
 -1       194 1.57818E+01
 -1       195 2.42490E+01
 -1       196 2.42490E+01
 -1       197 2.28789E+01
 -1       198 2.02478E+01
 -1       199 2.12190E+01
 -1       200 1.89860E+01
 -1       201 2.43111E+01
 -1       202 2.43111E+01
 -1       203 2.43111E+01
 -1       204 2.42347E+01
 -1       205 2.41583E+01
 -1       206 2.22031E+01
 -1       207 2.02478E+01
 -1       208 2.12190E+01
 -1       209 2.21901E+01
 -1       210 2.21901E+01
 -1       211 2.21901E+01
 -1       212 2.43111E+01
 -1       213 2.43111E+01
 -1       214 2.41583E+01
 -1       215 1.81878E+01
 -1       216 2.21901E+01
 -1       217 2.21901E+01
 -1       218 2.43111E+01
 -1       219 2.43111E+01
 -1       220 2.43111E+01
 -1       221 2.42347E+01
 -1       222 2.41583E+01
 -1       223 2.01431E+01
 -1       224 1.61278E+01
 -1       225 1.91590E+01
 -1       226 2.21901E+01
 -1       227 2.21901E+01
 -1       228 2.21901E+01
 -1       229 2.23678E+01
 -1       230 2.25982E+01
 -1       231 2.26613E+01
 -1       232 2.33998E+01
 -1       233 2.34173E+01
 -1       234 2.26250E+01
 -1       235 2.84283E+01
 -1       236 2.84283E+01
 -1       237 2.26613E+01
 -1       238 2.33998E+01
 -1       239 2.34173E+01
 -1       240 2.26250E+01
 -1       241 2.84283E+01
 -1       242 2.84283E+01
 -1       243 1.95140E+01
 -1       244 1.66065E+01
 -1       245 2.00288E+01
 -1       246 2.00288E+01
 -1       247 2.51852E+01
 -1       248 2.51852E+01
 -1       249 2.18761E+01
 -1       250 2.02478E+01
 -1       251 2.13753E+01
 -1       252 1.91423E+01
 -1       253 2.49681E+01
 -1       254 2.49681E+01
 -1       255 2.48531E+01
 -1       256 2.11817E+01
 -1       257 2.23465E+01
 -1       258 2.23465E+01
 -1       259 2.32560E+01
 -1       260 2.49295E+01
 -1       261 2.48531E+01
 -1       262 1.91217E+01
 -1       263 2.21901E+01
 -1       264 2.28539E+01
 -1       265 3.11116E+01
 -1       266 3.12780E+01
 -1       267 3.14443E+01
 -1       268 3.14443E+01
 -1       269 3.14443E+01
 -1       270 3.13223E+01
 -1       271 3.12003E+01
 -1       272 3.11948E+01
 -1       273 3.11894E+01
 -1       274 3.09973E+01
 -1       275 3.08053E+01
 -1       276 3.07701E+01
 -1       277 3.07349E+01
 -1       278 3.06805E+01
 -1       279 3.06261E+01
 -1       280 3.11116E+01
 -1       281 3.14443E+01
 -1       282 3.14443E+01
 -1       283 3.12003E+01
 -1       284 3.11894E+01
 -1       285 3.08053E+01
 -1       286 3.07349E+01
 -1       287 3.06261E+01
 -1       288 3.11116E+01
 -1       289 3.12780E+01
 -1       290 3.14443E+01
 -1       291 3.14443E+01
 -1       292 3.14443E+01
 -1       293 3.13223E+01
 -1       294 3.12003E+01
 -1       295 3.11948E+01
 -1       296 3.11894E+01
 -1       297 3.09973E+01
 -1       298 3.08053E+01
 -1       299 3.07701E+01
 -1       300 3.07349E+01
 -1       301 3.06805E+01
 -1       302 3.06261E+01
 -1       303 2.94046E+01
 -1       304 2.95710E+01
 -1       305 2.87746E+01
 -1       306 2.62039E+01
 -1       307 2.61654E+01
 -1       308 2.65955E+01
 -1       309 2.65603E+01
 -1       310 2.62315E+01
 -1       311 2.13347E+01
 -1       312 2.45162E+01
 -1       313 2.76976E+01
 -1       314 2.76976E+01
 -1       315 2.76976E+01
 -1       316 2.69013E+01
 -1       317 2.61049E+01
 -1       318 2.36562E+01
 -1       319 2.12076E+01
 -1       320 2.11414E+01
 -1       321 2.17636E+01
 -1       322 2.23857E+01
 -1       323 2.23857E+01
 -1       324 2.23857E+01
 -1       325 2.21113E+01
 -1       326 2.18369E+01
 -1       327 2.18369E+01
 -1       328 2.18369E+01
 -1       329 2.14099E+01
 -1       330 2.61036E+01
 -1       331 2.61036E+01
 -1       332 2.23857E+01
 -1       333 2.23857E+01
 -1       334 2.32048E+01
 -1       335 2.43297E+01
 -1       336 3.10935E+01
 -1       337 3.10935E+01
 -1       338 3.10935E+01
 -1       339 2.62893E+01
 -1       340 2.14851E+01
 -1       341 2.29974E+01
 -1       342 2.45096E+01
 -1       343 2.45096E+01
 -1       344 2.45096E+01
 -1       345 2.23857E+01
 -1       346 2.23857E+01
 -1       347 2.23857E+01
 -1       348 2.34792E+01
 -1       349 2.45727E+01
 -1       350 2.56976E+01
 -1       351 2.68225E+01
 -1       352 2.90094E+01
 -1       353 3.11963E+01
 -1       354 3.11963E+01
 -1       355 3.11963E+01
 -1       356 3.10935E+01
 -1       357 3.10935E+01
 -1       358 2.21100E+01
 -1       359 2.36223E+01
 -1       360 2.33949E+01
 -1       361 2.23220E+01
 -1       362 2.45727E+01
 -1       363 2.81249E+01
 -1       364 3.11963E+01
 -1       365 3.11963E+01
 -1       366 3.10935E+01
 -1       367 3.10935E+01
 -1       368 3.10935E+01
 -1       369 2.69142E+01
 -1       370 2.27349E+01
 -1       371 2.27349E+01
 -1       372 2.27349E+01
 -1       373 2.25076E+01
 -1       374 2.22802E+01
 -1       375 2.25106E+01
 -1       376 2.27409E+01
 -1       377 2.33590E+01
 -1       378 2.39772E+01
 -1       379 2.39772E+01
 -1       380 2.39772E+01
 -1       381 2.39100E+01
 -1       382 2.38428E+01
 -1       383 2.30505E+01
 -1       384 2.22582E+01
 -1       385 2.34155E+01
 -1       386 2.45727E+01
 -1       387 2.70000E+01
 -1       388 2.94272E+01
 -1       389 3.03118E+01
 -1       390 3.11963E+01
 -1       391 3.11963E+01
 -1       392 3.11963E+01
 -1       393 3.10578E+01
 -1       394 3.10578E+01
 -1       395 2.27349E+01
 -1       396 2.27349E+01
 -1       397 2.59064E+01
 -1       398 2.61368E+01
 -1       399 2.39772E+01
 -1       400 2.39772E+01
 -1       401 2.38428E+01
 -1       402 2.22582E+01
 -1       403 2.94272E+01
 -1       404 3.10558E+01
 -1       405 3.10558E+01
 -1       406 3.10222E+01
 -1       407 3.10222E+01
 -1       408 3.10222E+01
 -1       409 2.68786E+01
 -1       410 2.27349E+01
 -1       411 2.27349E+01
 -1       412 2.27349E+01
 -1       413 2.95326E+01
 -1       414 2.95326E+01
 -1       415 2.95326E+01
 -1       416 2.67549E+01
 -1       417 2.39772E+01
 -1       418 2.39772E+01
 -1       419 2.39772E+01
 -1       420 2.39100E+01
 -1       421 2.38428E+01
 -1       422 2.30505E+01
 -1       423 2.22582E+01
 -1       424 2.94272E+01
 -1       425 3.01712E+01
 -1       426 3.09152E+01
 -1       427 3.09152E+01
 -1       428 3.09152E+01
 -1       429 3.12080E+01
 -1       430 3.12080E+01
 -1       431 2.16773E+01
 -1       432 2.95326E+01
 -1       433 2.95326E+01
 -1       434 2.35857E+01
 -1       435 2.13905E+01
 -1       436 2.26458E+01
 -1       437 2.18535E+01
 -1       438 3.08499E+01
 -1       439 3.08499E+01
 -1       440 3.13938E+01
 -1       441 3.13938E+01
 -1       442 3.13938E+01
 -1       443 2.60067E+01
 -1       444 2.06197E+01
 -1       445 2.95326E+01
 -1       446 2.95326E+01
 -1       447 2.95326E+01
 -1       448 2.63634E+01
 -1       449 2.31942E+01
 -1       450 2.09990E+01
 -1       451 1.88039E+01
 -1       452 2.01264E+01
 -1       453 2.14488E+01
 -1       454 2.14488E+01
 -1       455 2.14488E+01
 -1       456 3.07845E+01
 -1       457 3.07845E+01
 -1       458 3.07845E+01
 -1       459 3.13938E+01
 -1       460 3.13938E+01
 -1       461 2.78581E+01
 -1       462 2.78581E+01
 -1       463 2.26734E+01
 -1       464 1.95258E+01
 -1       465 2.19758E+01
 -1       466 2.19758E+01
 -1       467 3.01005E+01
 -1       468 3.01005E+01
 -1       469 3.13938E+01
 -1       470 3.13938E+01
 -1       471 3.13938E+01
 -1       472 2.59281E+01
 -1       473 2.04624E+01
 -1       474 2.61835E+01
 -1       475 2.61835E+01
 -1       476 2.61835E+01
 -1       477 2.41681E+01
 -1       478 2.21526E+01
 -1       479 2.12002E+01
 -1       480 2.02478E+01
 -1       481 2.13753E+01
 -1       482 2.25028E+01
 -1       483 2.25028E+01
 -1       484 2.25028E+01
 -1       485 2.05919E+01
 -1       486 2.50042E+01
 -1       487 2.94165E+01
 -1       488 2.94165E+01
 -1       489 2.94165E+01
 -1       490 3.12208E+01
 -1       491 3.12208E+01
 -1       492 2.16062E+01
 -1       493 2.59044E+01
 -1       494 2.59044E+01
 -1       495 2.38502E+01
 -1       496 2.11817E+01
 -1       497 2.25028E+01
 -1       498 2.25028E+01
 -1       499 2.11320E+01
 -1       500 2.93227E+01
 -1       501 2.93227E+01
 -1       502 3.10477E+01
 -1       503 3.10477E+01
 -1       504 3.10477E+01
 -1       505 2.68989E+01
 -1       506 2.27500E+01
 -1       507 2.27500E+01
 -1       508 2.27500E+01
 -1       509 2.56252E+01
 -1       510 2.56252E+01
 -1       511 2.56252E+01
 -1       512 2.55865E+01
 -1       513 2.55479E+01
 -1       514 2.38317E+01
 -1       515 2.21156E+01
 -1       516 2.23092E+01
 -1       517 2.25028E+01
 -1       518 2.25028E+01
 -1       519 2.25028E+01
 -1       520 2.11484E+01
 -1       521 2.14103E+01
 -1       522 2.16721E+01
 -1       523 2.54505E+01
 -1       524 2.92289E+01
 -1       525 2.92289E+01
 -1       526 2.92289E+01
 -1       527 3.10753E+01
 -1       528 3.10753E+01
 -1       529 2.27500E+01
 -1       530 2.27500E+01
 -1       531 2.39130E+01
 -1       532 2.55865E+01
 -1       533 2.55479E+01
 -1       534 2.21156E+01
 -1       535 2.23465E+01
 -1       536 2.30102E+01
 -1       537 2.35938E+01
 -1       538 2.38557E+01
 -1       539 2.94953E+01
 -1       540 2.94953E+01
 -1       541 3.11028E+01
 -1       542 3.11028E+01
 -1       543 3.11028E+01
 -1       544 2.69264E+01
 -1       545 2.27500E+01
 -1       546 2.27500E+01
 -1       547 2.27500E+01
 -1       548 2.24754E+01
 -1       549 2.22008E+01
 -1       550 2.38743E+01
 -1       551 2.55479E+01
 -1       552 2.55479E+01
 -1       553 2.55479E+01
 -1       554 2.38317E+01
 -1       555 2.21156E+01
 -1       556 2.21529E+01
 -1       557 2.21901E+01
 -1       558 2.28539E+01
 -1       559 2.35177E+01
 -1       560 2.47785E+01
 -1       561 2.60393E+01
 -1       562 2.60393E+01
 -1       563 2.60393E+01
 -1       564 2.79004E+01
 -1       565 2.97616E+01
 -1       566 2.97616E+01
 -1       567 2.97616E+01
 -1       568 3.11028E+01
 -1       569 3.11028E+01
 -1       570 2.21220E+01
 -1       571 2.34842E+01
 -1       572 2.32096E+01
 -1       573 2.41419E+01
 -1       574 2.62124E+01
 -1       575 2.62124E+01
 -1       576 2.97616E+01
 -1       577 2.97616E+01
 -1       578 3.11028E+01
 -1       579 3.11028E+01
 -1       580 3.11028E+01
 -1       581 2.62984E+01
 -1       582 2.14940E+01
 -1       583 2.28562E+01
 -1       584 2.42184E+01
 -1       585 2.42184E+01
 -1       586 2.42184E+01
 -1       587 2.29184E+01
 -1       588 2.16185E+01
 -1       589 2.06892E+01
 -1       590 2.27276E+01
 -1       591 2.47660E+01
 -1       592 2.55758E+01
 -1       593 2.63856E+01
 -1       594 2.63856E+01
 -1       595 2.63856E+01
 -1       596 2.80736E+01
 -1       597 2.97616E+01
 -1       598 2.97616E+01
 -1       599 2.97616E+01
 -1       600 2.14010E+01
 -1       601 2.58937E+01
 -1       602 2.70673E+01
 -1       603 2.57674E+01
 -1       604 2.07774E+01
 -1       605 2.47660E+01
 -1       606 2.63856E+01
 -1       607 2.63856E+01
 -1       608 2.13080E+01
 -1       609 2.44385E+01
 -1       610 2.75691E+01
 -1       611 2.87427E+01
 -1       612 2.99163E+01
 -1       613 2.99163E+01
 -1       614 2.99163E+01
 -1       615 2.08656E+01
 -1       616 2.28158E+01
 -1       617 2.47660E+01
 -1       618 2.55758E+01
 -1       619 2.63856E+01
 -1       620 2.63856E+01
 -1       621 2.63856E+01
 -1       622 2.95300E+01
 -1       623 3.07036E+01
 -1       624 3.04363E+01
 -1       625 2.58164E+01
 -1       626 2.77666E+01
 -1       627 2.83109E+01
 -1       628 3.14909E+01
 -1       629 3.14909E+01
 -1       630 3.14909E+01
 -1       631 3.12236E+01
 -1       632 3.09563E+01
 -1       633 3.03959E+01
 -1       634 2.98356E+01
 -1       635 2.95084E+01
 -1       636 2.91813E+01
 -1       637 2.99742E+01
 -1       638 3.07672E+01
 -1       639 3.07672E+01
 -1       640 3.07672E+01
 -1       641 3.05017E+01
 -1       642 3.02361E+01
 -1       643 3.14909E+01
 -1       644 3.14909E+01
 -1       645 3.09563E+01
 -1       646 2.98356E+01
 -1       647 2.91813E+01
 -1       648 3.07672E+01
 -1       649 3.07672E+01
 -1       650 3.02361E+01
 -1       651 3.14909E+01
 -1       652 3.14909E+01
 -1       653 3.14909E+01
 -1       654 3.12236E+01
 -1       655 3.09563E+01
 -1       656 3.03959E+01
 -1       657 2.98356E+01
 -1       658 2.95084E+01
 -1       659 2.91813E+01
 -1       660 2.99742E+01
 -1       661 3.07672E+01
 -1       662 3.07672E+01
 -1       663 3.07672E+01
 -1       664 3.05017E+01
 -1       665 3.02361E+01
 -1       666 3.11116E+01
 -1       667 3.14443E+01
 -1       668 3.14443E+01
 -1       669 3.12003E+01
 -1       670 3.11894E+01
 -1       671 3.08053E+01
 -1       672 3.07349E+01
 -1       673 3.06261E+01
 -1       674 3.11116E+01
 -1       675 3.14443E+01
 -1       676 3.14443E+01
 -1       677 3.12003E+01
 -1       678 3.11894E+01
 -1       679 3.08053E+01
 -1       680 3.07349E+01
 -1       681 3.06261E+01
 -1       682 2.13347E+01
 -1       683 2.76976E+01
 -1       684 2.76976E+01
 -1       685 2.61049E+01
 -1       686 2.12076E+01
 -1       687 2.11414E+01
 -1       688 2.23857E+01
 -1       689 2.23857E+01
 -1       690 2.18369E+01
 -1       691 2.18369E+01
 -1       692 3.10935E+01
 -1       693 3.10935E+01
 -1       694 2.14851E+01
 -1       695 2.45096E+01
 -1       696 2.45096E+01
 -1       697 2.23857E+01
 -1       698 2.23857E+01
 -1       699 2.45727E+01
 -1       700 2.68225E+01
 -1       701 3.11963E+01
 -1       702 3.11963E+01
 -1       703 3.10935E+01
 -1       704 3.10935E+01
 -1       705 2.27349E+01
 -1       706 2.27349E+01
 -1       707 2.22802E+01
 -1       708 2.27409E+01
 -1       709 2.39772E+01
 -1       710 2.39772E+01
 -1       711 2.38428E+01
 -1       712 2.22582E+01
 -1       713 2.45727E+01
 -1       714 2.94272E+01
 -1       715 3.11963E+01
 -1       716 3.11963E+01
 -1       717 3.10222E+01
 -1       718 3.10222E+01
 -1       719 2.27349E+01
 -1       720 2.27349E+01
 -1       721 2.95326E+01
 -1       722 2.95326E+01
 -1       723 2.39772E+01
 -1       724 2.39772E+01
 -1       725 2.38428E+01
 -1       726 2.22582E+01
 -1       727 2.94272E+01
 -1       728 3.09152E+01
 -1       729 3.09152E+01
 -1       730 3.13938E+01
 -1       731 3.13938E+01
 -1       732 2.06197E+01
 -1       733 2.95326E+01
 -1       734 2.95326E+01
 -1       735 2.31942E+01
 -1       736 1.88039E+01
 -1       737 2.14488E+01
 -1       738 2.14488E+01
 -1       739 3.07845E+01
 -1       740 3.07845E+01
 -1       741 3.13938E+01
 -1       742 3.13938E+01
 -1       743 2.04624E+01
 -1       744 2.61835E+01
 -1       745 2.61835E+01
 -1       746 2.21526E+01
 -1       747 2.02478E+01
 -1       748 2.25028E+01
 -1       749 2.25028E+01
 -1       750 2.05919E+01
 -1       751 2.94165E+01
 -1       752 2.94165E+01
 -1       753 3.10477E+01
 -1       754 3.10477E+01
 -1       755 2.27500E+01
 -1       756 2.27500E+01
 -1       757 2.56252E+01
 -1       758 2.56252E+01
 -1       759 2.55479E+01
 -1       760 2.21156E+01
 -1       761 2.25028E+01
 -1       762 2.25028E+01
 -1       763 2.11484E+01
 -1       764 2.16721E+01
 -1       765 2.92289E+01
 -1       766 2.92289E+01
 -1       767 3.11028E+01
 -1       768 3.11028E+01
 -1       769 2.27500E+01
 -1       770 2.27500E+01
 -1       771 2.22008E+01
 -1       772 2.55479E+01
 -1       773 2.55479E+01
 -1       774 2.21156E+01
 -1       775 2.21901E+01
 -1       776 2.35177E+01
 -1       777 2.60393E+01
 -1       778 2.60393E+01
 -1       779 2.97616E+01
 -1       780 2.97616E+01
 -1       781 3.11028E+01
 -1       782 3.11028E+01
 -1       783 2.14940E+01
 -1       784 2.42184E+01
 -1       785 2.42184E+01
 -1       786 2.16185E+01
 -1       787 2.06892E+01
 -1       788 2.47660E+01
 -1       789 2.63856E+01
 -1       790 2.63856E+01
 -1       791 2.97616E+01
 -1       792 2.97616E+01
 -1       793 2.13080E+01
 -1       794 2.75691E+01
 -1       795 2.99163E+01
 -1       796 2.99163E+01
 -1       797 2.08656E+01
 -1       798 2.47660E+01
 -1       799 2.63856E+01
 -1       800 2.63856E+01
 -1       801 3.14909E+01
 -1       802 3.14909E+01
 -1       803 3.09563E+01
 -1       804 2.98356E+01
 -1       805 2.91813E+01
 -1       806 3.07672E+01
 -1       807 3.07672E+01
 -1       808 3.02361E+01
 -1       809 3.14909E+01
 -1       810 3.14909E+01
 -1       811 3.09563E+01
 -1       812 2.98356E+01
 -1       813 2.91813E+01
 -1       814 3.07672E+01
 -1       815 3.07672E+01
 -1       816 3.02361E+01
 -1       817 3.11116E+01
 -1       818 3.12780E+01
 -1       819 3.14443E+01
 -1       820 3.14443E+01
 -1       821 3.14443E+01
 -1       822 3.13223E+01
 -1       823 3.12003E+01
 -1       824 3.11948E+01
 -1       825 3.11894E+01
 -1       826 3.09973E+01
 -1       827 3.08053E+01
 -1       828 3.07701E+01
 -1       829 3.07349E+01
 -1       830 3.06805E+01
 -1       831 3.06261E+01
 -1       832 3.11116E+01
 -1       833 3.14443E+01
 -1       834 3.14443E+01
 -1       835 3.12003E+01
 -1       836 3.11894E+01
 -1       837 3.08053E+01
 -1       838 3.07349E+01
 -1       839 3.06261E+01
 -1       840 3.11116E+01
 -1       841 3.12780E+01
 -1       842 3.14443E+01
 -1       843 3.14443E+01
 -1       844 3.14443E+01
 -1       845 3.13223E+01
 -1       846 3.12003E+01
 -1       847 3.11948E+01
 -1       848 3.11894E+01
 -1       849 3.09973E+01
 -1       850 3.08053E+01
 -1       851 3.07701E+01
 -1       852 3.07349E+01
 -1       853 3.06805E+01
 -1       854 3.06261E+01
 -1       855 2.94046E+01
 -1       856 2.95710E+01
 -1       857 2.87746E+01
 -1       858 2.62039E+01
 -1       859 2.61654E+01
 -1       860 2.65955E+01
 -1       861 2.65603E+01
 -1       862 2.62315E+01
 -1       863 2.13347E+01
 -1       864 2.45162E+01
 -1       865 2.76976E+01
 -1       866 2.76976E+01
 -1       867 2.76976E+01
 -1       868 2.69013E+01
 -1       869 2.61049E+01
 -1       870 2.36562E+01
 -1       871 2.12076E+01
 -1       872 2.11414E+01
 -1       873 2.17636E+01
 -1       874 2.23857E+01
 -1       875 2.23857E+01
 -1       876 2.23857E+01
 -1       877 2.21113E+01
 -1       878 2.18369E+01
 -1       879 2.18369E+01
 -1       880 2.18369E+01
 -1       881 2.14099E+01
 -1       882 2.61036E+01
 -1       883 2.61036E+01
 -1       884 2.23857E+01
 -1       885 2.23857E+01
 -1       886 2.32048E+01
 -1       887 2.43297E+01
 -1       888 3.10935E+01
 -1       889 3.10935E+01
 -1       890 3.10935E+01
 -1       891 2.62893E+01
 -1       892 2.14851E+01
 -1       893 2.29974E+01
 -1       894 2.45096E+01
 -1       895 2.45096E+01
 -1       896 2.45096E+01
 -1       897 2.23857E+01
 -1       898 2.23857E+01
 -1       899 2.23857E+01
 -1       900 2.34792E+01
 -1       901 2.45727E+01
 -1       902 2.56976E+01
 -1       903 2.68225E+01
 -1       904 2.90094E+01
 -1       905 3.11963E+01
 -1       906 3.11963E+01
 -1       907 3.11963E+01
 -1       908 3.10935E+01
 -1       909 3.10935E+01
 -1       910 2.21100E+01
 -1       911 2.36223E+01
 -1       912 2.33949E+01
 -1       913 2.23220E+01
 -1       914 2.45727E+01
 -1       915 2.81249E+01
 -1       916 3.11963E+01
 -1       917 3.11963E+01
 -1       918 3.10935E+01
 -1       919 3.10935E+01
 -1       920 3.10935E+01
 -1       921 2.69142E+01
 -1       922 2.27349E+01
 -1       923 2.27349E+01
 -1       924 2.27349E+01
 -1       925 2.25076E+01
 -1       926 2.22802E+01
 -1       927 2.25106E+01
 -1       928 2.27409E+01
 -1       929 2.33590E+01
 -1       930 2.39772E+01
 -1       931 2.39772E+01
 -1       932 2.39772E+01
 -1       933 2.39100E+01
 -1       934 2.38428E+01
 -1       935 2.30505E+01
 -1       936 2.22582E+01
 -1       937 2.34155E+01
 -1       938 2.45727E+01
 -1       939 2.70000E+01
 -1       940 2.94272E+01
 -1       941 3.03118E+01
 -1       942 3.11963E+01
 -1       943 3.11963E+01
 -1       944 3.11963E+01
 -1       945 3.10578E+01
 -1       946 3.10578E+01
 -1       947 2.27349E+01
 -1       948 2.27349E+01
 -1       949 2.59064E+01
 -1       950 2.61368E+01
 -1       951 2.39772E+01
 -1       952 2.39772E+01
 -1       953 2.38428E+01
 -1       954 2.22582E+01
 -1       955 2.94272E+01
 -1       956 3.10558E+01
 -1       957 3.10558E+01
 -1       958 3.10222E+01
 -1       959 3.10222E+01
 -1       960 3.10222E+01
 -1       961 2.68786E+01
 -1       962 2.27349E+01
 -1       963 2.27349E+01
 -1       964 2.27349E+01
 -1       965 2.95326E+01
 -1       966 2.95326E+01
 -1       967 2.95326E+01
 -1       968 2.67549E+01
 -1       969 2.39772E+01
 -1       970 2.39772E+01
 -1       971 2.39772E+01
 -1       972 2.39100E+01
 -1       973 2.38428E+01
 -1       974 2.30505E+01
 -1       975 2.22582E+01
 -1       976 2.94272E+01
 -1       977 3.01712E+01
 -1       978 3.09152E+01
 -1       979 3.09152E+01
 -1       980 3.09152E+01
 -1       981 3.12080E+01
 -1       982 3.12080E+01
 -1       983 2.16773E+01
 -1       984 2.95326E+01
 -1       985 2.95326E+01
 -1       986 2.35857E+01
 -1       987 2.13905E+01
 -1       988 2.26458E+01
 -1       989 2.18535E+01
 -1       990 3.08499E+01
 -1       991 3.08499E+01
 -1       992 3.13938E+01
 -1       993 3.13938E+01
 -1       994 3.13938E+01
 -1       995 2.60067E+01
 -1       996 2.06197E+01
 -1       997 2.95326E+01
 -1       998 2.95326E+01
 -1       999 2.95326E+01
 -1      1000 2.63634E+01
 -1      1001 2.31942E+01
 -1      1002 2.09990E+01
 -1      1003 1.88039E+01
 -1      1004 2.01264E+01
 -1      1005 2.14488E+01
 -1      1006 2.14488E+01
 -1      1007 2.14488E+01
 -1      1008 3.07845E+01
 -1      1009 3.07845E+01
 -1      1010 3.07845E+01
 -1      1011 3.13938E+01
 -1      1012 3.13938E+01
 -1      1013 2.78581E+01
 -1      1014 2.78581E+01
 -1      1015 2.26734E+01
 -1      1016 1.95258E+01
 -1      1017 2.19758E+01
 -1      1018 2.19758E+01
 -1      1019 3.01005E+01
 -1      1020 3.01005E+01
 -1      1021 3.13938E+01
 -1      1022 3.13938E+01
 -1      1023 3.13938E+01
 -1      1024 2.59281E+01
 -1      1025 2.04624E+01
 -1      1026 2.61835E+01
 -1      1027 2.61835E+01
 -1      1028 2.61835E+01
 -1      1029 2.41681E+01
 -1      1030 2.21526E+01
 -1      1031 2.12002E+01
 -1      1032 2.02478E+01
 -1      1033 2.13753E+01
 -1      1034 2.25028E+01
 -1      1035 2.25028E+01
 -1      1036 2.25028E+01
 -1      1037 2.05919E+01
 -1      1038 2.50042E+01
 -1      1039 2.94165E+01
 -1      1040 2.94165E+01
 -1      1041 2.94165E+01
 -1      1042 3.12208E+01
 -1      1043 3.12208E+01
 -1      1044 2.16062E+01
 -1      1045 2.59044E+01
 -1      1046 2.59044E+01
 -1      1047 2.38502E+01
 -1      1048 2.11817E+01
 -1      1049 2.25028E+01
 -1      1050 2.25028E+01
 -1      1051 2.11320E+01
 -1      1052 2.93227E+01
 -1      1053 2.93227E+01
 -1      1054 3.10477E+01
 -1      1055 3.10477E+01
 -1      1056 3.10477E+01
 -1      1057 2.68989E+01
 -1      1058 2.27500E+01
 -1      1059 2.27500E+01
 -1      1060 2.27500E+01
 -1      1061 2.56252E+01
 -1      1062 2.56252E+01
 -1      1063 2.56252E+01
 -1      1064 2.55865E+01
 -1      1065 2.55479E+01
 -1      1066 2.38317E+01
 -1      1067 2.21156E+01
 -1      1068 2.23092E+01
 -1      1069 2.25028E+01
 -1      1070 2.25028E+01
 -1      1071 2.25028E+01
 -1      1072 2.11484E+01
 -1      1073 2.14103E+01
 -1      1074 2.16721E+01
 -1      1075 2.54505E+01
 -1      1076 2.92289E+01
 -1      1077 2.92289E+01
 -1      1078 2.92289E+01
 -1      1079 3.10753E+01
 -1      1080 3.10753E+01
 -1      1081 2.27500E+01
 -1      1082 2.27500E+01
 -1      1083 2.39130E+01
 -1      1084 2.55865E+01
 -1      1085 2.55479E+01
 -1      1086 2.21156E+01
 -1      1087 2.23465E+01
 -1      1088 2.30102E+01
 -1      1089 2.35938E+01
 -1      1090 2.38557E+01
 -1      1091 2.94953E+01
 -1      1092 2.94953E+01
 -1      1093 3.11028E+01
 -1      1094 3.11028E+01
 -1      1095 3.11028E+01
 -1      1096 2.69264E+01
 -1      1097 2.27500E+01
 -1      1098 2.27500E+01
 -1      1099 2.27500E+01
 -1      1100 2.24754E+01
 -1      1101 2.22008E+01
 -1      1102 2.38743E+01
 -1      1103 2.55479E+01
 -1      1104 2.55479E+01
 -1      1105 2.55479E+01
 -1      1106 2.38317E+01
 -1      1107 2.21156E+01
 -1      1108 2.21529E+01
 -1      1109 2.21901E+01
 -1      1110 2.28539E+01
 -1      1111 2.35177E+01
 -1      1112 2.47785E+01
 -1      1113 2.60393E+01
 -1      1114 2.60393E+01
 -1      1115 2.60393E+01
 -1      1116 2.79004E+01
 -1      1117 2.97616E+01
 -1      1118 2.97616E+01
 -1      1119 2.97616E+01
 -1      1120 3.11028E+01
 -1      1121 3.11028E+01
 -1      1122 2.21220E+01
 -1      1123 2.34842E+01
 -1      1124 2.32096E+01
 -1      1125 2.41419E+01
 -1      1126 2.62124E+01
 -1      1127 2.62124E+01
 -1      1128 2.97616E+01
 -1      1129 2.97616E+01
 -1      1130 3.11028E+01
 -1      1131 3.11028E+01
 -1      1132 3.11028E+01
 -1      1133 2.62984E+01
 -1      1134 2.14940E+01
 -1      1135 2.28562E+01
 -1      1136 2.42184E+01
 -1      1137 2.42184E+01
 -1      1138 2.42184E+01
 -1      1139 2.29184E+01
 -1      1140 2.16185E+01
 -1      1141 2.06892E+01
 -1      1142 2.27276E+01
 -1      1143 2.47660E+01
 -1      1144 2.55758E+01
 -1      1145 2.63856E+01
 -1      1146 2.63856E+01
 -1      1147 2.63856E+01
 -1      1148 2.80736E+01
 -1      1149 2.97616E+01
 -1      1150 2.97616E+01
 -1      1151 2.97616E+01
 -1      1152 2.14010E+01
 -1      1153 2.58937E+01
 -1      1154 2.70673E+01
 -1      1155 2.57674E+01
 -1      1156 2.07774E+01
 -1      1157 2.47660E+01
 -1      1158 2.63856E+01
 -1      1159 2.63856E+01
 -1      1160 2.13080E+01
 -1      1161 2.44385E+01
 -1      1162 2.75691E+01
 -1      1163 2.87427E+01
 -1      1164 2.99163E+01
 -1      1165 2.99163E+01
 -1      1166 2.99163E+01
 -1      1167 2.08656E+01
 -1      1168 2.28158E+01
 -1      1169 2.47660E+01
 -1      1170 2.55758E+01
 -1      1171 2.63856E+01
 -1      1172 2.63856E+01
 -1      1173 2.63856E+01
 -1      1174 2.95300E+01
 -1      1175 3.07036E+01
 -1      1176 3.04363E+01
 -1      1177 2.58164E+01
 -1      1178 2.77666E+01
 -1      1179 2.83109E+01
 -1      1180 3.14909E+01
 -1      1181 3.14909E+01
 -1      1182 3.14909E+01
 -1      1183 3.12236E+01
 -1      1184 3.09563E+01
 -1      1185 3.03959E+01
 -1      1186 2.98356E+01
 -1      1187 2.95084E+01
 -1      1188 2.91813E+01
 -1      1189 2.99742E+01
 -1      1190 3.07672E+01
 -1      1191 3.07672E+01
 -1      1192 3.07672E+01
 -1      1193 3.05017E+01
 -1      1194 3.02361E+01
 -1      1195 3.14909E+01
 -1      1196 3.14909E+01
 -1      1197 3.09563E+01
 -1      1198 2.98356E+01
 -1      1199 2.91813E+01
 -1      1200 3.07672E+01
 -1      1201 3.07672E+01
 -1      1202 3.02361E+01
 -1      1203 3.14909E+01
 -1      1204 3.14909E+01
 -1      1205 3.14909E+01
 -1      1206 3.12236E+01
 -1      1207 3.09563E+01
 -1      1208 3.03959E+01
 -1      1209 2.98356E+01
 -1      1210 2.95084E+01
 -1      1211 2.91813E+01
 -1      1212 2.99742E+01
 -1      1213 3.07672E+01
 -1      1214 3.07672E+01
 -1      1215 3.07672E+01
 -1      1216 3.05017E+01
 -1      1217 3.02361E+01
 -1      1218 2.23678E+01
 -1      1219 2.25982E+01
 -1      1220 2.26613E+01
 -1      1221 2.33998E+01
 -1      1222 2.34173E+01
 -1      1223 2.26250E+01
 -1      1224 2.84283E+01
 -1      1225 2.84283E+01
 -1      1226 2.26613E+01
 -1      1227 2.33998E+01
 -1      1228 2.34173E+01
 -1      1229 2.26250E+01
 -1      1230 2.84283E+01
 -1      1231 2.84283E+01
 -1      1232 1.95140E+01
 -1      1233 1.66065E+01
 -1      1234 2.00288E+01
 -1      1235 2.00288E+01
 -1      1236 2.51852E+01
 -1      1237 2.51852E+01
 -1      1238 2.18761E+01
 -1      1239 2.02478E+01
 -1      1240 2.13753E+01
 -1      1241 1.91423E+01
 -1      1242 2.49681E+01
 -1      1243 2.49681E+01
 -1      1244 2.48531E+01
 -1      1245 2.11817E+01
 -1      1246 2.23465E+01
 -1      1247 2.23465E+01
 -1      1248 2.32560E+01
 -1      1249 2.49295E+01
 -1      1250 2.48531E+01
 -1      1251 1.91217E+01
 -1      1252 2.21901E+01
 -1      1253 2.28539E+01
 -1      1254 2.24554E+01
 -1      1255 2.24554E+01
 -1      1256 2.24554E+01
 -1      1257 2.19004E+01
 -1      1258 2.13454E+01
 -1      1259 2.20839E+01
 -1      1260 2.28225E+01
 -1      1261 2.29072E+01
 -1      1262 2.29918E+01
 -1      1263 2.29918E+01
 -1      1264 2.29918E+01
 -1      1265 2.48897E+01
 -1      1266 2.48897E+01
 -1      1267 2.13454E+01
 -1      1268 2.28225E+01
 -1      1269 2.29918E+01
 -1      1270 2.29918E+01
 -1      1271 2.73240E+01
 -1      1272 2.73240E+01
 -1      1273 2.73240E+01
 -1      1274 2.43347E+01
 -1      1275 2.13454E+01
 -1      1276 2.20839E+01
 -1      1277 2.28225E+01
 -1      1278 2.29072E+01
 -1      1279 2.29918E+01
 -1      1280 2.29918E+01
 -1      1281 2.29918E+01
 -1      1282 2.73240E+01
 -1      1283 2.73240E+01
 -1      1284 1.85896E+01
 -1      1285 1.86158E+01
 -1      1286 2.08003E+01
 -1      1287 2.08003E+01
 -1      1288 2.73240E+01
 -1      1289 2.73240E+01
 -1      1290 2.73240E+01
 -1      1291 2.15789E+01
 -1      1292 1.58338E+01
 -1      1293 1.51215E+01
 -1      1294 1.44092E+01
 -1      1295 1.65090E+01
 -1      1296 1.86088E+01
 -1      1297 1.86088E+01
 -1      1298 1.86088E+01
 -1      1299 2.57555E+01
 -1      1300 2.57555E+01
 -1      1301 1.87167E+01
 -1      1302 1.73285E+01
 -1      1303 1.94283E+01
 -1      1304 1.71953E+01
 -1      1305 2.41869E+01
 -1      1306 2.41869E+01
 -1      1307 2.41869E+01
 -1      1308 2.28932E+01
 -1      1309 2.15996E+01
 -1      1310 2.09237E+01
 -1      1311 2.02478E+01
 -1      1312 2.02478E+01
 -1      1313 2.02478E+01
 -1      1314 1.80148E+01
 -1      1315 1.57818E+01
 -1      1316 2.42490E+01
 -1      1317 2.42490E+01
 -1      1318 2.28789E+01
 -1      1319 2.02478E+01
 -1      1320 2.12190E+01
 -1      1321 1.89860E+01
 -1      1322 2.43111E+01
 -1      1323 2.43111E+01
 -1      1324 2.43111E+01
 -1      1325 2.42347E+01
 -1      1326 2.41583E+01
 -1      1327 2.22031E+01
 -1      1328 2.02478E+01
 -1      1329 2.12190E+01
 -1      1330 2.21901E+01
 -1      1331 2.21901E+01
 -1      1332 2.21901E+01
 -1      1333 2.43111E+01
 -1      1334 2.43111E+01
 -1      1335 2.41583E+01
 -1      1336 1.81878E+01
 -1      1337 2.21901E+01
 -1      1338 2.21901E+01
 -1      1339 2.43111E+01
 -1      1340 2.43111E+01
 -1      1341 2.43111E+01
 -1      1342 2.42347E+01
 -1      1343 2.41583E+01
 -1      1344 2.01431E+01
 -1      1345 1.61278E+01
 -1      1346 1.91590E+01
 -1      1347 2.21901E+01
 -1      1348 2.21901E+01
 -1      1349 2.21901E+01
 -1      1350 2.24554E+01
 -1      1351 2.24554E+01
 -1      1352 1.64491E+01
 -1      1353 1.64008E+01
 -1      1354 2.29918E+01
 -1      1355 2.29918E+01
 -1      1356 2.48897E+01
 -1      1357 2.48897E+01
 -1      1358 1.64491E+01
 -1      1359 1.80702E+01
 -1      1360 2.29918E+01
 -1      1361 2.29918E+01
 -1      1362 2.19423E+01
 -1      1363 2.19423E+01
 -1      1364 1.33634E+01
 -1      1365 1.38636E+01
 -1      1366 1.59634E+01
 -1      1367 1.50334E+01
 -1      1368 2.15921E+01
 -1      1369 2.15921E+01
 -1      1370 1.70676E+01
 -1      1371 1.63918E+01
 -1      1372 1.43210E+01
 -1      1373 1.15624E+01
 -1      1374 2.43111E+01
 -1      1375 2.43111E+01
 -1      1376 1.91293E+01
 -1      1377 1.71741E+01
 -1      1378 1.78079E+01
 -1      1379 1.78079E+01
 -1      1380 2.43111E+01
 -1      1381 2.43111E+01
 -1      1382 1.91293E+01
 -1      1383 1.51141E+01
 -1      1384 1.78079E+01
 -1      1385 1.78079E+01
 -1      1386 2.24554E+01
 -1      1387 2.24554E+01
 -1      1388 2.24554E+01
 -1      1389 1.70041E+01
 -1      1390 1.15528E+01
 -1      1391 1.07660E+01
 -1      1392 9.97912E+00
 -1      1393 1.64855E+01
 -1      1394 2.29918E+01
 -1      1395 2.29918E+01
 -1      1396 2.29918E+01
 -1      1397 2.24554E+01
 -1      1398 2.24554E+01
 -1      1399 1.15528E+01
 -1      1400 1.16486E+01
 -1      1401 2.29918E+01
 -1      1402 2.29918E+01
 -1      1403 2.24554E+01
 -1      1404 2.24554E+01
 -1      1405 2.24554E+01
 -1      1406 1.70041E+01
 -1      1407 1.15528E+01
 -1      1408 1.24354E+01
 -1      1409 1.33180E+01
 -1      1410 1.81549E+01
 -1      1411 2.29918E+01
 -1      1412 2.29918E+01
 -1      1413 2.29918E+01
 -1      1414 1.95080E+01
 -1      1415 1.95080E+01
 -1      1416 1.12229E+01
 -1      1417 1.33180E+01
 -1      1418 1.81549E+01
 -1      1419 1.72249E+01
 -1      1420 1.65606E+01
 -1      1421 1.65606E+01
 -1      1422 1.65606E+01
 -1      1423 1.37267E+01
 -1      1424 1.08929E+01
 -1      1425 1.21055E+01
 -1      1426 1.33180E+01
 -1      1427 1.33180E+01
 -1      1428 1.33180E+01
 -1      1429 1.23880E+01
 -1      1430 1.14579E+01
 -1      1431 1.77789E+01
 -1      1432 1.77789E+01
 -1      1433 1.17143E+01
 -1      1434 1.29268E+01
 -1      1435 1.08561E+01
 -1      1436 9.40046E+00
 -1      1437 1.89972E+01
 -1      1438 1.89972E+01
 -1      1439 1.89972E+01
 -1      1440 1.57665E+01
 -1      1441 1.25357E+01
 -1      1442 1.25357E+01
 -1      1443 1.25357E+01
 -1      1444 1.04649E+01
 -1      1445 8.39411E+00
 -1      1446 7.86855E+00
 -1      1447 7.34298E+00
 -1      1448 2.16542E+01
 -1      1449 2.16542E+01
 -1      1450 1.33180E+01
 -1      1451 1.33180E+01
 -1      1452 1.09099E+01
 -1      1453 1.03843E+01
 -1      1454 2.43111E+01
 -1      1455 2.43111E+01
 -1      1456 2.43111E+01
 -1      1457 1.92057E+01
 -1      1458 1.41003E+01
 -1      1459 1.41003E+01
 -1      1460 1.41003E+01
 -1      1461 1.37630E+01
 -1      1462 1.34257E+01
 -1      1463 1.34257E+01
 -1      1464 1.34257E+01
 -1      1465 2.43111E+01
 -1      1466 2.43111E+01
 -1      1467 1.41003E+01
 -1      1468 1.41003E+01
 -1      1469 1.34257E+01
 -1      1470 1.34257E+01
 -1      1471 2.43111E+01
 -1      1472 2.43111E+01
 -1      1473 2.43111E+01
 -1      1474 1.92057E+01
 -1      1475 1.41003E+01
 -1      1476 1.41003E+01
 -1      1477 1.41003E+01
 -1      1478 1.37630E+01
 -1      1479 1.34257E+01
 -1      1480 1.34257E+01
 -1      1481 1.34257E+01
 -3
    1PSTEP                        33           1           1          
    1PGM                1.000000E+00                                  
    1PGK                2.003583E+12                                  
    1PHID                         -1                                  
    1PSUBC                         0                                  
    1PMODE                         9                                  
  100CL  109 225280.6251        1481                     2    9MODAL      1
 -4  DISP        4    1
 -5  D1          1    2    1    0
 -5  D2          1    2    2    0
 -5  D3          1    2    3    0
 -5  ALL         1    2    0    0    1ALL
 -1         1-1.14324E+02 1.64700E+02-2.74668E+02
 -1         2-1.11704E+02 1.67395E+02-4.19203E+02
 -1         3-1.05874E+02 1.72014E+02-5.60634E+02
 -1         4-9.73435E+01 1.75699E+02-6.92829E+02
 -1         5-8.63589E+01 1.79573E+02-8.13117E+02
 -1         6-7.24059E+01 1.83749E+02-9.17907E+02
 -1         7-5.65514E+01 1.88172E+02-1.00393E+03
 -1         8-4.12531E+01 1.92397E+02-1.06815E+03
 -1         9-2.59159E+01 1.94421E+02-1.11312E+03
 -1        10 2.83599E-01 1.95559E+02-1.13386E+03
 -1        11 2.25400E+01 2.17771E+02-1.14046E+03
 -1        12-1.12102E+02 1.64740E+02-6.97777E+01
 -1        13-1.05344E+02 1.69500E+02-3.46289E+02
 -1        14-8.56115E+01 1.75346E+02-5.90402E+02
 -1        15-5.56622E+01 1.82819E+02-7.70391E+02
 -1        16-2.37106E+01 1.90235E+02-8.71130E+02
 -1        17-4.83202E+00 2.01978E+02-8.99201E+02
 -1        18-1.10418E+02 1.63452E+02 1.36291E+02
 -1        19-1.08125E+02 1.63913E+02-1.25642E+00
 -1        20-1.03413E+02 1.65103E+02-1.34964E+02
 -1        21-9.45459E+01 1.66739E+02-2.60472E+02
 -1        22-8.29505E+01 1.68892E+02-3.73064E+02
 -1        23-6.81684E+01 1.71593E+02-4.68734E+02
 -1        24-5.20877E+01 1.74898E+02-5.44604E+02
 -1        25-3.55908E+01 1.79424E+02-5.98748E+02
 -1        26-2.05154E+01 1.84294E+02-6.32478E+02
 -1        27-1.15911E+01 1.88187E+02-6.49990E+02
 -1        28-7.42866E+00 1.88032E+02-6.58849E+02
 -1        29-1.11558E+02 1.56318E+02 3.39835E+02
 -1        30-1.02793E+02 1.56122E+02 6.85295E+01
 -1        31-8.13018E+01 1.57252E+02-1.66320E+02
 -1        32-4.84155E+01 1.61577E+02-3.30548E+02
 -1        33-1.51388E+01 1.71126E+02-4.06272E+02
 -1        34 5.51258E-01 1.79775E+02-4.19247E+02
 -1        35-1.13789E+02 1.45036E+02 5.32778E+02
 -1        36-1.09351E+02 1.44808E+02 3.92666E+02
 -1        37-1.03333E+02 1.43567E+02 2.58625E+02
 -1        38-9.38293E+01 1.42422E+02 1.33875E+02
 -1        39-8.12089E+01 1.41508E+02 2.33305E+01
 -1        40-6.42223E+01 1.41164E+02-6.84826E+01
 -1        41-4.54619E+01 1.42740E+02-1.37322E+02
 -1        42-2.58772E+01 1.46179E+02-1.80250E+02
 -1        43-7.26511E+00 1.52074E+02-1.99627E+02
 -1        44 3.77245E+00 1.61796E+02-1.97375E+02
 -1        45 1.08181E+01 1.64148E+02-1.88910E+02
 -1        46-1.16156E+02 1.29426E+02 7.08196E+02
 -1        47-1.05213E+02 1.26819E+02 4.29694E+02
 -1        48-8.32087E+01 1.20411E+02 1.89304E+02
 -1        49-4.43120E+01 1.15919E+02 2.73029E+01
 -1        50 8.78644E-01 1.22562E+02-2.10540E+01
 -1        51 2.88818E+01 1.37845E+02 2.87189E+01
 -1        52-1.18290E+02 1.12263E+02 8.61821E+02
 -1        53-1.13582E+02 1.11243E+02 7.17077E+02
 -1        54-1.08186E+02 1.08322E+02 5.78320E+02
 -1        55-1.00152E+02 1.03927E+02 4.46306E+02
 -1        56-8.86843E+01 9.76057E+01 3.27174E+02
 -1        57-7.04991E+01 9.01205E+01 2.26145E+02
 -1        58-4.63649E+01 8.31685E+01 1.53131E+02
 -1        59-1.72131E+01 8.13322E+01 1.14900E+02
 -1        60 7.81002E+00 8.65236E+01 1.13970E+02
 -1        61 3.19945E+01 9.33512E+01 1.44026E+02
 -1        62 5.08668E+01 9.06938E+01 2.08983E+02
 -1        63-1.18675E+02 9.44941E+01 9.91422E+02
 -1        64-1.12192E+02 9.08021E+01 7.02432E+02
 -1        65-9.79438E+01 7.48969E+01 4.33953E+02
 -1        66-5.60637E+01 4.64886E+01 2.33467E+02
 -1        67 1.50068E+01 3.35538E+01 1.91502E+02
 -1        68 8.03785E+01 4.40311E+01 3.13185E+02
 -1        69-1.18112E+02 7.80865E+01 1.09597E+03
 -1        70-1.15860E+02 7.92783E+01 9.50865E+02
 -1        71-1.16167E+02 7.71691E+01 8.06708E+02
 -1        72-1.16206E+02 6.85910E+01 6.59256E+02
 -1        73-1.10931E+02 5.43777E+01 5.13971E+02
 -1        74-9.60067E+01 3.65528E+01 3.78720E+02
 -1        75-7.52117E+01 1.59143E+01 2.68075E+02
 -1        76-3.71659E+01-9.39466E+00 1.94657E+02
 -1        77 1.91051E+01-3.57683E+01 1.86122E+02
 -1        78 5.33451E+01-4.72195E+01 2.64697E+02
 -1        79 7.92483E+01-2.30783E+01 3.61814E+02
 -1        80-1.04207E+02 7.98373E+01 1.17508E+03
 -1        81-1.19886E+02 7.03741E+01 8.98794E+02
 -1        82-1.28168E+02 4.52482E+01 5.71694E+02
 -1        83-9.79492E+01-8.31920E+00 2.65615E+02
 -1        84 1.81451E+00-7.60211E+01 8.31846E+01
 -1        85 1.37093E+02-3.81274E+02 2.67724E+02
 -1        86-6.55502E+01 9.26787E+01 1.24627E+03
 -1        87-9.26545E+01 6.99324E+01 1.12747E+03
 -1        88-1.22597E+02 6.99123E+01 9.84393E+02
 -1        89-1.30925E+02 6.06374E+01 8.12786E+02
 -1        90-1.32662E+02 4.23707E+01 6.27375E+02
 -1        91-1.26622E+02 1.33888E+01 4.25814E+02
 -1        92-1.00182E+02-2.35321E+01 2.31871E+02
 -1        93-7.38945E+01-7.34510E+01 8.22420E+01
 -1        94-3.10169E+01-9.97086E+01-4.45008E+01
 -1        95 2.89595E+02-2.10087E+02-8.29946E+01
 -1        96 6.54716E+02-7.66863E+02 1.23578E+01
 -1        97-9.21219E+01 1.32268E+02-2.74652E+02
 -1        98-8.44795E+01 1.38184E+02-5.60945E+02
 -1        99-6.88316E+01 1.44324E+02-8.13671E+02
 -1       100-4.52248E+01 1.51158E+02-1.00461E+03
 -1       101-2.15127E+01 1.56390E+02-1.11395E+03
 -1       102 2.68245E+01 1.81594E+02-1.14042E+03
 -1       103-8.87339E+01 1.31141E+02 1.36426E+02
 -1       104-8.29449E+01 1.32410E+02-1.34995E+02
 -1       105-6.65236E+01 1.35422E+02-3.73316E+02
 -1       106-4.18308E+01 1.40264E+02-5.44937E+02
 -1       107-1.68295E+01 1.47508E+02-6.32750E+02
 -1       108-6.05264E+00 1.50551E+02-6.58598E+02
 -1       109-9.14192E+01 1.16115E+02 5.33309E+02
 -1       110-8.28865E+01 1.15100E+02 2.59048E+02
 -1       111-6.51598E+01 1.13459E+02 2.35347E+01
 -1       112-3.64968E+01 1.14304E+02-1.37133E+02
 -1       113-6.43849E+00 1.21683E+02-1.99213E+02
 -1       114 8.94986E+00 1.29947E+02-1.87516E+02
 -1       115-9.51383E+01 9.00282E+01 8.62552E+02
 -1       116-8.68311E+01 8.71182E+01 5.79046E+02
 -1       117-7.10730E+01 7.82573E+01 3.27659E+02
 -1       118-3.77503E+01 6.72446E+01 1.53617E+02
 -1       119 6.38450E+00 6.74368E+01 1.14362E+02
 -1       120 3.97904E+01 7.26888E+01 2.11282E+02
 -1       121-9.46049E+01 6.33372E+01 1.09653E+03
 -1       122-9.34762E+01 6.18581E+01 8.07492E+02
 -1       123-8.86609E+01 4.43407E+01 5.14281E+02
 -1       124-5.85734E+01 1.28435E+01 2.68641E+02
 -1       125 9.96261E+00-2.35353E+01 1.86816E+02
 -1       126 6.80467E+01-1.14501E+01 3.68287E+02
 -1       127-4.29458E+01 8.31912E+01 1.24613E+03
 -1       128-9.89231E+01 5.67585E+01 9.85168E+02
 -1       129-1.04255E+02 3.38516E+01 6.26848E+02
 -1       130-7.81365E+01-1.76387E+01 2.30570E+02
 -1       131-2.76447E+01-8.47392E+01-4.93363E+01
 -1       132 6.87637E+02-7.81337E+02 1.22224E+01
 -1       133-7.03696E+01 9.94753E+01-2.74599E+02
 -1       134-6.77871E+01 1.01594E+02-4.19589E+02
 -1       135-6.33023E+01 1.04443E+02-5.61193E+02
 -1       136-5.84805E+01 1.06738E+02-6.93498E+02
 -1       137-5.16503E+01 1.09048E+02-8.14088E+02
 -1       138-4.31950E+01 1.11470E+02-9.18843E+02
 -1       139-3.39750E+01 1.14210E+02-1.00514E+03
 -1       140-2.46163E+01 1.16985E+02-1.06916E+03
 -1       141-1.77669E+01 1.18236E+02-1.11460E+03
 -1       142 5.74153E+00 1.18869E+02-1.13661E+03
 -1       143 3.28850E+01 1.45689E+02-1.14035E+03
 -1       144-6.80486E+01 9.98495E+01-6.97884E+01
 -1       145-6.36143E+01 1.02815E+02-3.46595E+02
 -1       146-5.17384E+01 1.06426E+02-5.91147E+02
 -1       147-3.39256E+01 1.10871E+02-7.71457E+02
 -1       148-1.42766E+01 1.15722E+02-8.71936E+02
 -1       149-2.99323E+00 1.26392E+02-8.97575E+02
 -1       150-6.69762E+01 9.90720E+01 1.36524E+02
 -1       151-6.56684E+01 9.92176E+01-1.10645E+00
 -1       152-6.25716E+01 9.98833E+01-1.35012E+02
 -1       153-5.72670E+01 1.00859E+02-2.60737E+02
 -1       154-5.01430E+01 1.02163E+02-3.73501E+02
 -1       155-4.13522E+01 1.03832E+02-4.69277E+02
 -1       156-3.15801E+01 1.05773E+02-5.45169E+02
 -1       157-2.19608E+01 1.08288E+02-5.99362E+02
 -1       158-1.29165E+01 1.11210E+02-6.32965E+02
 -1       159-6.74733E+00 1.14078E+02-6.49918E+02
 -1       160-4.85191E+00 1.12842E+02-6.58316E+02
 -1       161-6.76481E+01 9.45010E+01 3.40483E+02
 -1       162-6.22115E+01 9.46061E+01 6.88642E+01
 -1       163-4.91810E+01 9.52622E+01-1.66358E+02
 -1       164-2.93478E+01 9.78727E+01-3.30657E+02
 -1       165-9.82547E+00 1.03391E+02-4.06001E+02
 -1       166 4.46113E-01 1.07277E+02-4.18263E+02
 -1       167-6.91174E+01 8.74121E+01 5.33713E+02
 -1       168-6.63644E+01 8.75764E+01 3.93522E+02
 -1       169-6.25321E+01 8.68140E+01 2.59368E+02
 -1       170-5.69547E+01 8.61140E+01 1.34424E+02
 -1       171-4.91495E+01 8.55471E+01 2.36939E+01
 -1       172-3.89944E+01 8.52598E+01-6.81851E+01
 -1       173-2.75738E+01 8.62281E+01-1.36974E+02
 -1       174-1.61321E+01 8.81040E+01-1.79746E+02
 -1       175-5.16925E+00 9.11036E+01-1.98865E+02
 -1       176 2.35263E+00 9.74733E+01-1.96174E+02
 -1       177 6.84797E+00 9.77458E+01-1.86357E+02
 -1       178-7.05538E+01 7.83334E+01 7.09392E+02
 -1       179-6.37184E+01 7.69071E+01 4.30672E+02
 -1       180-5.03226E+01 7.29392E+01 1.89998E+02
 -1       181-2.73733E+01 7.03607E+01 2.77451E+01
 -1       182 4.23867E-01 7.37136E+01-1.96592E+01
 -1       183 1.63812E+01 7.79041E+01 2.97471E+01
 -1       184-7.18197E+01 6.80363E+01 8.63081E+02
 -1       185-6.91061E+01 6.73914E+01 7.18338E+02
 -1       186-6.55617E+01 6.58721E+01 5.79611E+02
 -1       187-6.06775E+01 6.30598E+01 4.47327E+02
 -1       188-5.36753E+01 5.90869E+01 3.28026E+02
 -1       189-4.30096E+01 5.50277E+01 2.27104E+02
 -1       190-2.87687E+01 5.09999E+01 1.53992E+02
 -1       191-1.00704E+01 4.80667E+01 1.15754E+02
 -1       192 4.36417E+00 4.96205E+01 1.14414E+02
 -1       193 1.73779E+01 5.89082E+01 1.48496E+02
 -1       194 3.02089E+01 5.33147E+01 2.13333E+02
 -1       195-7.22336E+01 5.75128E+01 9.92577E+02
 -1       196-6.80704E+01 5.48991E+01 7.03733E+02
 -1       197-5.89915E+01 4.58686E+01 4.34725E+02
 -1       198-3.28263E+01 2.76224E+01 2.34300E+02
 -1       199 5.47325E+00 2.59286E+01 1.93849E+02
 -1       200 5.02664E+01 2.35661E+01 3.16796E+02
 -1       201-7.15315E+01 4.77849E+01 1.09694E+03
 -1       202-6.96844E+01 4.92244E+01 9.51972E+02
 -1       203-7.07148E+01 4.67721E+01 8.08107E+02
 -1       204-7.07830E+01 4.20046E+01 6.60236E+02
 -1       205-6.61755E+01 3.37995E+01 5.14459E+02
 -1       206-5.76223E+01 2.25549E+01 3.78941E+02
 -1       207-4.29355E+01 1.02970E+01 2.69334E+02
 -1       208-2.77829E+01-2.16330E+00 1.94525E+02
 -1       209 5.30564E+00-1.55665E+01 1.87345E+02
 -1       210 4.08956E+01-3.79864E+01 2.68731E+02
 -1       211 5.32174E+01 1.31880E+01 3.74056E+02
 -1       212-6.34813E+01 5.39770E+01 1.17389E+03
 -1       213-7.19841E+01 4.33793E+01 8.99789E+02
 -1       214-7.72741E+01 2.72849E+01 5.72157E+02
 -1       215-6.13641E+01-2.86539E+00 2.63109E+02
 -1       216 1.15137E+01-5.53427E+01 8.12286E+01
 -1       217 8.45901E+01-3.35478E+02 3.12369E+02
 -1       218-1.77083E+01 7.31985E+01 1.24582E+03
 -1       219-4.96567E+01 4.29884E+01 1.13085E+03
 -1       220-7.62607E+01 4.34341E+01 9.85773E+02
 -1       221-7.70768E+01 3.70774E+01 8.12937E+02
 -1       222-7.78762E+01 2.57323E+01 6.26374E+02
 -1       223-6.91310E+01 9.14803E+00 4.25882E+02
 -1       224-5.58229E+01-1.36451E+01 2.29277E+02
 -1       225-3.87512E+01-4.50924E+01 8.00403E+01
 -1       226-3.79511E+01-6.50387E+01-5.36816E+01
 -1       227 2.78595E+02-1.29364E+02-1.24364E+02
 -1       228 7.37557E+02-8.18812E+02 1.19158E+01
 -1       229-5.15894E+01 6.43820E+01-2.74169E+02
 -1       230-4.26573E+01 7.06449E+01-5.61250E+02
 -1       231-3.50867E+01 7.37181E+01-8.14371E+02
 -1       232-2.20331E+01 7.78080E+01-1.00496E+03
 -1       233-1.29739E+01 8.04014E+01-1.11411E+03
 -1       234 5.58935E+01 1.13709E+02-1.13939E+03
 -1       235-4.54221E+01 6.70889E+01 1.36662E+02
 -1       236-4.20323E+01 6.78175E+01-1.35162E+02
 -1       237-3.40474E+01 6.90507E+01-3.73667E+02
 -1       238-2.11263E+01 7.16892E+01-5.45348E+02
 -1       239-1.05822E+01 7.42883E+01-6.33561E+02
 -1       240-1.73458E+00 7.50828E+01-6.59269E+02
 -1       241-4.70728E+01 5.89540E+01 5.34070E+02
 -1       242-4.24458E+01 5.86642E+01 2.59648E+02
 -1       243-3.32993E+01 5.79495E+01 2.38267E+01
 -1       244-1.84356E+01 5.81432E+01-1.36929E+02
 -1       245-4.55306E+00 6.28783E+01-1.98194E+02
 -1       246 4.20432E+00 6.85702E+01-1.84839E+02
 -1       247-4.72635E+01 4.64550E+01 8.63642E+02
 -1       248-4.41655E+01 4.48048E+01 5.79876E+02
 -1       249-3.62032E+01 3.96645E+01 3.28358E+02
 -1       250-2.00630E+01 3.50769E+01 1.54226E+02
 -1       251 5.44046E+00 2.84769E+01 1.15385E+02
 -1       252 3.60082E+01 2.18583E+01 2.06010E+02
 -1       253-4.75662E+01 3.21016E+01 1.09775E+03
 -1       254-5.01002E+01 3.07754E+01 8.09162E+02
 -1       255-4.53316E+01 2.44316E+01 5.14425E+02
 -1       256-2.47443E+01 3.98756E+00 2.68690E+02
 -1       257-2.25817E+01 1.96310E+01 1.88838E+02
 -1       258 4.53460E+01 2.29074E+01 3.62817E+02
 -1       259 2.87728E+01 6.54987E+01 1.24347E+03
 -1       260-5.18666E+01 2.87144E+01 9.85655E+02
 -1       261-5.33655E+01 1.96392E+01 6.24532E+02
 -1       262-2.45808E+01-2.67607E+01 2.36025E+02
 -1       263-3.80849E+01-5.52665E+01-4.25482E+01
 -1       264 9.80377E+02-1.09112E+03 8.68716E+00
 -1       265 0.00000E+00 0.00000E+00 0.00000E+00
 -1       266 0.00000E+00 0.00000E+00 0.00000E+00
 -1       267 0.00000E+00 0.00000E+00 0.00000E+00
 -1       268 0.00000E+00 0.00000E+00 0.00000E+00
 -1       269 0.00000E+00 0.00000E+00 0.00000E+00
 -1       270 0.00000E+00 0.00000E+00 0.00000E+00
 -1       271 0.00000E+00 0.00000E+00 0.00000E+00
 -1       272 0.00000E+00 0.00000E+00 0.00000E+00
 -1       273 0.00000E+00 0.00000E+00 0.00000E+00
 -1       274 0.00000E+00 0.00000E+00 0.00000E+00
 -1       275 0.00000E+00 0.00000E+00 0.00000E+00
 -1       276 0.00000E+00 0.00000E+00 0.00000E+00
 -1       277 0.00000E+00 0.00000E+00 0.00000E+00
 -1       278 0.00000E+00 0.00000E+00 0.00000E+00
 -1       279 0.00000E+00 0.00000E+00 0.00000E+00
 -1       280-1.49052E+01 3.63463E+01 1.33379E+02
 -1       281-1.25194E+01-8.99257E+00-2.30949E+01
 -1       282-1.36095E+01-4.99013E+01-1.59879E+02
 -1       283-1.93262E+01-1.05220E+02-3.43815E+02
 -1       284-2.50144E+01-2.04231E+02-6.01569E+02
 -1       285 1.73430E+01-2.03038E+02-6.13372E+02
 -1       286 4.20357E+01-9.68727E+01-2.93844E+02
 -1       287 5.36007E+01 5.43389E+01 2.36483E+02
 -1       288-4.87299E+01 5.81577E+01 4.36464E+02
 -1       289-4.61486E+01 2.26288E+01 1.60202E+02
 -1       290-4.21156E+01-1.70936E+01-9.36700E+01
 -1       291-4.07308E+01-5.43027E+01-3.37946E+02
 -1       292-4.15710E+01-9.43356E+01-5.85406E+02
 -1       293-5.39449E+01-1.33851E+02-8.58050E+02
 -1       294-7.29303E+01-1.77063E+02-1.19938E+03
 -1       295-8.74957E+01-2.81212E+02-1.76109E+03
 -1       296-7.07526E+01-3.96860E+02-2.36044E+03
 -1       297 4.33543E+00-4.02762E+02-2.50729E+03
 -1       298 6.63686E+01-3.61786E+02-2.30893E+03
 -1       299 1.04635E+02-2.78235E+02-1.80517E+03
 -1       300 1.37961E+02-1.70695E+02-1.08469E+03
 -1       301 1.53496E+02-4.39532E+01-2.46866E+02
 -1       302 1.67590E+02 7.59498E+01 6.86792E+02
 -1       303-8.13177E+01 3.68165E+01 7.30897E+02
 -1       304-7.93492E+01-1.90500E+01-2.03135E+02
 -1       305-8.45380E+01-9.87011E+01-1.14648E+03
 -1       306-8.99100E+01-1.59320E+02-2.15601E+03
 -1       307-2.93909E+01-5.17195E+02-5.10952E+03
 -1       308 1.54535E+02-3.82534E+02-4.49404E+03
 -1       309 2.61171E+02-1.55132E+02-2.05524E+03
 -1       310 2.82922E+02 7.04596E+01 1.15664E+03
 -1       311-8.50004E+01-5.37861E+01 1.97513E+03
 -1       312-9.07477E+01-2.04969E+01 1.45294E+03
 -1       313-9.99717E+01 3.36742E+00 8.76944E+02
 -1       314-1.02284E+02-7.83750E-01 2.96223E+02
 -1       315-1.08346E+02-1.41889E+01-3.06802E+02
 -1       316-1.17394E+02-5.64581E+01-1.00102E+03
 -1       317-1.20163E+02-9.82841E+01-1.72272E+03
 -1       318-1.13686E+02-1.29963E+02-2.40195E+03
 -1       319-1.05722E+02-1.42900E+02-3.03970E+03
 -1       320 2.24787E+01-5.93604E+02-8.37499E+03
 -1       321 1.29805E+02-5.07053E+02-7.91886E+03
 -1       322 2.80426E+02-3.83200E+02-6.72600E+03
 -1       323 3.33669E+02-2.40317E+02-4.92884E+03
 -1       324 3.76631E+02-1.15917E+02-2.82124E+03
 -1       325 3.86207E+02-1.00765E+01-6.05842E+02
 -1       326 3.80913E+02 5.44591E+01 1.60510E+03
 -1       327 3.60604E+02 3.75992E+01 3.80705E+03
 -1       328 3.57959E+02-4.02848E+01 5.93603E+03
 -1       329-4.80116E+01-5.79264E+01 1.63876E+03
 -1       330-9.21788E+01-1.52993E+01 8.34086E+02
 -1       331-1.10062E+02-4.94785E+00-3.39925E+02
 -1       332 4.42819E+02-2.41084E+02-8.59422E+03
 -1       333 4.80553E+02-1.43618E+01-3.22406E+03
 -1       334 4.08387E+02 6.36418E+01 1.93149E+03
 -1       335 2.27315E+02-5.94975E+01 5.58711E+03
 -1       336 0.00000E+00 0.00000E+00 0.00000E+00
 -1       337 5.57719E+01-9.46277E+00 1.88069E+02
 -1       338 9.34909E+01-3.33306E+01 6.46617E+02
 -1       339 5.19080E+01-5.56636E+01 1.09233E+03
 -1       340-7.67362E+00-6.40317E+01 1.25429E+03
 -1       341-4.73967E+01-4.47266E+01 1.08299E+03
 -1       342-8.09664E+01-2.83682E+01 6.98245E+02
 -1       343-9.14873E+01-1.59322E+01 2.05504E+02
 -1       344-1.01780E+02-4.73930E+00-3.61880E+02
 -1       345 5.86254E+02-1.38995E+02-9.74361E+03
 -1       346 5.64063E+02-2.55698E+01-6.35848E+03
 -1       347 5.27159E+02 1.05325E+02-3.05455E+03
 -1       348 4.53131E+02 7.59502E+01-1.96568E+02
 -1       349 4.12363E+02 6.64273E+01 2.28013E+03
 -1       350 2.43576E+02 3.12800E+01 4.22567E+03
 -1       351 5.01845E+01-6.36490E+01 5.14621E+03
 -1       352-2.15721E+02-8.40143E+01 4.53249E+03
 -1       353-4.04730E+02-3.74663E+01 2.62005E+03
 -1       354-2.33066E+02-1.28111E+01 7.41985E+02
 -1       355 0.00000E+00 0.00000E+00 0.00000E+00
 -1       356 0.00000E+00 0.00000E+00 0.00000E+00
 -1       357 6.87385E+01-3.07231E+01 4.60827E+02
 -1       358 1.43363E+00-5.72819E+01 9.09431E+02
 -1       359-6.52589E+01-3.27188E+01 5.28837E+02
 -1       360-7.87089E+01 6.28301E+00-3.53350E+02
 -1       361 3.50032E+02 1.48695E+02-2.01393E+03
 -1       362 4.20990E+02 5.02567E+01 2.65981E+03
 -1       363-3.69581E+01 2.33007E+01 5.02068E+03
 -1       364-3.69349E+02-2.89349E+01 2.42430E+03
 -1       365 0.00000E+00 0.00000E+00 0.00000E+00
 -1       366 0.00000E+00 0.00000E+00 0.00000E+00
 -1       367 2.54556E+01-8.14111E+00 8.50853E+01
 -1       368 4.36980E+01-2.69223E+01 2.95093E+02
 -1       369 2.54007E+01-4.60664E+01 5.00960E+02
 -1       370 4.02265E+00-5.39061E+01 5.89678E+02
 -1       371-2.36725E+01-5.03961E+01 5.35465E+02
 -1       372-5.12926E+01-3.77149E+01 3.18031E+02
 -1       373-5.28417E+01-1.33968E+01 1.13596E+01
 -1       374-3.33688E+01 2.88291E+01-2.73993E+02
 -1       375-2.47086E+01 3.57142E+01-4.20191E+02
 -1       376-2.19578E+01 3.69940E+01-5.61193E+02
 -1       377-2.04786E+01 3.81215E+01-6.94032E+02
 -1       378-1.87592E+01 3.83938E+01-8.14540E+02
 -1       379-1.47093E+01 3.95390E+01-9.19197E+02
 -1       380-1.00017E+01 4.13457E+01-1.00472E+03
 -1       381-1.11577E+01 4.07628E+01-1.07046E+03
 -1       382-9.18936E+00 4.27629E+01-1.11331E+03
 -1       383 9.61406E+00 4.20183E+01-1.14248E+03
 -1       384 8.10159E+01 8.11171E+01-1.13931E+03
 -1       385 3.58535E+02 2.65896E+01 4.49065E+02
 -1       386 4.87615E+02 6.41417E+01 2.99363E+03
 -1       387 2.08252E+02 1.21177E+02 5.06381E+03
 -1       388-1.21946E+02 1.09316E+02 5.42903E+03
 -1       389-2.71089E+02 3.29900E+01 4.19929E+03
 -1       390-3.66814E+02-1.68542E+01 2.31977E+03
 -1       391-2.03519E+02-1.52635E+00 6.31515E+02
 -1       392 0.00000E+00 0.00000E+00 0.00000E+00
 -1       393 0.00000E+00 0.00000E+00 0.00000E+00
 -1       394 1.99227E+01-2.71324E+01 1.37811E+02
 -1       395 1.42879E+00-5.79997E+01 2.63423E+02
 -1       396-2.92041E+01-4.28717E+01 9.40575E+01
 -1       397-2.44516E+01 3.48284E+01-7.00407E+01
 -1       398-2.30685E+01 3.59164E+01-3.46482E+02
 -1       399-1.80384E+01 3.78395E+01-5.91423E+02
 -1       400-1.27095E+01 3.91817E+01-7.71963E+02
 -1       401-3.00836E-01 4.29402E+01-8.70900E+02
 -1       402 1.49196E+00 4.82985E+01-8.94780E+02
 -1       403-2.74520E+02 1.70923E+02 6.29554E+03
 -1       404-3.78754E+02 6.47435E+01 2.42074E+03
 -1       405 0.00000E+00 0.00000E+00 0.00000E+00
 -1       406 0.00000E+00 0.00000E+00 0.00000E+00
 -1       407-1.49162E+00-9.51219E+00-9.32223E+00
 -1       408-6.26185E+00-2.84815E+01-2.73151E+01
 -1       409-5.98971E+00-5.25357E+01-6.23572E+01
 -1       410-2.20379E+00-6.34270E+01-8.94059E+01
 -1       411-7.36263E+00-6.01838E+01-1.13060E+02
 -1       412-1.06865E+01-4.65472E+01-1.60420E+02
 -1       413-2.37139E+01 3.53419E+01 1.36827E+02
 -1       414-2.39795E+01 3.47232E+01-7.70257E-01
 -1       415-2.15968E+01 3.58004E+01-1.35316E+02
 -1       416-2.01866E+01 3.57299E+01-2.60910E+02
 -1       417-1.79506E+01 3.60347E+01-3.73777E+02
 -1       418-1.44775E+01 3.69047E+01-4.69439E+02
 -1       419-1.07347E+01 3.77157E+01-5.45430E+02
 -1       420-8.70898E+00 3.77934E+01-5.99580E+02
 -1       421-7.91141E+00 3.75360E+01-6.34161E+02
 -1       422 2.33989E+00 4.31076E+01-6.49670E+02
 -1       423 7.45889E-01 3.73598E+01-6.60001E+02
 -1       424-3.30913E+02 1.98391E+02 7.38873E+03
 -1       425-3.76843E+02 1.54049E+02 5.29094E+03
 -1       426-4.44402E+02 1.84327E+02 3.03243E+03
 -1       427-2.51052E+02 7.05456E+01 9.95194E+02
 -1       428 0.00000E+00 0.00000E+00 0.00000E+00
 -1       429 0.00000E+00 0.00000E+00 0.00000E+00
 -1       430-3.45473E+01-4.43244E+01-2.35414E+02
 -1       431-1.21737E+01-7.64256E+01-4.98278E+02
 -1       432-2.38014E+01 3.35927E+01 3.40687E+02
 -1       433-2.20059E+01 3.35651E+01 6.90159E+01
 -1       434-1.74727E+01 3.37776E+01-1.66413E+02
 -1       435-1.01566E+01 3.45851E+01-3.30736E+02
 -1       436-4.96864E+00 3.70574E+01-4.06116E+02
 -1       437-4.35054E+00 3.86189E+01-4.16166E+02
 -1       438-9.84454E+02 7.92575E+02 6.36224E+03
 -1       439 0.00000E+00 0.00000E+00 0.00000E+00
 -1       440 0.00000E+00 0.00000E+00 0.00000E+00
 -1       441-4.72788E+01-1.90125E+01-1.64849E+02
 -1       442-7.13003E+01-6.73945E+01-5.33633E+02
 -1       443-3.70788E+01-7.67911E+01-8.19543E+02
 -1       444-1.22858E+01-8.38064E+01-9.61326E+02
 -1       445-2.51246E+01 3.06096E+01 5.34271E+02
 -1       446-2.31595E+01 3.11345E+01 3.93917E+02
 -1       447-2.23684E+01 3.05976E+01 2.59844E+02
 -1       448-2.02998E+01 3.05147E+01 1.34697E+02
 -1       449-1.74962E+01 3.04420E+01 2.39136E+01
 -1       450-1.36106E+01 2.99431E+01-6.80904E+01
 -1       451-9.25551E+00 3.01922E+01-1.36924E+02
 -1       452-6.63138E+00 3.17776E+01-1.79073E+02
 -1       453-3.80728E+00 3.46189E+01-1.97572E+02
 -1       454 3.78365E+00 3.11462E+01-1.97309E+02
 -1       455 1.78821E+00 4.03792E+01-1.83642E+02
 -1       456-1.91054E+03 1.48338E+03 1.25442E+04
 -1       457-1.11044E+03 4.15320E+02 3.62728E+03
 -1       458 0.00000E+00 0.00000E+00 0.00000E+00
 -1       459 0.00000E+00 0.00000E+00 0.00000E+00
 -1       460-1.71120E+02-8.59219E+01-1.07086E+03
 -1       461-2.45670E+01 2.79046E+01 7.10015E+02
 -1       462-2.23718E+01 2.73751E+01 4.31059E+02
 -1       463-1.76638E+01 2.55753E+01 1.90386E+02
 -1       464-1.05202E+01 2.53377E+01 2.80178E+01
 -1       465 3.74926E+00 2.20282E+01-1.89463E+01
 -1       466 1.08111E+01 1.86373E+01 2.87850E+01
 -1       467-3.72580E+03 1.64659E+03 2.31670E+04
 -1       468 0.00000E+00 0.00000E+00 0.00000E+00
 -1       469 0.00000E+00 0.00000E+00 0.00000E+00
 -1       470-1.43413E+02-2.62514E+01-4.22112E+02
 -1       471-2.82163E+02-7.99132E+01-1.66093E+03
 -1       472-3.73850E+02-7.09573E+01-3.62887E+03
 -1       473-4.38229E+02-2.91863E+01-6.02214E+03
 -1       474-2.25179E+01 2.48767E+01 8.64108E+02
 -1       475-2.50498E+01 2.36258E+01 7.19212E+02
 -1       476-2.28869E+01 2.37726E+01 5.79986E+02
 -1       477-2.12712E+01 2.22742E+01 4.47915E+02
 -1       478-1.87739E+01 2.02766E+01 3.28583E+02
 -1       479-1.57202E+01 2.02449E+01 2.27562E+02
 -1       480-1.12956E+01 1.90624E+01 1.54367E+02
 -1       481-2.10990E+00 1.53356E+01 1.15983E+02
 -1       482 6.24329E+00 8.02072E+00 1.15962E+02
 -1       483 1.22535E+00 3.08621E+01 1.49395E+02
 -1       484 4.19747E+01-1.05964E+01 1.98637E+02
 -1       485-8.79859E+03 7.36516E+01 1.22369E+05
 -1       486-7.58481E+03 8.76612E+02 7.41479E+04
 -1       487-5.75380E+03 1.33131E+03 3.40298E+04
 -1       488-2.95454E+03 4.57937E+02 8.62868E+03
 -1       489 0.00000E+00 0.00000E+00 0.00000E+00
 -1       490 0.00000E+00 0.00000E+00 0.00000E+00
 -1       491-3.14654E+02-3.55053E+01-1.96274E+03
 -1       492-3.60062E+02 3.33519E+01-5.98869E+03
 -1       493-2.90274E+01 1.94816E+01 9.92779E+02
 -1       494-2.47680E+01 1.87493E+01 7.04946E+02
 -1       495-2.13479E+01 1.73547E+01 4.34689E+02
 -1       496-9.87457E+00 8.30964E+00 2.35068E+02
 -1       497-8.97665E+00 2.70062E+01 1.89553E+02
 -1       498-1.67334E+01 4.59070E+01 3.32347E+02
 -1       499-7.39642E+03-1.39730E+03 1.18228E+05
 -1       500-6.08430E+03 2.63772E+02 3.79551E+04
 -1       501 0.00000E+00 0.00000E+00 0.00000E+00
 -1       502 0.00000E+00 0.00000E+00 0.00000E+00
 -1       503-1.81508E+02-2.31487E+00-5.60113E+02
 -1       504-3.21460E+02-1.17301E+00-2.06758E+03
 -1       505-3.01168E+02 3.47545E+01-3.90371E+03
 -1       506-2.51696E+02 1.17374E+02-5.53105E+03
 -1       507-6.09034E+01 2.30372E+02-6.44499E+03
 -1       508 7.16880E+01 3.70021E+02-6.44928E+03
 -1       509-2.43634E+01 1.62421E+01 1.09819E+03
 -1       510-1.80057E+01 1.95285E+01 9.52392E+02
 -1       511-2.91791E+01 1.47959E+01 8.10108E+02
 -1       512-2.72678E+01 1.53630E+01 6.60536E+02
 -1       513-2.45070E+01 1.48401E+01 5.14261E+02
 -1       514-1.64199E+01 4.32588E+00 3.78669E+02
 -1       515-6.94211E+00-1.86774E+00 2.68162E+02
 -1       516-2.59512E+01 1.10129E+01 2.00541E+02
 -1       517-4.72290E+01 5.09492E+01 1.90277E+02
 -1       518 8.81460E+01-8.73752E+01 2.51942E+02
 -1       519 3.45191E+01 4.55691E+01 3.50891E+02
 -1       520-6.90476E+02-8.20191E+03 1.38378E+05
 -1       521-2.64774E+03-5.78995E+03 1.28008E+05
 -1       522-5.42970E+03-3.44055E+03 1.04021E+05
 -1       523-5.80707E+03-1.65400E+03 7.11437E+04
 -1       524-5.78456E+03-5.88207E+02 3.70509E+04
 -1       525-3.25603E+03-1.38992E+02 9.93349E+03
 -1       526 0.00000E+00 0.00000E+00 0.00000E+00
 -1       527 0.00000E+00 0.00000E+00 0.00000E+00
 -1       528-3.11194E+02 1.17083E+01-2.03514E+03
 -1       529-1.51988E+02 1.07746E+02-4.86525E+03
 -1       530 2.04043E+02 3.08939E+02-4.41599E+03
 -1       531-1.95224E+01 2.27660E+01 1.17104E+03
 -1       532-2.04701E+01 1.83291E+01 8.98020E+02
 -1       533-2.52867E+01 5.77968E+00 5.73702E+02
 -1       534-3.03180E+01 5.02879E+00 2.63581E+02
 -1       535 7.04950E+01-1.02755E+02 9.48957E+01
 -1       536 5.31674E+01-2.40735E+02 4.04315E+02
 -1       537 1.40672E+03-7.53631E+03 9.17941E+04
 -1       538-3.35310E+03-3.84349E+03 8.26392E+04
 -1       539-4.95507E+03-1.03021E+03 3.22809E+04
 -1       540 0.00000E+00 0.00000E+00 0.00000E+00
 -1       541 0.00000E+00 0.00000E+00 0.00000E+00
 -1       542-1.71111E+02 4.26535E+00-5.46202E+02
 -1       543-2.95765E+02 1.66178E+01-1.94013E+03
 -1       544-2.01780E+02 4.48392E+01-3.42706E+03
 -1       545-7.83065E+01 9.84826E+01-4.24347E+03
 -1       546 1.34187E+02 1.67335E+02-4.10338E+03
 -1       547 3.65056E+02 2.08243E+02-2.72575E+03
 -1       548 3.33211E+02 9.23869E+01-3.97182E+02
 -1       549 7.79093E+01 5.66238E+01 1.24205E+03
 -1       550-8.32214E+00 1.51151E+01 1.13764E+03
 -1       551-2.88321E+01 1.42631E+01 9.85241E+02
 -1       552-3.16393E+01 1.44387E+01 8.13045E+02
 -1       553-2.96596E+01 1.34962E+01 6.22790E+02
 -1       554-1.51933E+01-2.12382E+00 4.26900E+02
 -1       555 6.60235E+00-4.07226E+01 2.42952E+02
 -1       556-4.68199E+01 2.38718E+01 6.70632E+01
 -1       557-4.91881E+01-4.01341E+01-3.19439E+01
 -1       558 2.09549E+02-7.44576E+01-2.08909E+02
 -1       559 1.23317E+03-1.38156E+03 7.58020E+00
 -1       560 4.02313E+03-3.98312E+03 2.05608E+04
 -1       561 3.87969E+03-6.44130E+03 4.84808E+04
 -1       562 9.59051E+02-5.66714E+03 6.11826E+04
 -1       563-1.63924E+03-4.14207E+03 5.88153E+04
 -1       564-2.98464E+03-2.69698E+03 4.55319E+04
 -1       565-3.87104E+03-1.37374E+03 2.50625E+04
 -1       566-2.22152E+03-4.12851E+02 6.94847E+03
 -1       567 0.00000E+00 0.00000E+00 0.00000E+00
 -1       568 0.00000E+00 0.00000E+00 0.00000E+00
 -1       569-2.86102E+02 4.78142E+00-1.88578E+03
 -1       570-5.38583E+00 6.45957E+01-3.75769E+03
 -1       571 3.29865E+02 1.21372E+02-1.81869E+03
 -1       572 2.75632E+02 1.30506E+02 1.94887E+03
 -1       573 2.81890E+03-4.46849E+03-2.26467E+04
 -1       574 3.36317E+03-4.91657E+03 1.57417E+04
 -1       575-1.36479E+02-4.00667E+03 3.50554E+04
 -1       576-2.64748E+03-1.42658E+03 1.70651E+04
 -1       577 0.00000E+00 0.00000E+00 0.00000E+00
 -1       578 0.00000E+00 0.00000E+00 0.00000E+00
 -1       579-1.65117E+02 4.07935E+00-5.21544E+02
 -1       580-2.89257E+02-3.87969E-01-1.87203E+03
 -1       581-1.46496E+02-9.67938E+00-3.19847E+03
 -1       582 5.53080E+01 9.29078E+00-3.53630E+03
 -1       583 2.03785E+02 7.33163E+01-2.74717E+03
 -1       584 3.18943E+02 8.48361E+01-1.20436E+03
 -1       585 3.32279E+02 8.15409E+01 6.75428E+02
 -1       586 3.99719E+02 8.80554E+01 2.81855E+03
 -1       587 4.29615E+02-3.70753E+01 5.34362E+03
 -1       588 4.39056E+02-1.22270E+02 7.90246E+03
 -1       589 6.34786E+03 3.05104E+02-1.22181E+05
 -1       590 5.78859E+03-1.62688E+03-8.60594E+04
 -1       591 4.64213E+03-4.35811E+03-5.29557E+04
 -1       592 3.39378E+03-4.16389E+03-2.99792E+04
 -1       593 3.09192E+03-4.31647E+03-1.09934E+04
 -1       594 2.15941E+03-4.26624E+03 4.24360E+03
 -1       595 9.06173E+02-3.52171E+03 1.32487E+04
 -1       596-5.14278E+02-2.50015E+03 1.46108E+04
 -1       597-1.57996E+03-1.52733E+03 8.47163E+03
 -1       598-8.04179E+02-5.22622E+02 1.94931E+03
 -1       599 0.00000E+00 0.00000E+00 0.00000E+00
 -1       600 1.76432E+02 4.09083E+00-3.55496E+03
 -1       601 3.00501E+02 6.36640E+01-7.83656E+02
 -1       602 3.48730E+02-2.18560E+01 2.93839E+03
 -1       603 3.42393E+02-2.02817E+02 6.92213E+03
 -1       604 4.39895E+03 2.13012E+03-1.14468E+05
 -1       605 3.71417E+03-1.10291E+03-6.75759E+04
 -1       606 2.58944E+03-2.74600E+03-3.17866E+04
 -1       607 1.71764E+03-3.28746E+03-6.53331E+03
 -1       608 2.64108E+02 1.49764E+01-3.54079E+03
 -1       609 2.52890E+02 5.01488E+01-2.02348E+03
 -1       610 2.59895E+02 3.45316E+01-5.12567E+02
 -1       611 2.67672E+02-2.56898E+01 1.01298E+03
 -1       612 2.55528E+02-1.13186E+02 2.53816E+03
 -1       613 2.41470E+02-2.04125E+02 4.00121E+03
 -1       614 2.44412E+02-3.14034E+02 5.41280E+03
 -1       615 2.87059E+03 4.70645E+03-9.46351E+04
 -1       616 2.42869E+03 3.09212E+03-7.91802E+04
 -1       617 2.29266E+03 1.83227E+03-6.52581E+04
 -1       618 2.05495E+03 4.20592E+02-5.24128E+04
 -1       619 1.42008E+03-7.49386E+02-4.22496E+04
 -1       620 1.43194E+03-2.44358E+03-3.46415E+04
 -1       621 1.71933E+03-3.39681E+03-2.58786E+04
 -1       622 1.88215E+02 1.81159E+01-3.08606E+02
 -1       623 1.71040E+02-1.32729E+02 1.82289E+03
 -1       624 1.15134E+02-3.24377E+02 3.46238E+03
 -1       625 1.00820E+03 5.52651E+03-6.32410E+04
 -1       626 1.23084E+03 3.15040E+03-5.06006E+04
 -1       627 7.64980E+02 1.83080E+03-3.84825E+04
 -1       628 1.15401E+02 1.01381E+01-2.11494E+02
 -1       629 1.03185E+02-6.84411E+01 4.25583E+02
 -1       630 9.34206E+01-1.48263E+02 9.83654E+02
 -1       631 4.82805E+01-2.23033E+02 1.41185E+03
 -1       632-1.83072E+01-2.70955E+02 1.55929E+03
 -1       633-2.25104E+02-1.03412E+02 6.53586E+02
 -1       634-4.29809E+02 1.85932E+02-1.20136E+03
 -1       635-8.95100E+02 8.58563E+02-5.52135E+03
 -1       636-1.44681E+03 1.85441E+03-1.20740E+04
 -1       637-1.34664E+03 3.40529E+03-2.14854E+04
 -1       638-6.79582E+02 5.04481E+03-2.98089E+04
 -1       639 1.15111E+02 4.78873E+03-3.07041E+04
 -1       640 5.95249E+02 4.29282E+03-2.84394E+04
 -1       641 5.29066E+02 3.86096E+03-2.53283E+04
 -1       642 5.65766E+02 3.54367E+03-2.21169E+04
 -1       643 3.93737E+01 1.57855E+01-9.27279E+01
 -1       644 2.71594E+01-8.92945E+01 2.71418E+02
 -1       645-1.20254E+01-1.35634E+02 3.76704E+02
 -1       646-1.40628E+02 9.20947E+01-4.69379E+02
 -1       647-4.12567E+02 1.07811E+03-3.40087E+03
 -1       648-2.82184E+02 2.61570E+03-7.64678E+03
 -1       649 1.59293E+02 2.53349E+03-7.95687E+03
 -1       650 2.53217E+02 1.95392E+03-5.97695E+03
 -1       651 0.00000E+00 0.00000E+00 0.00000E+00
 -1       652 0.00000E+00 0.00000E+00 0.00000E+00
 -1       653 0.00000E+00 0.00000E+00 0.00000E+00
 -1       654 0.00000E+00 0.00000E+00 0.00000E+00
 -1       655 0.00000E+00 0.00000E+00 0.00000E+00
 -1       656 0.00000E+00 0.00000E+00 0.00000E+00
 -1       657 0.00000E+00 0.00000E+00 0.00000E+00
 -1       658 0.00000E+00 0.00000E+00 0.00000E+00
 -1       659 0.00000E+00 0.00000E+00 0.00000E+00
 -1       660 0.00000E+00 0.00000E+00 0.00000E+00
 -1       661 0.00000E+00 0.00000E+00 0.00000E+00
 -1       662 0.00000E+00 0.00000E+00 0.00000E+00
 -1       663 0.00000E+00 0.00000E+00 0.00000E+00
 -1       664 0.00000E+00 0.00000E+00 0.00000E+00
 -1       665 0.00000E+00 0.00000E+00 0.00000E+00
 -1       666 0.00000E+00 0.00000E+00 0.00000E+00
 -1       667 0.00000E+00 0.00000E+00 0.00000E+00
 -1       668 0.00000E+00 0.00000E+00 0.00000E+00
 -1       669 0.00000E+00 0.00000E+00 0.00000E+00
 -1       670 0.00000E+00 0.00000E+00 0.00000E+00
 -1       671 0.00000E+00 0.00000E+00 0.00000E+00
 -1       672 0.00000E+00 0.00000E+00 0.00000E+00
 -1       673 0.00000E+00 0.00000E+00 0.00000E+00
 -1       674 2.69709E-10 5.25404E-10 4.35932E+02
 -1       675 1.62127E-10 2.01341E-10-9.34229E+01
 -1       676 1.31722E-10 9.18892E-12-5.84180E+02
 -1       677 9.26985E-11-6.76144E-11-1.19546E+03
 -1       678 2.60315E-11-1.61971E-12-2.35352E+03
 -1       679 1.65082E-11 5.55636E-11-2.30543E+03
 -1       680-1.91324E-12 8.02093E-11-1.08326E+03
 -1       681-3.94245E-11 9.24848E-11 6.85633E+02
 -1       682 1.07618E-09 9.38108E-10 1.97529E+03
 -1       683 8.71343E-10 9.61226E-10 8.78218E+02
 -1       684 6.34408E-10 4.50314E-10-3.06838E+02
 -1       685 3.86140E-10 2.07303E-11-1.72322E+03
 -1       686 3.53673E-10-1.33156E-10-3.04227E+03
 -1       687-4.35875E-11-4.73979E-12-8.37893E+03
 -1       688-3.69543E-12 1.27474E-10-6.73290E+03
 -1       689-4.70047E-12 2.04244E-10-2.82518E+03
 -1       690-7.85273E-11 1.11916E-10 1.60592E+03
 -1       691-1.19006E-10-2.27073E-10 5.93618E+03
 -1       692 0.00000E+00 0.00000E+00 0.00000E+00
 -1       693 4.79409E-10 2.47740E-10 6.45986E+02
 -1       694 9.25068E-10 7.58043E-10 1.25632E+03
 -1       695 1.06926E-09 1.07258E-09 6.99138E+02
 -1       696 1.07395E-09 1.02666E-09-3.61699E+02
 -1       697-5.28322E-12 1.64490E-10-9.74673E+03
 -1       698 6.26403E-11 4.50351E-10-3.05642E+03
 -1       699 1.35890E-10 4.91889E-11 2.28374E+03
 -1       700 2.07283E-10-1.82918E-10 5.15412E+03
 -1       701 1.46518E-10-7.99032E-11 2.61738E+03
 -1       702 0.00000E+00 0.00000E+00 0.00000E+00
 -1       703 0.00000E+00 0.00000E+00 0.00000E+00
 -1       704 2.17277E-10 1.48759E-10 2.94723E+02
 -1       705 4.52592E-10 5.40103E-10 5.90832E+02
 -1       706 7.50849E-10 1.10581E-09 3.18891E+02
 -1       707 1.87141E-09 2.04498E-09-2.75077E+02
 -1       708 2.24299E-09 2.34728E-09-5.61001E+02
 -1       709 2.23718E-09 2.36852E-09-8.14596E+02
 -1       710 2.21364E-09 2.35880E-09-1.00506E+03
 -1       711 2.15110E-09 2.29136E-09-1.11242E+03
 -1       712 1.80342E-09 1.78250E-09-1.14400E+03
 -1       713 6.70517E-10 5.01024E-11 2.99666E+03
 -1       714 2.33038E-10-1.34285E-10 5.43621E+03
 -1       715 7.82400E-11-2.98509E-11 2.31506E+03
 -1       716 0.00000E+00 0.00000E+00 0.00000E+00
 -1       717 0.00000E+00 0.00000E+00 0.00000E+00
 -1       718 2.55448E-11 1.13343E-10-2.71833E+01
 -1       719 1.14331E-11 4.23654E-10-8.90740E+01
 -1       720-4.79092E-11 1.07135E-09-1.60115E+02
 -1       721 2.25539E-09 2.39422E-09 1.37126E+02
 -1       722 2.27154E-09 2.36277E-09-1.35376E+02
 -1       723 2.27668E-09 2.37554E-09-3.73817E+02
 -1       724 2.28011E-09 2.36075E-09-5.45385E+02
 -1       725 2.29451E-09 2.29875E-09-6.34515E+02
 -1       726 2.28983E-09 2.15150E-09-6.58593E+02
 -1       727-8.50225E-12-1.17660E-10 7.39264E+03
 -1       728 5.63191E-12 6.83596E-12 3.02023E+03
 -1       729 0.00000E+00 0.00000E+00 0.00000E+00
 -1       730 0.00000E+00 0.00000E+00 0.00000E+00
 -1       731-6.92272E-11 8.21725E-11-5.31815E+02
 -1       732-1.43802E-10 3.32548E-10-9.62776E+02
 -1       733 2.34165E-09 2.40342E-09 5.34186E+02
 -1       734 2.35149E-09 2.36776E-09 2.59925E+02
 -1       735 2.34322E-09 2.37096E-09 2.39397E+01
 -1       736 2.35558E-09 2.35459E-09-1.36932E+02
 -1       737 2.36377E-09 2.29199E-09-1.97349E+02
 -1       738 2.35668E-09 2.21596E-09-1.83810E+02
 -1       739-4.72263E-11 6.53534E-11 1.24770E+04
 -1       740 0.00000E+00 0.00000E+00 0.00000E+00
 -1       741 0.00000E+00 0.00000E+00 0.00000E+00
 -1       742 4.30048E-13 1.85890E-11-1.65580E+03
 -1       743-1.33247E-11-5.51898E-11-6.02430E+03
 -1       744 2.40434E-09 2.37017E-09 8.64548E+02
 -1       745 2.40605E-09 2.37490E-09 5.80005E+02
 -1       746 2.39474E-09 2.38519E-09 3.28664E+02
 -1       747 2.38336E-09 2.34808E-09 1.54451E+02
 -1       748 2.38694E-09 2.28721E-09 1.15807E+02
 -1       749 2.38506E-09 2.24644E-09 1.98685E+02
 -1       750 1.33381E-11 7.49546E-10 1.22418E+05
 -1       751-2.45177E-10 2.85485E-10 3.39349E+04
 -1       752 0.00000E+00 0.00000E+00 0.00000E+00
 -1       753 0.00000E+00 0.00000E+00 0.00000E+00
 -1       754 6.07901E-11 6.16038E-12-2.06437E+03
 -1       755 1.23749E-10-3.48881E-11-5.53712E+03
 -1       756 1.37892E-10-1.08025E-10-6.45273E+03
 -1       757 2.39421E-09 2.29545E-09 1.09693E+03
 -1       758 2.39850E-09 2.38183E-09 8.10479E+02
 -1       759 2.39476E-09 2.39304E-09 5.14186E+02
 -1       760 2.39623E-09 2.35055E-09 2.68254E+02
 -1       761 2.39057E-09 2.28655E-09 1.90737E+02
 -1       762 2.38492E-09 2.24793E-09 3.54369E+02
 -1       763 1.33609E-10 1.54125E-09 1.38436E+05
 -1       764 1.32740E-10 1.08917E-09 1.04131E+05
 -1       765 5.73355E-11 4.25734E-10 3.69930E+04
 -1       766 0.00000E+00 0.00000E+00 0.00000E+00
 -1       767 0.00000E+00 0.00000E+00 0.00000E+00
 -1       768 9.25949E-11-2.17992E-11-1.93716E+03
 -1       769 2.24384E-10-4.02269E-11-4.25046E+03
 -1       770 4.75547E-10-1.71478E-11-2.72778E+03
 -1       771 1.90523E-09 1.88580E-09 1.24650E+03
 -1       772 2.30401E-09 2.38062E-09 9.84567E+02
 -1       773 2.38101E-09 2.38719E-09 6.22717E+02
 -1       774 2.42351E-09 2.34549E-09 2.43915E+02
 -1       775 2.43882E-09 2.28031E-09-3.85069E+01
 -1       776 2.17357E-09 1.96912E-09 1.47724E+01
 -1       777 1.06434E-09 1.56901E-09 4.85098E+04
 -1       778 6.79050E-10 1.03514E-09 5.89079E+04
 -1       779 3.24997E-10 4.61617E-10 2.50266E+04
 -1       780 0.00000E+00 0.00000E+00 0.00000E+00
 -1       781 0.00000E+00 0.00000E+00 0.00000E+00
 -1       782 1.19838E-10-5.75835E-11-1.87047E+03
 -1       783 1.74373E-10-1.10543E-10-3.54228E+03
 -1       784 1.10955E-10 6.44072E-11-1.20536E+03
 -1       785 4.75935E-11 4.59967E-10 2.82034E+03
 -1       786 3.58922E-11 2.18701E-10 7.90536E+03
 -1       787 1.28803E-09 7.15112E-10-1.22234E+05
 -1       788 1.47661E-09 1.25265E-09-5.29991E+04
 -1       789 1.36486E-09 1.48490E-09-1.10086E+04
 -1       790 1.30294E-09 1.17838E-09 1.32863E+04
 -1       791 7.84130E-10 6.12740E-10 8.47054E+03
 -1       792 0.00000E+00 0.00000E+00 0.00000E+00
 -1       793-1.04734E-10-1.59907E-10-3.54044E+03
 -1       794-6.98288E-11 1.32135E-10-5.12245E+02
 -1       795 2.28071E-12 2.14331E-10 2.54124E+03
 -1       796 3.98752E-11 1.97788E-10 5.41589E+03
 -1       797 8.47330E-10 3.65538E-10-9.47042E+04
 -1       798 8.62856E-10 9.48728E-10-6.53509E+04
 -1       799 1.27270E-09 1.41770E-09-4.23286E+04
 -1       800 1.37710E-09 1.31970E-09-2.58831E+04
 -1       801-4.68370E-11 9.61501E-11-2.11060E+02
 -1       802-1.50390E-11 9.05219E-11 9.82569E+02
 -1       803 5.15275E-12 7.27474E-11 1.55674E+03
 -1       804-3.64866E-13 5.05535E-12-1.19189E+03
 -1       805 1.67960E-11-9.95376E-12-1.20139E+04
 -1       806 1.82607E-10 4.27177E-11-2.97395E+04
 -1       807 2.97770E-10 3.97883E-10-2.84054E+04
 -1       808 4.13177E-10 7.81642E-10-2.20953E+04
 -1       809 0.00000E+00 0.00000E+00 0.00000E+00
 -1       810 0.00000E+00 0.00000E+00 0.00000E+00
 -1       811 0.00000E+00 0.00000E+00 0.00000E+00
 -1       812 0.00000E+00 0.00000E+00 0.00000E+00
 -1       813 0.00000E+00 0.00000E+00 0.00000E+00
 -1       814 0.00000E+00 0.00000E+00 0.00000E+00
 -1       815 0.00000E+00 0.00000E+00 0.00000E+00
 -1       816 0.00000E+00 0.00000E+00 0.00000E+00
 -1       817 0.00000E+00 0.00000E+00 0.00000E+00
 -1       818 0.00000E+00 0.00000E+00 0.00000E+00
 -1       819 0.00000E+00 0.00000E+00 0.00000E+00
 -1       820 0.00000E+00 0.00000E+00 0.00000E+00
 -1       821 0.00000E+00 0.00000E+00 0.00000E+00
 -1       822 0.00000E+00 0.00000E+00 0.00000E+00
 -1       823 0.00000E+00 0.00000E+00 0.00000E+00
 -1       824 0.00000E+00 0.00000E+00 0.00000E+00
 -1       825 0.00000E+00 0.00000E+00 0.00000E+00
 -1       826 0.00000E+00 0.00000E+00 0.00000E+00
 -1       827 0.00000E+00 0.00000E+00 0.00000E+00
 -1       828 0.00000E+00 0.00000E+00 0.00000E+00
 -1       829 0.00000E+00 0.00000E+00 0.00000E+00
 -1       830 0.00000E+00 0.00000E+00 0.00000E+00
 -1       831 0.00000E+00 0.00000E+00 0.00000E+00
 -1       832 1.49052E+01-3.63463E+01 1.33379E+02
 -1       833 1.25194E+01 8.99257E+00-2.30949E+01
 -1       834 1.36095E+01 4.99013E+01-1.59879E+02
 -1       835 1.93262E+01 1.05220E+02-3.43815E+02
 -1       836 2.50144E+01 2.04231E+02-6.01569E+02
 -1       837-1.73430E+01 2.03038E+02-6.13372E+02
 -1       838-4.20357E+01 9.68727E+01-2.93844E+02
 -1       839-5.36007E+01-5.43389E+01 2.36483E+02
 -1       840 4.87299E+01-5.81577E+01 4.36464E+02
 -1       841 4.61486E+01-2.26288E+01 1.60202E+02
 -1       842 4.21156E+01 1.70936E+01-9.36700E+01
 -1       843 4.07308E+01 5.43027E+01-3.37946E+02
 -1       844 4.15710E+01 9.43356E+01-5.85406E+02
 -1       845 5.39449E+01 1.33851E+02-8.58050E+02
 -1       846 7.29303E+01 1.77063E+02-1.19938E+03
 -1       847 8.74957E+01 2.81212E+02-1.76109E+03
 -1       848 7.07526E+01 3.96860E+02-2.36044E+03
 -1       849-4.33543E+00 4.02762E+02-2.50729E+03
 -1       850-6.63686E+01 3.61786E+02-2.30893E+03
 -1       851-1.04635E+02 2.78235E+02-1.80517E+03
 -1       852-1.37961E+02 1.70695E+02-1.08469E+03
 -1       853-1.53496E+02 4.39532E+01-2.46866E+02
 -1       854-1.67590E+02-7.59498E+01 6.86792E+02
 -1       855 8.13177E+01-3.68165E+01 7.30897E+02
 -1       856 7.93492E+01 1.90500E+01-2.03135E+02
 -1       857 8.45380E+01 9.87011E+01-1.14648E+03
 -1       858 8.99100E+01 1.59320E+02-2.15601E+03
 -1       859 2.93909E+01 5.17195E+02-5.10952E+03
 -1       860-1.54535E+02 3.82534E+02-4.49404E+03
 -1       861-2.61171E+02 1.55132E+02-2.05524E+03
 -1       862-2.82922E+02-7.04596E+01 1.15664E+03
 -1       863 8.50004E+01 5.37861E+01 1.97513E+03
 -1       864 9.07477E+01 2.04969E+01 1.45294E+03
 -1       865 9.99717E+01-3.36742E+00 8.76944E+02
 -1       866 1.02284E+02 7.83750E-01 2.96223E+02
 -1       867 1.08346E+02 1.41889E+01-3.06802E+02
 -1       868 1.17394E+02 5.64581E+01-1.00102E+03
 -1       869 1.20163E+02 9.82841E+01-1.72272E+03
 -1       870 1.13686E+02 1.29963E+02-2.40195E+03
 -1       871 1.05722E+02 1.42900E+02-3.03970E+03
 -1       872-2.24787E+01 5.93604E+02-8.37499E+03
 -1       873-1.29805E+02 5.07053E+02-7.91886E+03
 -1       874-2.80426E+02 3.83200E+02-6.72600E+03
 -1       875-3.33669E+02 2.40317E+02-4.92884E+03
 -1       876-3.76631E+02 1.15917E+02-2.82124E+03
 -1       877-3.86207E+02 1.00765E+01-6.05842E+02
 -1       878-3.80913E+02-5.44591E+01 1.60510E+03
 -1       879-3.60604E+02-3.75992E+01 3.80705E+03
 -1       880-3.57959E+02 4.02848E+01 5.93603E+03
 -1       881 4.80116E+01 5.79264E+01 1.63876E+03
 -1       882 9.21788E+01 1.52993E+01 8.34086E+02
 -1       883 1.10062E+02 4.94785E+00-3.39925E+02
 -1       884-4.42819E+02 2.41084E+02-8.59422E+03
 -1       885-4.80553E+02 1.43618E+01-3.22406E+03
 -1       886-4.08387E+02-6.36418E+01 1.93149E+03
 -1       887-2.27315E+02 5.94975E+01 5.58711E+03
 -1       888 0.00000E+00 0.00000E+00 0.00000E+00
 -1       889-5.57719E+01 9.46277E+00 1.88069E+02
 -1       890-9.34909E+01 3.33306E+01 6.46617E+02
 -1       891-5.19080E+01 5.56636E+01 1.09233E+03
 -1       892 7.67362E+00 6.40317E+01 1.25429E+03
 -1       893 4.73967E+01 4.47266E+01 1.08299E+03
 -1       894 8.09664E+01 2.83682E+01 6.98245E+02
 -1       895 9.14873E+01 1.59322E+01 2.05504E+02
 -1       896 1.01780E+02 4.73930E+00-3.61880E+02
 -1       897-5.86254E+02 1.38995E+02-9.74361E+03
 -1       898-5.64063E+02 2.55698E+01-6.35848E+03
 -1       899-5.27159E+02-1.05325E+02-3.05455E+03
 -1       900-4.53131E+02-7.59502E+01-1.96568E+02
 -1       901-4.12363E+02-6.64273E+01 2.28013E+03
 -1       902-2.43576E+02-3.12800E+01 4.22567E+03
 -1       903-5.01845E+01 6.36490E+01 5.14621E+03
 -1       904 2.15721E+02 8.40143E+01 4.53249E+03
 -1       905 4.04730E+02 3.74663E+01 2.62005E+03
 -1       906 2.33066E+02 1.28111E+01 7.41985E+02
 -1       907 0.00000E+00 0.00000E+00 0.00000E+00
 -1       908 0.00000E+00 0.00000E+00 0.00000E+00
 -1       909-6.87385E+01 3.07231E+01 4.60827E+02
 -1       910-1.43363E+00 5.72819E+01 9.09431E+02
 -1       911 6.52589E+01 3.27188E+01 5.28837E+02
 -1       912 7.87089E+01-6.28301E+00-3.53350E+02
 -1       913-3.50032E+02-1.48695E+02-2.01393E+03
 -1       914-4.20990E+02-5.02567E+01 2.65981E+03
 -1       915 3.69581E+01-2.33007E+01 5.02068E+03
 -1       916 3.69349E+02 2.89349E+01 2.42430E+03
 -1       917 0.00000E+00 0.00000E+00 0.00000E+00
 -1       918 0.00000E+00 0.00000E+00 0.00000E+00
 -1       919-2.54556E+01 8.14111E+00 8.50853E+01
 -1       920-4.36980E+01 2.69223E+01 2.95093E+02
 -1       921-2.54007E+01 4.60664E+01 5.00960E+02
 -1       922-4.02265E+00 5.39061E+01 5.89678E+02
 -1       923 2.36725E+01 5.03961E+01 5.35465E+02
 -1       924 5.12926E+01 3.77149E+01 3.18031E+02
 -1       925 5.28417E+01 1.33968E+01 1.13596E+01
 -1       926 3.33688E+01-2.88291E+01-2.73993E+02
 -1       927 2.47086E+01-3.57142E+01-4.20191E+02
 -1       928 2.19578E+01-3.69940E+01-5.61193E+02
 -1       929 2.04786E+01-3.81215E+01-6.94032E+02
 -1       930 1.87592E+01-3.83938E+01-8.14540E+02
 -1       931 1.47093E+01-3.95390E+01-9.19197E+02
 -1       932 1.00017E+01-4.13457E+01-1.00472E+03
 -1       933 1.11577E+01-4.07628E+01-1.07046E+03
 -1       934 9.18936E+00-4.27629E+01-1.11331E+03
 -1       935-9.61406E+00-4.20183E+01-1.14248E+03
 -1       936-8.10159E+01-8.11171E+01-1.13931E+03
 -1       937-3.58535E+02-2.65896E+01 4.49065E+02
 -1       938-4.87615E+02-6.41417E+01 2.99363E+03
 -1       939-2.08252E+02-1.21177E+02 5.06381E+03
 -1       940 1.21946E+02-1.09316E+02 5.42903E+03
 -1       941 2.71089E+02-3.29900E+01 4.19929E+03
 -1       942 3.66814E+02 1.68542E+01 2.31977E+03
 -1       943 2.03519E+02 1.52635E+00 6.31515E+02
 -1       944 0.00000E+00 0.00000E+00 0.00000E+00
 -1       945 0.00000E+00 0.00000E+00 0.00000E+00
 -1       946-1.99227E+01 2.71324E+01 1.37811E+02
 -1       947-1.42879E+00 5.79997E+01 2.63423E+02
 -1       948 2.92041E+01 4.28717E+01 9.40575E+01
 -1       949 2.44516E+01-3.48284E+01-7.00407E+01
 -1       950 2.30685E+01-3.59164E+01-3.46482E+02
 -1       951 1.80384E+01-3.78395E+01-5.91423E+02
 -1       952 1.27095E+01-3.91817E+01-7.71963E+02
 -1       953 3.00836E-01-4.29402E+01-8.70900E+02
 -1       954-1.49196E+00-4.82985E+01-8.94780E+02
 -1       955 2.74520E+02-1.70923E+02 6.29554E+03
 -1       956 3.78754E+02-6.47435E+01 2.42074E+03
 -1       957 0.00000E+00 0.00000E+00 0.00000E+00
 -1       958 0.00000E+00 0.00000E+00 0.00000E+00
 -1       959 1.49162E+00 9.51219E+00-9.32223E+00
 -1       960 6.26185E+00 2.84815E+01-2.73151E+01
 -1       961 5.98971E+00 5.25357E+01-6.23572E+01
 -1       962 2.20379E+00 6.34270E+01-8.94059E+01
 -1       963 7.36263E+00 6.01838E+01-1.13060E+02
 -1       964 1.06865E+01 4.65472E+01-1.60420E+02
 -1       965 2.37139E+01-3.53419E+01 1.36827E+02
 -1       966 2.39795E+01-3.47232E+01-7.70257E-01
 -1       967 2.15968E+01-3.58004E+01-1.35316E+02
 -1       968 2.01866E+01-3.57299E+01-2.60910E+02
 -1       969 1.79506E+01-3.60347E+01-3.73777E+02
 -1       970 1.44775E+01-3.69047E+01-4.69439E+02
 -1       971 1.07347E+01-3.77157E+01-5.45430E+02
 -1       972 8.70898E+00-3.77934E+01-5.99580E+02
 -1       973 7.91141E+00-3.75360E+01-6.34161E+02
 -1       974-2.33989E+00-4.31076E+01-6.49670E+02
 -1       975-7.45889E-01-3.73598E+01-6.60001E+02
 -1       976 3.30913E+02-1.98391E+02 7.38873E+03
 -1       977 3.76843E+02-1.54049E+02 5.29094E+03
 -1       978 4.44402E+02-1.84327E+02 3.03243E+03
 -1       979 2.51052E+02-7.05456E+01 9.95194E+02
 -1       980 0.00000E+00 0.00000E+00 0.00000E+00
 -1       981 0.00000E+00 0.00000E+00 0.00000E+00
 -1       982 3.45473E+01 4.43244E+01-2.35414E+02
 -1       983 1.21737E+01 7.64256E+01-4.98278E+02
 -1       984 2.38014E+01-3.35927E+01 3.40687E+02
 -1       985 2.20059E+01-3.35651E+01 6.90159E+01
 -1       986 1.74727E+01-3.37776E+01-1.66413E+02
 -1       987 1.01566E+01-3.45851E+01-3.30736E+02
 -1       988 4.96864E+00-3.70574E+01-4.06116E+02
 -1       989 4.35054E+00-3.86189E+01-4.16166E+02
 -1       990 9.84454E+02-7.92575E+02 6.36224E+03
 -1       991 0.00000E+00 0.00000E+00 0.00000E+00
 -1       992 0.00000E+00 0.00000E+00 0.00000E+00
 -1       993 4.72788E+01 1.90125E+01-1.64849E+02
 -1       994 7.13003E+01 6.73945E+01-5.33633E+02
 -1       995 3.70788E+01 7.67911E+01-8.19543E+02
 -1       996 1.22858E+01 8.38064E+01-9.61326E+02
 -1       997 2.51246E+01-3.06096E+01 5.34271E+02
 -1       998 2.31595E+01-3.11345E+01 3.93917E+02
 -1       999 2.23684E+01-3.05976E+01 2.59844E+02
 -1      1000 2.02998E+01-3.05147E+01 1.34697E+02
 -1      1001 1.74962E+01-3.04420E+01 2.39136E+01
 -1      1002 1.36106E+01-2.99431E+01-6.80904E+01
 -1      1003 9.25551E+00-3.01922E+01-1.36924E+02
 -1      1004 6.63138E+00-3.17776E+01-1.79073E+02
 -1      1005 3.80728E+00-3.46189E+01-1.97572E+02
 -1      1006-3.78365E+00-3.11462E+01-1.97309E+02
 -1      1007-1.78821E+00-4.03792E+01-1.83642E+02
 -1      1008 1.91054E+03-1.48338E+03 1.25442E+04
 -1      1009 1.11044E+03-4.15320E+02 3.62728E+03
 -1      1010 0.00000E+00 0.00000E+00 0.00000E+00
 -1      1011 0.00000E+00 0.00000E+00 0.00000E+00
 -1      1012 1.71120E+02 8.59219E+01-1.07086E+03
 -1      1013 2.45670E+01-2.79046E+01 7.10015E+02
 -1      1014 2.23718E+01-2.73751E+01 4.31059E+02
 -1      1015 1.76638E+01-2.55753E+01 1.90386E+02
 -1      1016 1.05202E+01-2.53377E+01 2.80178E+01
 -1      1017-3.74926E+00-2.20282E+01-1.89463E+01
 -1      1018-1.08111E+01-1.86373E+01 2.87850E+01
 -1      1019 3.72580E+03-1.64659E+03 2.31670E+04
 -1      1020 0.00000E+00 0.00000E+00 0.00000E+00
 -1      1021 0.00000E+00 0.00000E+00 0.00000E+00
 -1      1022 1.43413E+02 2.62514E+01-4.22112E+02
 -1      1023 2.82163E+02 7.99132E+01-1.66093E+03
 -1      1024 3.73850E+02 7.09573E+01-3.62887E+03
 -1      1025 4.38229E+02 2.91863E+01-6.02214E+03
 -1      1026 2.25179E+01-2.48767E+01 8.64108E+02
 -1      1027 2.50498E+01-2.36258E+01 7.19212E+02
 -1      1028 2.28869E+01-2.37726E+01 5.79986E+02
 -1      1029 2.12712E+01-2.22742E+01 4.47915E+02
 -1      1030 1.87739E+01-2.02766E+01 3.28583E+02
 -1      1031 1.57202E+01-2.02449E+01 2.27562E+02
 -1      1032 1.12956E+01-1.90624E+01 1.54367E+02
 -1      1033 2.10990E+00-1.53356E+01 1.15983E+02
 -1      1034-6.24329E+00-8.02072E+00 1.15962E+02
 -1      1035-1.22535E+00-3.08621E+01 1.49395E+02
 -1      1036-4.19747E+01 1.05964E+01 1.98637E+02
 -1      1037 8.79859E+03-7.36516E+01 1.22369E+05
 -1      1038 7.58481E+03-8.76612E+02 7.41479E+04
 -1      1039 5.75380E+03-1.33131E+03 3.40298E+04
 -1      1040 2.95454E+03-4.57937E+02 8.62868E+03
 -1      1041 0.00000E+00 0.00000E+00 0.00000E+00
 -1      1042 0.00000E+00 0.00000E+00 0.00000E+00
 -1      1043 3.14654E+02 3.55053E+01-1.96274E+03
 -1      1044 3.60062E+02-3.33519E+01-5.98869E+03
 -1      1045 2.90274E+01-1.94816E+01 9.92779E+02
 -1      1046 2.47680E+01-1.87493E+01 7.04946E+02
 -1      1047 2.13479E+01-1.73547E+01 4.34689E+02
 -1      1048 9.87457E+00-8.30964E+00 2.35068E+02
 -1      1049 8.97665E+00-2.70062E+01 1.89553E+02
 -1      1050 1.67334E+01-4.59070E+01 3.32347E+02
 -1      1051 7.39642E+03 1.39730E+03 1.18228E+05
 -1      1052 6.08430E+03-2.63772E+02 3.79551E+04
 -1      1053 0.00000E+00 0.00000E+00 0.00000E+00
 -1      1054 0.00000E+00 0.00000E+00 0.00000E+00
 -1      1055 1.81508E+02 2.31487E+00-5.60113E+02
 -1      1056 3.21460E+02 1.17301E+00-2.06758E+03
 -1      1057 3.01168E+02-3.47545E+01-3.90371E+03
 -1      1058 2.51696E+02-1.17374E+02-5.53105E+03
 -1      1059 6.09034E+01-2.30372E+02-6.44499E+03
 -1      1060-7.16880E+01-3.70021E+02-6.44928E+03
 -1      1061 2.43634E+01-1.62421E+01 1.09819E+03
 -1      1062 1.80057E+01-1.95285E+01 9.52392E+02
 -1      1063 2.91791E+01-1.47959E+01 8.10108E+02
 -1      1064 2.72678E+01-1.53630E+01 6.60536E+02
 -1      1065 2.45070E+01-1.48401E+01 5.14261E+02
 -1      1066 1.64199E+01-4.32588E+00 3.78669E+02
 -1      1067 6.94211E+00 1.86774E+00 2.68162E+02
 -1      1068 2.59512E+01-1.10129E+01 2.00541E+02
 -1      1069 4.72290E+01-5.09492E+01 1.90277E+02
 -1      1070-8.81460E+01 8.73752E+01 2.51942E+02
 -1      1071-3.45191E+01-4.55691E+01 3.50891E+02
 -1      1072 6.90476E+02 8.20191E+03 1.38378E+05
 -1      1073 2.64774E+03 5.78995E+03 1.28008E+05
 -1      1074 5.42970E+03 3.44055E+03 1.04021E+05
 -1      1075 5.80707E+03 1.65400E+03 7.11437E+04
 -1      1076 5.78456E+03 5.88207E+02 3.70509E+04
 -1      1077 3.25603E+03 1.38992E+02 9.93349E+03
 -1      1078 0.00000E+00 0.00000E+00 0.00000E+00
 -1      1079 0.00000E+00 0.00000E+00 0.00000E+00
 -1      1080 3.11194E+02-1.17083E+01-2.03514E+03
 -1      1081 1.51988E+02-1.07746E+02-4.86525E+03
 -1      1082-2.04043E+02-3.08939E+02-4.41599E+03
 -1      1083 1.95224E+01-2.27660E+01 1.17104E+03
 -1      1084 2.04701E+01-1.83291E+01 8.98020E+02
 -1      1085 2.52867E+01-5.77968E+00 5.73702E+02
 -1      1086 3.03180E+01-5.02879E+00 2.63581E+02
 -1      1087-7.04950E+01 1.02755E+02 9.48957E+01
 -1      1088-5.31674E+01 2.40735E+02 4.04315E+02
 -1      1089-1.40672E+03 7.53631E+03 9.17941E+04
 -1      1090 3.35310E+03 3.84349E+03 8.26392E+04
 -1      1091 4.95507E+03 1.03021E+03 3.22809E+04
 -1      1092 0.00000E+00 0.00000E+00 0.00000E+00
 -1      1093 0.00000E+00 0.00000E+00 0.00000E+00
 -1      1094 1.71111E+02-4.26535E+00-5.46202E+02
 -1      1095 2.95765E+02-1.66178E+01-1.94013E+03
 -1      1096 2.01780E+02-4.48392E+01-3.42706E+03
 -1      1097 7.83065E+01-9.84826E+01-4.24347E+03
 -1      1098-1.34187E+02-1.67335E+02-4.10338E+03
 -1      1099-3.65056E+02-2.08243E+02-2.72575E+03
 -1      1100-3.33211E+02-9.23869E+01-3.97182E+02
 -1      1101-7.79093E+01-5.66238E+01 1.24205E+03
 -1      1102 8.32214E+00-1.51151E+01 1.13764E+03
 -1      1103 2.88321E+01-1.42631E+01 9.85241E+02
 -1      1104 3.16393E+01-1.44387E+01 8.13045E+02
 -1      1105 2.96596E+01-1.34962E+01 6.22790E+02
 -1      1106 1.51933E+01 2.12382E+00 4.26900E+02
 -1      1107-6.60235E+00 4.07226E+01 2.42952E+02
 -1      1108 4.68199E+01-2.38718E+01 6.70632E+01
 -1      1109 4.91881E+01 4.01341E+01-3.19439E+01
 -1      1110-2.09549E+02 7.44576E+01-2.08909E+02
 -1      1111-1.23317E+03 1.38156E+03 7.58020E+00
 -1      1112-4.02313E+03 3.98312E+03 2.05608E+04
 -1      1113-3.87969E+03 6.44130E+03 4.84808E+04
 -1      1114-9.59051E+02 5.66714E+03 6.11826E+04
 -1      1115 1.63924E+03 4.14207E+03 5.88153E+04
 -1      1116 2.98464E+03 2.69698E+03 4.55319E+04
 -1      1117 3.87104E+03 1.37374E+03 2.50625E+04
 -1      1118 2.22152E+03 4.12851E+02 6.94847E+03
 -1      1119 0.00000E+00 0.00000E+00 0.00000E+00
 -1      1120 0.00000E+00 0.00000E+00 0.00000E+00
 -1      1121 2.86102E+02-4.78142E+00-1.88578E+03
 -1      1122 5.38583E+00-6.45957E+01-3.75769E+03
 -1      1123-3.29865E+02-1.21372E+02-1.81869E+03
 -1      1124-2.75632E+02-1.30506E+02 1.94887E+03
 -1      1125-2.81890E+03 4.46849E+03-2.26467E+04
 -1      1126-3.36317E+03 4.91657E+03 1.57417E+04
 -1      1127 1.36479E+02 4.00667E+03 3.50554E+04
 -1      1128 2.64748E+03 1.42658E+03 1.70651E+04
 -1      1129 0.00000E+00 0.00000E+00 0.00000E+00
 -1      1130 0.00000E+00 0.00000E+00 0.00000E+00
 -1      1131 1.65117E+02-4.07935E+00-5.21544E+02
 -1      1132 2.89257E+02 3.87969E-01-1.87203E+03
 -1      1133 1.46496E+02 9.67938E+00-3.19847E+03
 -1      1134-5.53080E+01-9.29078E+00-3.53630E+03
 -1      1135-2.03785E+02-7.33163E+01-2.74717E+03
 -1      1136-3.18943E+02-8.48361E+01-1.20436E+03
 -1      1137-3.32279E+02-8.15409E+01 6.75428E+02
 -1      1138-3.99719E+02-8.80554E+01 2.81855E+03
 -1      1139-4.29615E+02 3.70753E+01 5.34362E+03
 -1      1140-4.39056E+02 1.22270E+02 7.90246E+03
 -1      1141-6.34786E+03-3.05104E+02-1.22181E+05
 -1      1142-5.78859E+03 1.62688E+03-8.60594E+04
 -1      1143-4.64213E+03 4.35811E+03-5.29557E+04
 -1      1144-3.39378E+03 4.16389E+03-2.99792E+04
 -1      1145-3.09192E+03 4.31647E+03-1.09934E+04
 -1      1146-2.15941E+03 4.26624E+03 4.24360E+03
 -1      1147-9.06173E+02 3.52171E+03 1.32487E+04
 -1      1148 5.14278E+02 2.50015E+03 1.46108E+04
 -1      1149 1.57996E+03 1.52733E+03 8.47163E+03
 -1      1150 8.04179E+02 5.22622E+02 1.94931E+03
 -1      1151 0.00000E+00 0.00000E+00 0.00000E+00
 -1      1152-1.76432E+02-4.09083E+00-3.55496E+03
 -1      1153-3.00501E+02-6.36640E+01-7.83656E+02
 -1      1154-3.48730E+02 2.18560E+01 2.93839E+03
 -1      1155-3.42393E+02 2.02817E+02 6.92213E+03
 -1      1156-4.39895E+03-2.13012E+03-1.14468E+05
 -1      1157-3.71417E+03 1.10291E+03-6.75759E+04
 -1      1158-2.58944E+03 2.74600E+03-3.17866E+04
 -1      1159-1.71764E+03 3.28746E+03-6.53331E+03
 -1      1160-2.64108E+02-1.49764E+01-3.54079E+03
 -1      1161-2.52890E+02-5.01488E+01-2.02348E+03
 -1      1162-2.59895E+02-3.45316E+01-5.12567E+02
 -1      1163-2.67672E+02 2.56898E+01 1.01298E+03
 -1      1164-2.55528E+02 1.13186E+02 2.53816E+03
 -1      1165-2.41470E+02 2.04125E+02 4.00121E+03
 -1      1166-2.44412E+02 3.14034E+02 5.41280E+03
 -1      1167-2.87059E+03-4.70645E+03-9.46351E+04
 -1      1168-2.42869E+03-3.09212E+03-7.91802E+04
 -1      1169-2.29266E+03-1.83227E+03-6.52581E+04
 -1      1170-2.05495E+03-4.20592E+02-5.24128E+04
 -1      1171-1.42008E+03 7.49386E+02-4.22496E+04
 -1      1172-1.43194E+03 2.44358E+03-3.46415E+04
 -1      1173-1.71933E+03 3.39681E+03-2.58786E+04
 -1      1174-1.88215E+02-1.81159E+01-3.08606E+02
 -1      1175-1.71040E+02 1.32729E+02 1.82289E+03
 -1      1176-1.15134E+02 3.24377E+02 3.46238E+03
 -1      1177-1.00820E+03-5.52651E+03-6.32410E+04
 -1      1178-1.23084E+03-3.15040E+03-5.06006E+04
 -1      1179-7.64980E+02-1.83080E+03-3.84825E+04
 -1      1180-1.15401E+02-1.01381E+01-2.11494E+02
 -1      1181-1.03185E+02 6.84411E+01 4.25583E+02
 -1      1182-9.34206E+01 1.48263E+02 9.83654E+02
 -1      1183-4.82805E+01 2.23033E+02 1.41185E+03
 -1      1184 1.83072E+01 2.70955E+02 1.55929E+03
 -1      1185 2.25104E+02 1.03412E+02 6.53586E+02
 -1      1186 4.29809E+02-1.85932E+02-1.20136E+03
 -1      1187 8.95100E+02-8.58563E+02-5.52135E+03
 -1      1188 1.44681E+03-1.85441E+03-1.20740E+04
 -1      1189 1.34664E+03-3.40529E+03-2.14854E+04
 -1      1190 6.79582E+02-5.04481E+03-2.98089E+04
 -1      1191-1.15111E+02-4.78873E+03-3.07041E+04
 -1      1192-5.95249E+02-4.29282E+03-2.84394E+04
 -1      1193-5.29066E+02-3.86096E+03-2.53283E+04
 -1      1194-5.65766E+02-3.54367E+03-2.21169E+04
 -1      1195-3.93737E+01-1.57855E+01-9.27279E+01
 -1      1196-2.71594E+01 8.92945E+01 2.71418E+02
 -1      1197 1.20254E+01 1.35634E+02 3.76704E+02
 -1      1198 1.40628E+02-9.20947E+01-4.69379E+02
 -1      1199 4.12567E+02-1.07811E+03-3.40087E+03
 -1      1200 2.82184E+02-2.61570E+03-7.64678E+03
 -1      1201-1.59293E+02-2.53349E+03-7.95687E+03
 -1      1202-2.53217E+02-1.95392E+03-5.97695E+03
 -1      1203 0.00000E+00 0.00000E+00 0.00000E+00
 -1      1204 0.00000E+00 0.00000E+00 0.00000E+00
 -1      1205 0.00000E+00 0.00000E+00 0.00000E+00
 -1      1206 0.00000E+00 0.00000E+00 0.00000E+00
 -1      1207 0.00000E+00 0.00000E+00 0.00000E+00
 -1      1208 0.00000E+00 0.00000E+00 0.00000E+00
 -1      1209 0.00000E+00 0.00000E+00 0.00000E+00
 -1      1210 0.00000E+00 0.00000E+00 0.00000E+00
 -1      1211 0.00000E+00 0.00000E+00 0.00000E+00
 -1      1212 0.00000E+00 0.00000E+00 0.00000E+00
 -1      1213 0.00000E+00 0.00000E+00 0.00000E+00
 -1      1214 0.00000E+00 0.00000E+00 0.00000E+00
 -1      1215 0.00000E+00 0.00000E+00 0.00000E+00
 -1      1216 0.00000E+00 0.00000E+00 0.00000E+00
 -1      1217 0.00000E+00 0.00000E+00 0.00000E+00
 -1      1218 5.15894E+01-6.43820E+01-2.74169E+02
 -1      1219 4.26573E+01-7.06449E+01-5.61250E+02
 -1      1220 3.50867E+01-7.37181E+01-8.14371E+02
 -1      1221 2.20331E+01-7.78080E+01-1.00496E+03
 -1      1222 1.29739E+01-8.04014E+01-1.11411E+03
 -1      1223-5.58935E+01-1.13709E+02-1.13939E+03
 -1      1224 4.54221E+01-6.70889E+01 1.36662E+02
 -1      1225 4.20323E+01-6.78175E+01-1.35162E+02
 -1      1226 3.40474E+01-6.90507E+01-3.73667E+02
 -1      1227 2.11263E+01-7.16892E+01-5.45348E+02
 -1      1228 1.05822E+01-7.42883E+01-6.33561E+02
 -1      1229 1.73458E+00-7.50828E+01-6.59269E+02
 -1      1230 4.70728E+01-5.89540E+01 5.34070E+02
 -1      1231 4.24458E+01-5.86642E+01 2.59648E+02
 -1      1232 3.32993E+01-5.79495E+01 2.38267E+01
 -1      1233 1.84356E+01-5.81432E+01-1.36929E+02
 -1      1234 4.55306E+00-6.28783E+01-1.98194E+02
 -1      1235-4.20432E+00-6.85702E+01-1.84839E+02
 -1      1236 4.72635E+01-4.64550E+01 8.63642E+02
 -1      1237 4.41655E+01-4.48048E+01 5.79876E+02
 -1      1238 3.62032E+01-3.96645E+01 3.28358E+02
 -1      1239 2.00630E+01-3.50769E+01 1.54226E+02
 -1      1240-5.44046E+00-2.84769E+01 1.15385E+02
 -1      1241-3.60082E+01-2.18583E+01 2.06010E+02
 -1      1242 4.75662E+01-3.21016E+01 1.09775E+03
 -1      1243 5.01002E+01-3.07754E+01 8.09162E+02
 -1      1244 4.53316E+01-2.44316E+01 5.14425E+02
 -1      1245 2.47443E+01-3.98756E+00 2.68690E+02
 -1      1246 2.25817E+01-1.96310E+01 1.88838E+02
 -1      1247-4.53460E+01-2.29074E+01 3.62817E+02
 -1      1248-2.87728E+01-6.54987E+01 1.24347E+03
 -1      1249 5.18666E+01-2.87144E+01 9.85655E+02
 -1      1250 5.33655E+01-1.96392E+01 6.24532E+02
 -1      1251 2.45808E+01 2.67607E+01 2.36025E+02
 -1      1252 3.80849E+01 5.52665E+01-4.25482E+01
 -1      1253-9.80377E+02 1.09112E+03 8.68716E+00
 -1      1254 7.03696E+01-9.94753E+01-2.74599E+02
 -1      1255 6.77871E+01-1.01594E+02-4.19589E+02
 -1      1256 6.33023E+01-1.04443E+02-5.61193E+02
 -1      1257 5.84805E+01-1.06738E+02-6.93498E+02
 -1      1258 5.16503E+01-1.09048E+02-8.14088E+02
 -1      1259 4.31950E+01-1.11470E+02-9.18843E+02
 -1      1260 3.39750E+01-1.14210E+02-1.00514E+03
 -1      1261 2.46163E+01-1.16985E+02-1.06916E+03
 -1      1262 1.77669E+01-1.18236E+02-1.11460E+03
 -1      1263-5.74153E+00-1.18869E+02-1.13661E+03
 -1      1264-3.28850E+01-1.45689E+02-1.14035E+03
 -1      1265 6.80486E+01-9.98495E+01-6.97884E+01
 -1      1266 6.36143E+01-1.02815E+02-3.46595E+02
 -1      1267 5.17384E+01-1.06426E+02-5.91147E+02
 -1      1268 3.39256E+01-1.10871E+02-7.71457E+02
 -1      1269 1.42766E+01-1.15722E+02-8.71936E+02
 -1      1270 2.99323E+00-1.26392E+02-8.97575E+02
 -1      1271 6.69762E+01-9.90720E+01 1.36524E+02
 -1      1272 6.56684E+01-9.92176E+01-1.10645E+00
 -1      1273 6.25716E+01-9.98833E+01-1.35012E+02
 -1      1274 5.72670E+01-1.00859E+02-2.60737E+02
 -1      1275 5.01430E+01-1.02163E+02-3.73501E+02
 -1      1276 4.13522E+01-1.03832E+02-4.69277E+02
 -1      1277 3.15801E+01-1.05773E+02-5.45169E+02
 -1      1278 2.19608E+01-1.08288E+02-5.99362E+02
 -1      1279 1.29165E+01-1.11210E+02-6.32965E+02
 -1      1280 6.74733E+00-1.14078E+02-6.49918E+02
 -1      1281 4.85191E+00-1.12842E+02-6.58316E+02
 -1      1282 6.76481E+01-9.45010E+01 3.40483E+02
 -1      1283 6.22115E+01-9.46061E+01 6.88642E+01
 -1      1284 4.91810E+01-9.52622E+01-1.66358E+02
 -1      1285 2.93478E+01-9.78727E+01-3.30657E+02
 -1      1286 9.82547E+00-1.03391E+02-4.06001E+02
 -1      1287-4.46113E-01-1.07277E+02-4.18263E+02
 -1      1288 6.91174E+01-8.74121E+01 5.33713E+02
 -1      1289 6.63644E+01-8.75764E+01 3.93522E+02
 -1      1290 6.25321E+01-8.68140E+01 2.59368E+02
 -1      1291 5.69547E+01-8.61140E+01 1.34424E+02
 -1      1292 4.91495E+01-8.55471E+01 2.36939E+01
 -1      1293 3.89944E+01-8.52598E+01-6.81851E+01
 -1      1294 2.75738E+01-8.62281E+01-1.36974E+02
 -1      1295 1.61321E+01-8.81040E+01-1.79746E+02
 -1      1296 5.16925E+00-9.11036E+01-1.98865E+02
 -1      1297-2.35263E+00-9.74733E+01-1.96174E+02
 -1      1298-6.84797E+00-9.77458E+01-1.86357E+02
 -1      1299 7.05538E+01-7.83334E+01 7.09392E+02
 -1      1300 6.37184E+01-7.69071E+01 4.30672E+02
 -1      1301 5.03226E+01-7.29392E+01 1.89998E+02
 -1      1302 2.73733E+01-7.03607E+01 2.77451E+01
 -1      1303-4.23867E-01-7.37136E+01-1.96592E+01
 -1      1304-1.63812E+01-7.79041E+01 2.97471E+01
 -1      1305 7.18197E+01-6.80363E+01 8.63081E+02
 -1      1306 6.91061E+01-6.73914E+01 7.18338E+02
 -1      1307 6.55617E+01-6.58721E+01 5.79611E+02
 -1      1308 6.06775E+01-6.30598E+01 4.47327E+02
 -1      1309 5.36753E+01-5.90869E+01 3.28026E+02
 -1      1310 4.30096E+01-5.50277E+01 2.27104E+02
 -1      1311 2.87687E+01-5.09999E+01 1.53992E+02
 -1      1312 1.00704E+01-4.80667E+01 1.15754E+02
 -1      1313-4.36417E+00-4.96205E+01 1.14414E+02
 -1      1314-1.73779E+01-5.89082E+01 1.48496E+02
 -1      1315-3.02089E+01-5.33147E+01 2.13333E+02
 -1      1316 7.22336E+01-5.75128E+01 9.92577E+02
 -1      1317 6.80704E+01-5.48991E+01 7.03733E+02
 -1      1318 5.89915E+01-4.58686E+01 4.34725E+02
 -1      1319 3.28263E+01-2.76224E+01 2.34300E+02
 -1      1320-5.47325E+00-2.59286E+01 1.93849E+02
 -1      1321-5.02664E+01-2.35661E+01 3.16796E+02
 -1      1322 7.15315E+01-4.77849E+01 1.09694E+03
 -1      1323 6.96844E+01-4.92244E+01 9.51972E+02
 -1      1324 7.07148E+01-4.67721E+01 8.08107E+02
 -1      1325 7.07830E+01-4.20046E+01 6.60236E+02
 -1      1326 6.61755E+01-3.37995E+01 5.14459E+02
 -1      1327 5.76223E+01-2.25549E+01 3.78941E+02
 -1      1328 4.29355E+01-1.02970E+01 2.69334E+02
 -1      1329 2.77829E+01 2.16330E+00 1.94525E+02
 -1      1330-5.30564E+00 1.55665E+01 1.87345E+02
 -1      1331-4.08956E+01 3.79864E+01 2.68731E+02
 -1      1332-5.32174E+01-1.31880E+01 3.74056E+02
 -1      1333 6.34813E+01-5.39770E+01 1.17389E+03
 -1      1334 7.19841E+01-4.33793E+01 8.99789E+02
 -1      1335 7.72741E+01-2.72849E+01 5.72157E+02
 -1      1336 6.13641E+01 2.86539E+00 2.63109E+02
 -1      1337-1.15137E+01 5.53427E+01 8.12286E+01
 -1      1338-8.45901E+01 3.35478E+02 3.12369E+02
 -1      1339 1.77083E+01-7.31985E+01 1.24582E+03
 -1      1340 4.96567E+01-4.29884E+01 1.13085E+03
 -1      1341 7.62607E+01-4.34341E+01 9.85773E+02
 -1      1342 7.70768E+01-3.70774E+01 8.12937E+02
 -1      1343 7.78762E+01-2.57323E+01 6.26374E+02
 -1      1344 6.91310E+01-9.14803E+00 4.25882E+02
 -1      1345 5.58229E+01 1.36451E+01 2.29277E+02
 -1      1346 3.87512E+01 4.50924E+01 8.00403E+01
 -1      1347 3.79511E+01 6.50387E+01-5.36816E+01
 -1      1348-2.78595E+02 1.29364E+02-1.24364E+02
 -1      1349-7.37557E+02 8.18812E+02 1.19158E+01
 -1      1350 9.21219E+01-1.32268E+02-2.74652E+02
 -1      1351 8.44795E+01-1.38184E+02-5.60945E+02
 -1      1352 6.88316E+01-1.44324E+02-8.13671E+02
 -1      1353 4.52248E+01-1.51158E+02-1.00461E+03
 -1      1354 2.15127E+01-1.56390E+02-1.11395E+03
 -1      1355-2.68245E+01-1.81594E+02-1.14042E+03
 -1      1356 8.87339E+01-1.31141E+02 1.36426E+02
 -1      1357 8.29449E+01-1.32410E+02-1.34995E+02
 -1      1358 6.65236E+01-1.35422E+02-3.73316E+02
 -1      1359 4.18308E+01-1.40264E+02-5.44937E+02
 -1      1360 1.68295E+01-1.47508E+02-6.32750E+02
 -1      1361 6.05264E+00-1.50551E+02-6.58598E+02
 -1      1362 9.14192E+01-1.16115E+02 5.33309E+02
 -1      1363 8.28865E+01-1.15100E+02 2.59048E+02
 -1      1364 6.51598E+01-1.13459E+02 2.35347E+01
 -1      1365 3.64968E+01-1.14304E+02-1.37133E+02
 -1      1366 6.43849E+00-1.21683E+02-1.99213E+02
 -1      1367-8.94986E+00-1.29947E+02-1.87516E+02
 -1      1368 9.51383E+01-9.00282E+01 8.62552E+02
 -1      1369 8.68311E+01-8.71182E+01 5.79046E+02
 -1      1370 7.10730E+01-7.82573E+01 3.27659E+02
 -1      1371 3.77503E+01-6.72446E+01 1.53617E+02
 -1      1372-6.38450E+00-6.74368E+01 1.14362E+02
 -1      1373-3.97904E+01-7.26888E+01 2.11282E+02
 -1      1374 9.46049E+01-6.33372E+01 1.09653E+03
 -1      1375 9.34762E+01-6.18581E+01 8.07492E+02
 -1      1376 8.86609E+01-4.43407E+01 5.14281E+02
 -1      1377 5.85734E+01-1.28435E+01 2.68641E+02
 -1      1378-9.96261E+00 2.35353E+01 1.86816E+02
 -1      1379-6.80467E+01 1.14501E+01 3.68287E+02
 -1      1380 4.29458E+01-8.31912E+01 1.24613E+03
 -1      1381 9.89231E+01-5.67585E+01 9.85168E+02
 -1      1382 1.04255E+02-3.38516E+01 6.26848E+02
 -1      1383 7.81365E+01 1.76387E+01 2.30570E+02
 -1      1384 2.76447E+01 8.47392E+01-4.93363E+01
 -1      1385-6.87637E+02 7.81337E+02 1.22224E+01
 -1      1386 1.14324E+02-1.64700E+02-2.74668E+02
 -1      1387 1.11704E+02-1.67395E+02-4.19203E+02
 -1      1388 1.05874E+02-1.72014E+02-5.60634E+02
 -1      1389 9.73435E+01-1.75699E+02-6.92829E+02
 -1      1390 8.63589E+01-1.79573E+02-8.13117E+02
 -1      1391 7.24059E+01-1.83749E+02-9.17907E+02
 -1      1392 5.65514E+01-1.88172E+02-1.00393E+03
 -1      1393 4.12531E+01-1.92397E+02-1.06815E+03
 -1      1394 2.59159E+01-1.94421E+02-1.11312E+03
 -1      1395-2.83599E-01-1.95559E+02-1.13386E+03
 -1      1396-2.25400E+01-2.17771E+02-1.14046E+03
 -1      1397 1.12102E+02-1.64740E+02-6.97777E+01
 -1      1398 1.05344E+02-1.69500E+02-3.46289E+02
 -1      1399 8.56115E+01-1.75346E+02-5.90402E+02
 -1      1400 5.56622E+01-1.82819E+02-7.70391E+02
 -1      1401 2.37106E+01-1.90235E+02-8.71130E+02
 -1      1402 4.83202E+00-2.01978E+02-8.99201E+02
 -1      1403 1.10418E+02-1.63452E+02 1.36291E+02
 -1      1404 1.08125E+02-1.63913E+02-1.25642E+00
 -1      1405 1.03413E+02-1.65103E+02-1.34964E+02
 -1      1406 9.45459E+01-1.66739E+02-2.60472E+02
 -1      1407 8.29505E+01-1.68892E+02-3.73064E+02
 -1      1408 6.81684E+01-1.71593E+02-4.68734E+02
 -1      1409 5.20877E+01-1.74898E+02-5.44604E+02
 -1      1410 3.55908E+01-1.79424E+02-5.98748E+02
 -1      1411 2.05154E+01-1.84294E+02-6.32478E+02
 -1      1412 1.15911E+01-1.88187E+02-6.49990E+02
 -1      1413 7.42866E+00-1.88032E+02-6.58849E+02
 -1      1414 1.11558E+02-1.56318E+02 3.39835E+02
 -1      1415 1.02793E+02-1.56122E+02 6.85295E+01
 -1      1416 8.13018E+01-1.57252E+02-1.66320E+02
 -1      1417 4.84155E+01-1.61577E+02-3.30548E+02
 -1      1418 1.51388E+01-1.71126E+02-4.06272E+02
 -1      1419-5.51258E-01-1.79775E+02-4.19247E+02
 -1      1420 1.13789E+02-1.45036E+02 5.32778E+02
 -1      1421 1.09351E+02-1.44808E+02 3.92666E+02
 -1      1422 1.03333E+02-1.43567E+02 2.58625E+02
 -1      1423 9.38293E+01-1.42422E+02 1.33875E+02
 -1      1424 8.12089E+01-1.41508E+02 2.33305E+01
 -1      1425 6.42223E+01-1.41164E+02-6.84826E+01
 -1      1426 4.54619E+01-1.42740E+02-1.37322E+02
 -1      1427 2.58772E+01-1.46179E+02-1.80250E+02
 -1      1428 7.26511E+00-1.52074E+02-1.99627E+02
 -1      1429-3.77245E+00-1.61796E+02-1.97375E+02
 -1      1430-1.08181E+01-1.64148E+02-1.88910E+02
 -1      1431 1.16156E+02-1.29426E+02 7.08196E+02
 -1      1432 1.05213E+02-1.26819E+02 4.29694E+02
 -1      1433 8.32087E+01-1.20411E+02 1.89304E+02
 -1      1434 4.43120E+01-1.15919E+02 2.73029E+01
 -1      1435-8.78644E-01-1.22562E+02-2.10540E+01
 -1      1436-2.88818E+01-1.37845E+02 2.87189E+01
 -1      1437 1.18290E+02-1.12263E+02 8.61821E+02
 -1      1438 1.13582E+02-1.11243E+02 7.17077E+02
 -1      1439 1.08186E+02-1.08322E+02 5.78320E+02
 -1      1440 1.00152E+02-1.03927E+02 4.46306E+02
 -1      1441 8.86843E+01-9.76057E+01 3.27174E+02
 -1      1442 7.04991E+01-9.01205E+01 2.26145E+02
 -1      1443 4.63649E+01-8.31685E+01 1.53131E+02
 -1      1444 1.72131E+01-8.13322E+01 1.14900E+02
 -1      1445-7.81002E+00-8.65236E+01 1.13970E+02
 -1      1446-3.19945E+01-9.33512E+01 1.44026E+02
 -1      1447-5.08668E+01-9.06938E+01 2.08983E+02
 -1      1448 1.18675E+02-9.44941E+01 9.91422E+02
 -1      1449 1.12192E+02-9.08021E+01 7.02432E+02
 -1      1450 9.79438E+01-7.48969E+01 4.33953E+02
 -1      1451 5.60637E+01-4.64886E+01 2.33467E+02
 -1      1452-1.50068E+01-3.35538E+01 1.91502E+02
 -1      1453-8.03785E+01-4.40311E+01 3.13185E+02
 -1      1454 1.18112E+02-7.80865E+01 1.09597E+03
 -1      1455 1.15860E+02-7.92783E+01 9.50865E+02
 -1      1456 1.16167E+02-7.71691E+01 8.06708E+02
 -1      1457 1.16206E+02-6.85910E+01 6.59256E+02
 -1      1458 1.10931E+02-5.43777E+01 5.13971E+02
 -1      1459 9.60067E+01-3.65528E+01 3.78720E+02
 -1      1460 7.52117E+01-1.59143E+01 2.68075E+02
 -1      1461 3.71659E+01 9.39466E+00 1.94657E+02
 -1      1462-1.91051E+01 3.57683E+01 1.86122E+02
 -1      1463-5.33451E+01 4.72195E+01 2.64697E+02
 -1      1464-7.92483E+01 2.30783E+01 3.61814E+02
 -1      1465 1.04207E+02-7.98373E+01 1.17508E+03
 -1      1466 1.19886E+02-7.03741E+01 8.98794E+02
 -1      1467 1.28168E+02-4.52482E+01 5.71694E+02
 -1      1468 9.79492E+01 8.31920E+00 2.65615E+02
 -1      1469-1.81451E+00 7.60211E+01 8.31846E+01
 -1      1470-1.37093E+02 3.81274E+02 2.67724E+02
 -1      1471 6.55502E+01-9.26787E+01 1.24627E+03
 -1      1472 9.26545E+01-6.99324E+01 1.12747E+03
 -1      1473 1.22597E+02-6.99123E+01 9.84393E+02
 -1      1474 1.30925E+02-6.06374E+01 8.12786E+02
 -1      1475 1.32662E+02-4.23707E+01 6.27375E+02
 -1      1476 1.26622E+02-1.33888E+01 4.25814E+02
 -1      1477 1.00182E+02 2.35321E+01 2.31871E+02
 -1      1478 7.38945E+01 7.34510E+01 8.22420E+01
 -1      1479 3.10169E+01 9.97086E+01-4.45008E+01
 -1      1480-2.89595E+02 2.10087E+02-8.29946E+01
 -1      1481-6.54716E+02 7.66863E+02 1.23578E+01
 -3
    1PSTEP                        34           1           1          
    1PGM                1.000000E+00                                  
    1PGK                2.003583E+12                                  
    1PHID                         -1                                  
    1PSUBC                         0                                  
    1PMODE                         9                                  
  100CL  109 225280.6251        1481                     2    9MODAL      1
 -4  STRESS      6    1
 -5  SXX         1    4    1    1
 -5  SYY         1    4    2    2
 -5  SZZ         1    4    3    3
 -5  SXY         1    4    1    2
 -5  SYZ         1    4    2    3
 -5  SZX         1    4    3    1
 -1         1 1.39449E+06 1.18774E+06 7.08360E+05 1.40256E+06-4.27843E+05-1.03704E+06
 -1         2 3.87924E+06 9.83717E+05 4.35994E+04 1.66498E+06 3.43342E+05-2.93845E+05
 -1         3 6.42141E+06 4.84465E+05 8.06098E+04 1.46555E+06-2.59765E+04-6.45859E+05
 -1         4 8.40741E+06 3.17608E+05 8.70055E+04 1.16903E+06 1.27281E+05-1.92744E+05
 -1         5 1.07057E+07 2.66941E+05-3.02586E+05 1.26217E+06 2.64309E+05-4.72432E+05
 -1         6 1.29802E+07 6.38421E+05 4.74233E+05 1.36770E+06 2.16340E+05-3.17857E+05
 -1         7 1.36617E+07 3.06610E+05-2.12477E+05 1.48820E+06 4.16347E+05-9.26869E+05
 -1         8 1.30058E+07-3.93935E+04-1.35190E+04 1.36744E+06 2.19215E+04 2.56426E+05
 -1         9 1.97931E+07 3.14297E+06 1.47897E+06-8.39346E+05 5.37544E+05-4.70033E+05
 -1        10 2.07688E+07 2.20139E+06-1.57788E+06-2.37249E+06-2.81353E+05 5.32963E+04
 -1        11 1.50507E+07-9.51925E+06 1.69380E+06-2.32755E+06 3.39831E+06 7.34326E+06
 -1        12 3.34332E+05-4.55352E+05-6.60253E+04 9.98280E+05-3.21159E+05-3.94868E+04
 -1        13 5.34119E+06-1.42532E+06 5.86090E+04 1.45063E+06-1.71263E+05-2.09255E+05
 -1        14 1.05015E+07-1.62275E+06-8.36639E+04 1.65942E+06-7.26548E+04-8.24796E+04
 -1        15 1.34703E+07-1.97511E+06-3.74536E+05 2.20174E+06-1.07090E+05-3.01932E+05
 -1        16 1.22656E+07-7.51866E+05 4.22161E+05 9.19561E+05 5.53556E+05 1.14674E+06
 -1        17 1.35563E+06-1.18972E+07 1.29533E+06-1.98970E+05-8.12694E+04-6.24945E+05
 -1        18 1.06952E+05-2.94131E+06 3.23893E+04 1.68202E+05 3.35379E+05-4.90441E+05
 -1        19 2.12810E+06-3.19929E+06 1.65918E+05 7.27850E+05 3.34282E+05-8.07793E+04
 -1        20 4.54274E+06-4.07524E+06-7.49094E+04 1.12303E+06 3.58924E+05-3.66830E+05
 -1        21 7.51326E+06-4.21343E+06-1.32260E+04 1.42149E+06 3.42035E+05 7.17128E+04
 -1        22 1.03260E+07-4.36506E+06 1.22121E+05 1.80195E+06 3.16607E+05-3.28808E+05
 -1        23 1.18223E+07-4.69437E+06 6.95535E+04 2.24699E+06 4.84328E+05-4.39911E+04
 -1        24 1.32275E+07-4.60362E+06 3.34009E+05 2.80727E+06 6.50158E+05 8.04719E+04
 -1        25 1.19780E+07-5.00332E+06-1.42381E+05 2.99381E+06 1.86074E+05-3.97966E+05
 -1        26 9.53355E+06-4.64798E+06-2.65781E+05 3.11729E+06 1.46329E+05 3.00584E+04
 -1        27 4.93241E+06-2.80254E+06 5.53206E+05 2.65179E+06 1.07521E+06 6.93075E+05
 -1        28-1.14673E+06-8.17140E+06-1.33090E+06 2.03661E+06 1.28769E+06 1.59314E+06
 -1        29-2.09929E+05-7.90760E+06-7.78196E+04-5.45108E+05-8.39411E+04-2.23536E+05
 -1        30 3.73719E+06-8.13011E+06-8.45627E+04 5.05149E+03-1.24999E+05-2.99939E+05
 -1        31 9.65864E+06-8.92230E+06 4.27296E+04 5.94604E+05-1.60714E+05-3.43290E+05
 -1        32 1.24230E+07-1.01467E+07 1.50965E+05 2.22883E+06-3.33632E+05 2.13309E+05
 -1        33 8.59838E+06-1.12856E+07 3.67269E+03 4.89079E+06-1.37770E+05-3.31790E+04
 -1        34 3.22216E+05-9.91152E+06 5.33104E+05 2.56936E+06-5.78757E+05 6.35482E+05
 -1        35-3.94786E+05-1.21765E+07-3.07356E+05-7.80765E+05 6.37697E+05-1.10035E+05
 -1        36 1.10970E+06-1.18404E+07-6.80725E+04-8.12323E+05 3.16853E+05 1.48218E+05
 -1        37 2.90728E+06-1.20236E+07 1.33065E+04-9.06773E+05 2.65172E+05-2.64664E+05
 -1        38 5.87727E+06-1.25979E+07 5.38804E+03-6.53478E+05 4.07676E+05 9.91797E+04
 -1        39 9.02404E+06-1.36588E+07-6.94485E+04-5.06073E+05 4.42508E+05-3.12872E+05
 -1        40 1.11088E+07-1.46163E+07 2.95790E+04 3.76731E+05 3.98676E+05 1.12716E+05
 -1        41 1.25275E+07-1.57509E+07 2.07177E+05 1.67553E+06 3.33792E+05 4.16826E+05
 -1        42 1.13102E+07-1.74832E+07-1.03104E+05 3.58920E+06 1.08139E+06-4.54463E+05
 -1        43 7.93837E+06-1.84247E+07-5.17818E+05 6.37536E+06 1.82132E+06-1.22688E+05
 -1        44 3.31884E+06-1.60864E+07 4.90311E+05 5.79493E+06 2.46424E+05 5.54911E+04
 -1        45 2.12214E+06-1.29151E+07 5.16596E+06 4.12451E+06 2.19821E+06 1.34840E+05
 -1        46-1.60060E+05-1.39225E+07 1.83395E+05-6.96395E+05 6.69968E+04-8.28826E+04
 -1        47 2.01097E+06-1.44512E+07-1.22656E+05-1.65514E+06 1.06915E+05-2.19454E+05
 -1        48 8.10539E+06-1.63883E+07 4.77245E+03-2.49025E+06-1.28417E+05-3.16245E+05
 -1        49 1.45274E+07-2.13425E+07-3.25469E+05-5.54910E+05-3.38792E+04-6.97966E+05
 -1        50 9.59964E+06-2.50154E+07 5.59172E+05 6.50933E+06-7.77273E+05 1.43587E+06
 -1        51-3.32614E+06-3.39252E+07-6.33820E+06 6.38767E+06 1.95620E+06 5.24629E+05
 -1        52-7.06670E+05-1.56864E+07-8.32787E+04-5.00869E+05-2.91973E+04-2.29396E+05
 -1        53-1.50576E+05-1.58044E+07-7.01696E+04-1.34750E+06-2.30851E+05-8.45103E+04
 -1        54 5.17616E+05-1.63795E+07-7.26476E+04-2.46430E+06 2.28596E+05-2.35770E+05
 -1        55 3.54052E+06-1.67752E+07-1.81859E+05-3.70909E+06-1.09404E+05 3.96984E+05
 -1        56 6.86543E+06-1.83215E+07-2.57681E+05-4.92155E+06-6.35734E+05-3.05402E+05
 -1        57 1.18598E+07-2.22050E+07 3.24274E+05-4.49593E+06 5.98727E+05 3.52042E+04
 -1        58 1.72065E+07-2.72088E+07 1.33853E+05-3.43046E+06 1.43765E+06-1.39447E+06
 -1        59 1.45239E+07-2.96601E+07-7.02122E+05 2.94930E+05-1.24594E+06 1.29871E+06
 -1        60 1.08008E+07-3.36551E+07-3.35609E+06 5.86805E+06-3.18733E+06 2.64704E+06
 -1        61 9.11903E+06-3.83146E+07 5.52558E+06 7.83306E+06 6.78901E+06-6.47052E+05
 -1        62 4.28293E+06-3.76999E+07 3.77010E+06 8.96105E+06 1.20779E+07 2.33581E+06
 -1        63-6.51783E+05-1.47736E+07-2.33400E+05 2.80095E+05 3.29284E+05 3.00927E+05
 -1        64-1.63844E+06-1.36617E+07 1.34293E+05-2.75580E+06-2.72333E+05-2.39786E+05
 -1        65 6.65673E+06-1.65056E+07 1.14384E+04-7.81049E+06 6.36853E+05-8.26074E+05
 -1        66 1.69560E+07-2.37497E+07 3.10249E+05-8.90538E+06-1.09851E+06 1.02253E+06
 -1        67 2.26048E+07-4.52601E+07 1.38059E+06-9.56371E+02 7.07722E+06-3.54328E+06
 -1        68 1.02103E+07-4.47419E+07 2.69516E+06 1.07856E+07-8.60384E+06-5.35897E+05
 -1        69 1.41589E+06-7.41060E+06 1.74734E+06 1.36987E+06-1.29820E+06 1.87397E+06
 -1        70-2.67281E+06-1.21984E+07-2.99890E+05-4.72040E+05 3.43254E+05 1.22727E+06
 -1        71-4.56090E+06-1.03277E+07 5.38701E+05-2.93879E+06-1.15333E+06-5.62692E+05
 -1        72-6.92498E+05-1.06984E+07 2.78774E+05-7.78678E+06-5.79391E+05-8.31562E+05
 -1        73 5.14203E+06-1.19907E+07 1.18047E+05-1.19379E+07 1.05252E+05-1.52729E+06
 -1        74 1.08679E+07-1.48902E+07-5.15434E+05-1.48983E+07-1.51156E+06 6.29628E+05
 -1        75 1.80775E+07-1.80889E+07 2.71912E+06-1.72129E+07-2.91621E+06 2.37402E+06
 -1        76 3.09807E+07-3.19829E+07-5.36457E+05-1.47392E+07 2.87260E+06-7.36383E+06
 -1        77 3.18510E+07-4.44556E+07 6.73553E+05-1.04794E+07 7.59380E+06-8.62293E+06
 -1        78 4.48146E+06-7.01797E+07-5.11317E+06-1.61864E+07-1.43826E+07 1.50850E+07
 -1        79-4.71288E+07-2.01619E+08-3.26695E+07-1.73686E+07 1.20713E+07 1.54544E+07
 -1        80-3.65114E+06 4.60843E+06-2.03889E+06 3.93026E+06-1.03201E+06-1.22386E+06
 -1        81-1.09486E+07-6.50744E+06-1.27705E+06-1.11209E+06 8.73132E+05 6.30485E+05
 -1        82 2.49996E+05-4.99438E+06 1.38846E+05-1.04618E+07-7.25137E+04-4.22252E+05
 -1        83 2.10967E+07-1.21627E+07-4.65814E+06-1.69806E+07 1.21683E+06-5.66893E+06
 -1        84 4.69021E+07-1.31279E+07 3.27496E+06-3.30403E+06-1.68981E+07 1.48044E+07
 -1        85-2.69066E+06-3.06585E+08 3.67242E+07-2.33403E+07 1.02055E+06-1.37790E+07
 -1        86-2.02416E+07 9.02496E+06-3.34361E+06 5.61873E+06 2.77286E+06 9.64503E+06
 -1        87-2.42626E+07-2.63898E+06 2.57676E+06 4.34945E+06-8.72340E+05 3.11747E+05
 -1        88-1.98985E+07-3.82978E+06-1.99028E+06 3.57150E+05-3.15256E+05-1.93740E+06
 -1        89-4.13048E+06 7.49281E+05-2.22988E+05-4.73319E+06-1.10291E+06 9.30673E+05
 -1        90-2.79922E+06-1.77060E+06-4.27946E+06-7.30747E+06-3.04672E+05-3.75297E+06
 -1        91 1.59877E+07 2.58246E+06 5.21472E+06-1.05043E+07-6.14417E+05-2.95798E+06
 -1        92 2.16403E+07-3.60535E+06-2.02865E+06-1.43767E+07-1.91328E+06-1.19291E+07
 -1        93 2.58135E+07-9.92706E+06-2.87059E+06-1.79206E+07-9.49982E+05 5.50073E+06
 -1        94 1.69711E+08 4.34299E+07 3.21505E+07 2.85411E+06-1.98270E+07-1.50296E+07
 -1        95 2.79730E+08-5.63533E+06-3.61942E+07 2.21309E+06 1.61553E+07-5.71761E+06
 -1        96 2.52072E+08-2.70315E+08-5.37757E+06-1.07779E+07-1.17860E+08 1.05566E+08
 -1        97 1.75452E+06 1.36336E+06 1.06077E+06 1.40058E+06-1.22491E+06-2.09066E+06
 -1        98 5.20544E+06 3.72545E+05 4.94496E+04 1.00126E+06 2.08959E+05-1.11313E+06
 -1        99 8.78192E+06 2.95434E+05-8.79076E+04 8.33059E+05 2.43326E+05-1.22634E+06
 -1       100 1.12402E+07 3.50579E+05-1.88081E+04 1.09427E+06 5.56443E+05-1.08284E+06
 -1       101 1.59043E+07 2.59775E+06 1.16224E+06-7.38974E+05 4.28362E+05-2.19970E+06
 -1       102 1.80794E+07-1.06966E+07 2.36263E+06-3.18876E+06 4.44178E+06 1.19340E+07
 -1       103-9.18977E+04-2.60410E+06-1.24889E+05 7.02477E+04 9.28780E+05-3.42991E+05
 -1       104 3.74508E+06-3.23671E+06 1.35495E+04 9.02892E+05 7.67488E+05-6.11935E+05
 -1       105 8.25797E+06-3.56244E+06 1.29373E+05 1.45902E+06 8.29462E+05-4.55326E+05
 -1       106 1.05298E+07-3.72999E+06 3.75016E+05 2.24944E+06 1.05659E+06 5.77643E+04
 -1       107 8.00646E+06-3.76840E+06-1.34075E+05 2.41249E+06 1.27415E+06 5.82260E+05
 -1       108-1.79202E+06-7.80219E+06-1.24199E+06 2.26703E+06 6.05828E+05 1.29269E+06
 -1       109-3.04339E+05-9.72679E+06-2.75699E+05-5.68369E+05 1.15609E+06-2.67194E+05
 -1       110 2.27998E+06-9.68684E+06-6.24971E+04-7.41824E+05 7.08119E+05-4.90592E+05
 -1       111 7.26014E+06-1.09736E+07-5.50538E+04-4.13940E+05 8.07388E+05-4.23202E+05
 -1       112 9.94395E+06-1.26468E+07 1.85224E+05 1.28854E+06 1.13633E+06 3.45976E+05
 -1       113 6.72954E+06-1.45560E+07-1.27543E+05 5.21571E+06 1.58545E+06 8.46805E+05
 -1       114 1.26705E+06-1.20722E+07 3.89178E+06 2.54094E+06 6.29124E+06-4.51188E+04
 -1       115-7.11297E+05-1.25458E+07-2.98202E+05-4.24797E+05 4.79117E+05 1.18477E+05
 -1       116 5.42068E+05-1.32185E+07-4.97169E+04-1.96690E+06 1.68216E+05-4.42976E+05
 -1       117 5.43516E+06-1.45740E+07-2.50523E+05-3.90872E+06-2.47691E+05-7.52081E+05
 -1       118 1.40714E+07-2.21904E+07 5.99855E+04-2.75144E+06 7.79259E+05-6.09124E+05
 -1       119 7.74583E+06-2.52826E+07-3.70553E+06 4.91718E+06-3.55146E+05 1.84926E+06
 -1       120 3.49587E+06-3.33181E+07 3.43570E+06 6.37790E+06 9.22642E+06 5.12862E+06
 -1       121 1.82167E+06-5.13930E+06 1.68156E+06 2.66489E+05-3.31678E+06 9.68870E+05
 -1       122-4.22089E+06-8.19322E+06 3.14688E+05-2.26735E+06-7.31189E+05-4.14547E+05
 -1       123 4.06925E+06-1.00710E+07-3.57693E+05-9.65243E+06-9.43554E+05-1.20495E+06
 -1       124 1.30387E+07-1.32920E+07 3.34096E+06-1.41165E+07-2.22252E+06 1.68559E+05
 -1       125 2.98423E+07-4.11101E+07 1.57429E+05-8.52341E+06-1.78103E+06 1.14130E+06
 -1       126-4.23406E+07-1.66193E+08-2.52236E+07-1.98167E+07 4.66147E+07 9.63207E+06
 -1       127-2.30899E+07 1.09297E+07-4.62177E+06 5.69743E+06 2.06944E+06 1.63346E+07
 -1       128-1.49222E+07-2.50833E+06-1.14117E+06 2.59819E+05-5.46771E+05-4.59950E+06
 -1       129-5.33971E+05-6.97607E+05-3.05675E+06-4.89273E+06 1.63478E+05-7.89998E+06
 -1       130 1.99832E+07-3.16286E+06-2.31759E+06-9.80201E+06-5.63412E+06-1.14175E+07
 -1       131 1.41898E+08 4.09094E+07 2.63136E+07 1.04038E+07-1.14038E+07-5.05651E+07
 -1       132 2.92685E+08-3.16321E+08-7.81531E+06-1.11493E+07-1.80503E+08 1.54468E+08
 -1       133 3.02164E+06 2.56943E+06 3.27031E+06 1.56004E+06-4.03491E+06-5.75114E+06
 -1       134 3.35280E+06 1.03269E+06 2.14056E+05 1.15890E+06 7.10624E+04-1.63278E+06
 -1       135 4.16878E+06 4.48669E+05 3.94630E+05 5.84798E+05 2.49174E+05-2.04916E+06
 -1       136 4.88251E+06 3.96809E+04-2.89150E+05 4.61588E+05 3.80045E+05-1.51453E+06
 -1       137 6.95556E+06 4.78327E+05 2.19047E+05 4.51620E+05 1.64952E+05-2.31786E+06
 -1       138 7.91230E+06 6.36312E+05 7.92031E+05 5.02355E+05 4.84743E+05-1.33408E+06
 -1       139 9.52887E+06 1.18365E+06 2.16442E+06 7.03820E+05 1.25972E+06-5.10186E+05
 -1       140 6.16168E+06-8.60865E+05-1.73628E+06 1.08160E+06-5.01609E+05-2.15077E+06
 -1       141 1.38626E+07 3.79697E+06 4.29804E+06-4.74896E+05 6.01002E+05-1.95077E+06
 -1       142 2.04173E+07 7.62812E+05-4.72778E+06-2.80985E+06 1.05159E+06 6.69481E+05
 -1       143 2.40925E+07-9.86193E+06 7.98994E+06-4.30830E+06 9.81896E+06 3.23779E+07
 -1       144 2.95849E+05-8.47773E+04 1.36438E+04 8.48148E+05-4.32162E+05-7.40740E+05
 -1       145 3.27695E+06-9.22392E+05 3.50343E+05 7.42596E+05 1.00273E+05-1.33872E+06
 -1       146 6.51323E+06-1.04767E+06 1.96570E+05 8.98415E+05 4.27404E+05-7.29674E+05
 -1       147 8.70769E+06-1.11535E+06 1.16072E+05 1.31106E+06 4.43538E+05-7.07167E+05
 -1       148 6.35371E+06-7.08539E+05 1.77961E+06 1.67819E+05 2.02024E+06 3.07057E+06
 -1       149 2.29988E+06-1.21412E+07 4.19666E+06-8.27599E+05-9.64812E+05 3.60958E+06
 -1       150-2.60033E+05-2.08330E+06-9.93443E+04-8.97416E+03 1.34622E+06-5.23151E+05
 -1       151 1.48143E+06-1.88059E+06 4.85453E+05 3.84314E+05 1.07590E+06-5.92810E+05
 -1       152 2.73539E+06-2.57368E+06-3.85649E+05 6.90282E+05 1.53744E+06-5.68002E+05
 -1       153 4.55079E+06-2.60448E+06-8.39271E+03 8.91053E+05 1.36326E+06-2.67279E+05
 -1       154 6.17479E+06-2.76033E+06 2.16456E+04 1.13968E+06 1.32162E+06-8.52108E+05
 -1       155 7.18715E+06-2.80387E+06 2.95018E+05 1.39375E+06 1.51560E+06-8.54292E+04
 -1       156 7.87102E+06-2.81188E+06 3.09392E+05 1.71729E+06 1.74268E+06 2.85567E+05
 -1       157 7.04437E+06-3.20806E+06 3.62808E+04 1.52891E+06 1.52743E+06-3.79799E+05
 -1       158 5.87613E+06-3.47273E+06-1.43911E+06 1.76777E+06 1.37353E+06-8.40511E+05
 -1       159 3.53732E+06-6.69977E+05 1.06132E+06 2.41508E+06 3.04922E+06 3.34923E+06
 -1       160-4.30798E+06-8.88118E+06-5.77038E+06 2.21139E+06-4.81522E+04 3.44556E+06
 -1       161-5.15509E+05-5.24000E+06-4.99808E+05-2.70529E+05 1.06066E+06-3.06690E+05
 -1       162 2.26262E+06-4.94726E+06-9.30805E+04-2.28253E+03 7.37985E+05-8.09200E+05
 -1       163 5.85211E+06-5.42019E+06 1.16306E+04 3.47560E+05 6.90685E+05-7.21401E+05
 -1       164 7.34176E+06-6.23001E+06 7.62472E+04 1.33972E+06 7.08027E+05 2.31498E+05
 -1       165 5.67766E+06-6.98226E+06-9.36068E+04 3.04073E+06 1.21334E+06 5.88058E+05
 -1       166 4.28865E+05-5.57048E+06 2.59138E+06 8.94040E+05 4.05909E+06-2.02595E+06
 -1       167-1.01292E+05-7.15479E+06 7.39267E+04-3.54299E+05 1.74345E+06-6.05232E+05
 -1       168 7.83927E+05-7.13262E+06-6.36671E+04-4.66982E+05 1.35980E+06 3.20531E+04
 -1       169 1.71138E+06-7.32874E+06 3.06226E+04-5.82864E+05 1.14033E+06-9.39868E+05
 -1       170 3.50830E+06-7.70186E+06-8.24278E+04-3.91738E+05 1.31289E+06-2.58339E+05
 -1       171 5.53079E+06-8.26447E+06 2.67372E+04-3.20827E+05 1.36977E+06-6.51778E+05
 -1       172 6.64576E+06-8.92333E+06-9.22105E+04 1.73601E+05 1.49138E+06 6.67433E+04
 -1       173 7.33678E+06-9.71955E+06-1.01589E+05 9.05323E+05 1.65077E+06 5.01328E+05
 -1       174 6.80765E+06-1.03006E+07 6.04861E+05 2.15804E+06 2.42892E+06 2.98713E+04
 -1       175 6.06123E+06-9.98144E+06 1.63898E+06 4.12343E+06 3.92590E+06 8.05403E+05
 -1       176 1.10967E+06-1.15395E+07-2.73893E+06 3.10769E+06 1.72184E+06 2.00416E+06
 -1       177 7.79694E+05-1.08231E+07 4.55595E+06 1.45873E+06 1.19836E+07-8.23417E+05
 -1       178-2.44502E+05-8.31367E+06-3.60255E+04-3.86441E+05 1.14443E+06 1.92458E+05
 -1       179 1.31404E+06-8.59413E+06-2.18996E+05-1.01496E+06 5.57603E+05-5.63763E+05
 -1       180 4.86945E+06-9.86862E+06 5.02749E+04-1.48696E+06 4.43458E+05-8.17625E+05
 -1       181 9.42142E+06-1.22922E+07 1.52168E+05-4.92998E+05 3.73892E+05-2.06872E+05
 -1       182 4.14876E+06-1.66354E+07-5.92270E+05 4.41610E+06-9.60087E+05 3.56248E+06
 -1       183-2.49243E+06-2.14786E+07-6.77384E+06 1.09136E+06 3.61924E+06 5.38797E+06
 -1       184-7.18454E+05-9.49172E+06-5.04889E+04-4.26333E+05 1.28950E+06 1.59411E+06
 -1       185 7.87566E+04-9.36064E+06 1.42812E+05-7.56670E+05 1.24589E+05-2.09884E+05
 -1       186 2.75451E+05-1.02761E+07-5.56193E+05-1.46105E+06 2.95184E+05-4.01449E+05
 -1       187 2.19807E+06-1.01291E+07-6.32795E+04-2.34357E+06 1.49862E+05-1.01999E+05
 -1       188 4.16329E+06-1.08462E+07 4.71516E+03-2.89735E+06-2.45868E+05-9.80068E+05
 -1       189 6.58022E+06-1.40826E+07-2.23126E+05-2.54500E+06 5.51722E+05 1.64347E+05
 -1       190 1.07942E+07-1.72183E+07-1.75575E+05-2.06082E+06 6.92531E+05-3.60736E+05
 -1       191 9.38319E+06-1.63469E+07-4.35158E+05-8.57502E+05 2.85420E+05 1.41260E+06
 -1       192 6.29418E+06-1.61641E+07 8.02000E+04 4.21462E+06-2.08863E+06 4.77637E+06
 -1       193 1.87452E+06-3.13580E+07-1.17805E+06 5.55811E+06 1.01613E+07 6.73844E+05
 -1       194-7.41954E+06-3.79242E+07-2.72464E+07 3.07391E+06-5.19788E+06 2.33337E+07
 -1       195 8.83536E+04-8.69802E+06-4.12424E+05 4.05156E+05-1.07217E+06-1.53684E+06
 -1       196-1.19004E+06-8.26305E+06 6.71733E+05-1.83608E+06-1.22795E+05-8.15354E+05
 -1       197 3.92493E+06-9.83914E+06-6.80012E+05-4.63981E+06 4.30873E+05-1.61141E+06
 -1       198 8.90991E+06-1.46501E+07 5.52622E+05-4.38298E+06-1.13739E+06 6.65083E+04
 -1       199 1.75348E+07-2.40688E+07-4.54500E+06-4.75985E+06 8.74802E+06-1.21691E+06
 -1       200 1.58780E+07-4.53364E+06 2.88434E+07 1.31751E+07 2.75148E+07-2.15469E+07
 -1       201 3.32865E+06-2.05838E+06 3.97089E+06-4.61621E+05-4.95457E+06 1.63725E+06
 -1       202-2.35202E+06-8.80543E+06-8.33768E+05-1.35394E+06-4.30734E+05 3.87697E+06
 -1       203-2.93701E+06-5.24304E+06 2.15332E+06-1.64758E+06-1.40172E+06-2.73628E+06
 -1       204 7.48277E+04-6.47900E+06-1.44013E+05-4.30310E+06-9.70508E+05-1.69043E+06
 -1       205 2.61637E+06-8.31430E+06-1.21037E+06-7.49158E+06-3.51197E+05-2.69833E+06
 -1       206 7.73779E+06-7.61994E+06-2.17819E+04-9.58877E+06-4.07946E+06 1.21773E+06
 -1       207 7.02706E+06-1.04339E+07-8.02072E+05-1.13390E+07-6.01841E+06 1.39820E+06
 -1       208 1.55952E+07-2.32300E+07 5.70010E+06-4.65155E+06 1.45723E+06-7.34190E+06
 -1       209 2.89262E+07-3.56494E+07 3.44717E+06-6.61610E+06 2.20376E+07-1.78353E+07
 -1       210 8.68237E+06-2.08629E+07-2.08609E+07-2.20454E+07-3.28248E+07 4.97151E+07
 -1       211-6.62241E+07-1.60317E+08-7.82743E+07-1.81095E+07 5.16449E+07 1.45657E+07
 -1       212-3.90596E+06 8.17472E+06-5.47306E+06 2.73293E+06-5.45959E+06 4.28067E+06
 -1       213-5.53375E+06-3.98268E+06-3.62327E+06-2.15339E+05 1.83433E+06 1.27321E+06
 -1       214 8.68194E+05-2.57697E+06 2.17405E+06-5.88138E+06-2.21504E+06-2.37336E+06
 -1       215 2.00398E+07-4.15061E+06 1.47930E+06-1.04746E+07-1.07762E+05-9.54362E+06
 -1       216 5.78197E+06-1.53748E+07 1.44096E+07 1.18665E+07-5.46968E+07 2.73908E+07
 -1       217 1.90773E+07-3.21005E+08 9.73556E+07-2.44584E+07 1.17084E+07 3.56597E+07
 -1       218-3.10707E+07 9.00987E+06-1.48792E+07 6.34053E+06 4.67571E+06 4.27102E+07
 -1       219-2.34588E+07-6.16886E+05 5.71128E+06 4.14696E+06-9.69010E+05 1.62464E+06
 -1       220-1.19580E+07-2.55715E+06-2.57420E+06 5.82474E+04-2.30656E+06-4.15473E+06
 -1       221 8.60744E+04 1.77871E+06 9.81001E+05-2.74052E+06-6.12395E+05-7.59276E+06
 -1       222 3.22518E+05-9.44199E+05-6.51379E+06-2.99246E+06 2.62172E+06-1.25109E+07
 -1       223 1.12861E+07 1.95038E+06 4.88208E+06-2.72628E+06-5.89568E+06-7.43785E+06
 -1       224 2.53462E+07 5.43383E+06 2.31665E+07-4.65511E+06-2.60271E+07-1.53101E+06
 -1       225-2.15063E+06-1.15614E+07-2.32509E+07-1.56169E+07 2.22366E+07-3.39104E+07
 -1       226 1.41398E+08 6.59272E+07 7.78213E+07 1.31884E+07-1.87166E+07-6.23086E+07
 -1       227 2.94297E+08-2.82699E+07-9.78001E+07 8.27497E+06-4.08157E+07-2.91815E+07
 -1       228 3.37098E+08-3.80643E+08-2.48766E+07-1.26984E+07-4.69797E+08 3.93124E+08
 -1       229 9.82039E+06 8.62679E+06 6.80583E+06 4.43817E+06-7.29134E+06-9.92804E+06
 -1       230 2.25831E+06-2.67968E+05 5.56083E+05-1.09791E+05 4.47270E+05-2.37126E+06
 -1       231 4.84277E+06 6.92055E+05 3.23476E+05 4.41674E+05 1.80171E+05-3.14931E+06
 -1       232 5.72516E+06 2.40382E+05 2.81089E+06-4.59734E+05 1.45284E+06 1.66839E+05
 -1       233 8.11674E+06 4.89945E+06 7.15763E+06 1.07679E+06 1.46302E+06-2.84010E+06
 -1       234 5.53770E+07-8.15926E+06 1.60464E+07-1.18020E+07 1.35755E+07 5.51438E+07
 -1       235-1.03900E+06-2.07152E+06-4.94025E+04-4.85859E+05 1.75703E+06-4.69187E+05
 -1       236 2.20772E+06-1.48520E+06-6.23271E+05 6.85437E+05 2.01063E+06-5.68813E+05
 -1       237 4.12649E+06-2.02768E+06-1.59944E+05 7.16506E+05 1.53509E+06-1.13149E+06
 -1       238 5.19156E+06-1.82110E+06 2.35151E+05 1.33570E+06 2.36334E+06 4.36444E+05
 -1       239 5.57440E+06-3.12210E+06-2.55209E+06 7.38521E+05 5.48681E+05-1.96601E+06
 -1       240-7.70368E+06-7.62149E+06-8.85534E+06 1.61964E+06-1.30416E+05 3.93607E+06
 -1       241 9.03702E+05-4.45687E+06 5.17117E+05-1.77567E+05 2.11162E+06-1.04724E+06
 -1       242 9.37187E+05-4.95129E+06 1.65364E+05-3.93045E+05 1.33764E+06-1.19985E+06
 -1       243 3.81355E+06-5.62337E+06 8.84512E+04-2.36332E+05 1.81883E+06-8.89323E+05
 -1       244 4.54674E+06-6.65395E+06-4.53500E+05 5.46814E+05 1.70361E+06 8.69548E+05
 -1       245 6.58279E+06-6.54854E+06 3.51462E+06 2.38404E+06 6.50315E+06-3.13147E+05
 -1       246-3.13361E+06-9.23336E+06 3.89341E+06 4.00499E+06 1.57342E+07 2.71048E+05
 -1       247-3.24723E+06-7.64516E+06-2.67440E+05-1.28402E+06 1.51016E+06 3.12490E+06
 -1       248 6.75656E+05-7.11070E+06-7.87929E+05-8.93588E+05 6.37339E+05-4.36395E+05
 -1       249 2.88758E+06-6.89241E+06 3.89393E+05-1.90676E+06-6.01598E+05-8.80593E+05
 -1       250 7.60593E+06-1.18823E+07-1.81088E+05-1.33492E+06 1.18406E+06-8.16231E+05
 -1       251-5.20721E+05-7.81163E+06 1.85991E+06 5.51408E+06-6.08992E+06 8.66928E+06
 -1       252 1.94224E+07-9.25577E+06-3.69691E+07-1.63423E+07-1.50134E+07 3.52274E+07
 -1       253 9.46431E+06 4.79864E+05 6.19037E+06-1.72806E+06-5.29830E+06 1.23864E+06
 -1       254-4.59060E+06-1.98816E+06 3.57934E+06-4.43410E+05-2.90902E+06-4.52892E+06
 -1       255 1.83048E+06-8.72263E+06-2.46681E+06-5.07539E+06 1.22812E+06-4.55266E+06
 -1       256 1.86729E+06-1.37934E+06-3.03935E+06-1.00385E+07-1.01698E+07 4.92257E+06
 -1       257 4.86774E+07-5.77455E+07 5.40462E+06-6.19134E+06 4.91002E+07-4.24892E+07
 -1       258-1.26661E+08-1.05509E+08-1.27767E+08-4.10458E+06 6.16801E+07 1.92596E+07
 -1       259-7.19135E+07 2.94883E+06-2.95135E+07 1.63619E+07 5.51070E+06 7.13528E+07
 -1       260-6.34303E+06-5.77000E+06-4.83414E+06-1.00695E+06-2.63068E+06-5.02935E+06
 -1       261 4.23967E+06 6.51326E+06-6.70018E+06-2.87683E+06 3.03395E+06-1.51518E+07
 -1       262-7.65763E+05-2.64025E+07 2.94405E+07 1.50960E+07-4.13257E+07 4.33361E+06
 -1       263 1.01496E+08 1.36453E+08 1.25517E+08 8.24084E+06-2.20610E+07-7.29327E+07
 -1       264 5.96088E+08-7.41672E+08-5.25091E+07-3.58215E+07-7.68705E+08 6.32680E+08
 -1       265 1.84306E+07 4.73930E+07 1.84306E+07-1.80801E+06 1.61117E+07-2.55648E+01
 -1       266 7.66407E+06 1.97076E+07 7.66408E+06-1.68540E+06 6.30445E+06 3.32278E+01
 -1       267-3.98852E+06-1.02562E+07-3.98852E+06-1.32178E+06 2.14223E+05-2.58025E+01
 -1       268-1.28174E+07-3.29589E+07-1.28174E+07-1.54423E+06-4.12030E+06 3.06569E+01
 -1       269-2.22428E+07-5.71959E+07-2.22429E+07-2.13606E+06-8.98316E+06-9.46185E-01
 -1       270-3.64893E+07-9.38297E+07-3.64894E+07-8.82305E+05-1.33900E+07-1.45575E+00
 -1       271-5.15169E+07-1.32472E+08-5.15169E+07-7.26149E+05-2.91990E+07 9.25804E+00
 -1       272-6.89220E+07-1.77228E+08-6.89220E+07-5.39441E+06-1.52809E+07 8.32757E+01
 -1       273-8.87570E+07-2.28232E+08-8.87570E+07-4.86512E+06-7.61012E+06-2.08163E+00
 -1       274-9.69110E+07-2.49199E+08-9.69109E+07-1.09960E+06-4.44620E+07 4.36197E+01
 -1       275-9.51596E+07-2.44696E+08-9.51596E+07 4.98601E+05-2.39990E+07 5.07269E+01
 -1       276-7.30182E+07-1.87761E+08-7.30181E+07 3.16463E+06-3.75177E+07-1.55980E+02
 -1       277-4.58077E+07-1.17791E+08-4.58077E+07 5.01055E+06-1.50547E+07 1.22360E+02
 -1       278-7.24234E+06-1.86231E+07-7.24232E+06 6.51064E+06 6.02871E+06-1.48887E+02
 -1       279 2.98781E+07 7.68295E+07 2.98781E+07 7.77152E+06 4.30214E+07 1.23871E+02
 -1       280 1.14920E+07 3.04921E+07 9.13287E+06-1.49208E+07 2.49998E+06-1.00451E+06
 -1       281-1.65564E+06-8.15678E+06-1.52999E+06-1.42648E+07 1.75840E+06 1.87786E+06
 -1       282-1.75886E+07-4.85093E+07-1.24702E+07-1.48167E+07-1.13548E+06 5.01062E+06
 -1       283-4.12073E+07-9.18092E+07-1.79253E+07-2.42705E+07 3.41336E+06-2.04143E+06
 -1       284-4.49027E+07-1.90126E+08-3.17390E+07-2.47117E+07 1.23858E+06-6.00785E+06
 -1       285-5.18637E+07-1.81773E+08-4.81827E+07 2.18298E+07 7.49307E+06 2.82783E+06
 -1       286-2.36640E+07-8.57786E+07-2.35971E+07 4.68272E+07 6.38617E+06-3.31278E+05
 -1       287 1.87101E+07 4.05666E+07 1.08883E+07 5.17910E+07 9.42584E+06 7.80204E+05
 -1       288-7.48616E+05-2.22756E+06-6.07867E+06-2.48533E+07 1.36587E+07-1.64896E+06
 -1       289 1.92987E+06-1.78317E+06-1.36411E+06-2.58117E+07 3.01434E+06 8.17092E+05
 -1       290 2.40193E+06-4.33056E+06 1.89497E+06-2.60817E+07-1.40989E+06 4.87532E+05
 -1       291-2.61576E+06-1.30397E+07 2.87115E+06-2.64702E+07-3.78357E+06-3.23640E+06
 -1       292-1.02238E+07-2.26539E+07 2.86864E+06-2.67101E+07-3.00416E+06-8.91623E+05
 -1       293-1.44241E+07-1.97135E+07 1.57980E+07-2.79140E+07-1.10677E+07 1.90491E+06
 -1       294-2.08311E+07-2.46170E+07 2.59132E+07-3.84681E+07-1.51215E+07-2.86430E+06
 -1       295-2.21888E+07-1.01349E+08 1.87979E+07-6.01469E+07-2.81743E+07-2.43401E+07
 -1       296 3.20570E+07-1.25455E+08 4.19867E+07-2.83528E+07-2.92177E+07-2.94739E+06
 -1       297 4.55823E+07-8.54727E+07 4.01353E+07 1.35039E+07-2.12247E+07 2.06253E+05
 -1       298 3.40599E+07-5.34752E+07 2.90347E+07 4.48483E+07-3.38212E+07-5.18056E+05
 -1       299 2.80757E+07-3.16727E+07 2.32752E+07 6.40367E+07-1.77558E+07 1.83823E+06
 -1       300 2.02305E+07-1.48560E+07 1.55986E+07 8.29505E+07-2.20969E+07 3.18864E+06
 -1       301 1.32882E+07-2.01096E+06 4.49541E+06 8.45742E+07-4.39694E+06-1.35823E+06
 -1       302 9.91475E+06 2.69807E+06-7.88653E+06 8.31997E+07 2.60955E+07 3.33214E+06
 -1       303-7.44209E+06-2.70508E+07-6.00351E+06-1.55492E+07 2.26156E+06 1.44358E+06
 -1       304-1.47046E+06 1.08311E+06 9.29710E+05-2.31631E+07 1.28463E+06-5.50473E+05
 -1       305 5.75109E+05-5.06650E+05 3.60882E+06-2.61376E+07 1.16918E+06 3.28411E+05
 -1       306 4.80907E+06 1.96380E+07 1.34709E+07-1.30098E+07 1.14075E+06 9.44324E+05
 -1       307 4.92228E+07-6.71314E+07 9.65194E+06 2.38584E+07-3.00452E+06-2.08722E+07
 -1       308 7.84244E+07 1.55289E+07 9.53938E+06 7.21218E+07 3.00508E+06 2.12809E+06
 -1       309 4.06039E+07 3.72966E+07 9.45346E+06 8.16787E+07 1.03066E+07 2.51827E+06
 -1       310-2.42237E+06-1.13640E+07-5.54320E+06 6.48744E+07 1.68319E+07 3.81838E+06
 -1       311-4.86541E+06-4.30026E+06-9.06566E+05 2.43433E+07-1.67913E+05-8.36129E+05
 -1       312-1.04881E+07-1.47685E+07 3.52109E+04 1.55617E+07 1.45799E+06-7.64243E+06
 -1       313-9.65845E+06-2.52853E+07 2.77007E+06 2.27805E+06 2.27487E+06-3.76905E+05
 -1       314-5.78838E+06-9.71761E+06 1.75617E+06-5.95146E+06 2.24230E+05 3.58343E+05
 -1       315-6.07459E+06 6.84317E+06-1.43447E+05-1.49444E+07 7.21595E+05-2.71594E+06
 -1       316-5.73064E+06 1.32878E+06-3.85939E+06-2.41022E+07-2.96364E+06-9.10286E+06
 -1       317 2.07013E+06 1.90789E+06-3.78127E+06-2.43316E+07-4.66931E+06-7.00964E+06
 -1       318 1.87107E+06-4.83879E+05-1.47527E+07-1.59121E+07 3.43759E+06 1.85782E+05
 -1       319 3.49908E+06 8.18264E+06-2.21162E+07-6.24018E+06-6.24319E+06-1.37219E+06
 -1       320 5.08025E+07-4.22495E+07-3.64109E+07 4.15119E+07-2.73903E+07-1.41269E+07
 -1       321 1.05087E+08 6.06466E+06-2.22836E+07 6.37677E+07-1.59262E+07 2.39085E+07
 -1       322 9.63630E+07 7.24220E+07-2.07462E+07 1.00510E+08-8.19326E+06-3.52697E+06
 -1       323 5.93456E+07 8.02445E+07-1.43233E+07 9.13290E+07-9.47965E+06 5.99799E+06
 -1       324 4.08244E+07 7.02749E+07-7.70333E+06 8.06532E+07-1.45299E+06 1.88777E+07
 -1       325 7.49672E+06 2.62146E+07-5.94034E+06 5.77829E+07-1.05826E+07-8.53656E+06
 -1       326-1.52799E+07-2.41772E+06 3.09670E+06 2.97928E+07 1.34091E+07 3.46123E+06
 -1       327-1.32837E+07-1.06373E+07-1.96418E+06-2.35391E+07 8.69930E+06 2.49054E+07
 -1       328-3.87337E+06-2.57420E+07-6.87688E+06-7.16518E+07-2.30419E+07 5.77086E+06
 -1       329-2.22182E+07-1.00664E+07 1.81812E+06 2.19682E+07-8.17288E+06 3.19448E+06
 -1       330-1.65708E+07-1.78357E+07 1.04221E+06 7.39723E+06-2.18400E+05-9.56334E+05
 -1       331-9.27800E+06 9.66604E+05-1.61318E+06 1.06587E+06 3.79870E+05 8.50002E+05
 -1       332 6.11229E+07 1.21379E+08 1.70513E+06 8.85805E+07-3.69287E+07 1.12509E+06
 -1       333 1.13744E+07 9.77527E+07 1.92702E+06 5.19813E+07-1.10883E+07-2.13490E+05
 -1       334-4.85452E+07-6.73482E+06 6.32643E+06 9.72171E+06-1.04334E+07 4.44414E+06
 -1       335-8.73584E+07-3.26903E+07 6.07122E+06-9.15947E+07-1.66005E+07-1.29246E+07
 -1       336 7.04134E+07 2.73830E+07 2.73830E+07-7.50450E+05-1.33767E+01 1.75406E+07
 -1       337 4.92777E+07 1.82782E+07 1.58069E+07-1.05186E+07-2.21237E+06-2.23801E+03
 -1       338-4.35544E+06-1.72815E+06-7.92094E+06-1.81958E+07-8.62341E+05 1.61730E+07
 -1       339-4.90368E+07-1.15362E+07-1.00413E+07-8.36754E+06 1.46952E+06 9.69063E+05
 -1       340-4.44975E+07-8.20265E+06 5.29981E+06 1.18332E+07-1.07875E+06 2.69945E+06
 -1       341-3.49998E+07-1.43575E+07 6.06743E+05 1.27360E+07-4.26204E+05-1.08135E+06
 -1       342-2.09930E+07-1.20846E+07-4.63962E+05 9.53645E+06-3.54284E+05-1.35208E+06
 -1       343-1.15224E+07-9.08161E+06-4.76889E+05 7.43666E+06-2.21328E+06 9.89171E+04
 -1       344-9.97168E+06-2.89568E+06-1.81619E+06 7.69652E+06 1.94139E+06-4.87243E+06
 -1       345 3.25847E+06 6.76127E+07-1.09412E+07 7.92383E+07 5.24192E+06 9.01766E+06
 -1       346-3.59784E+06 8.00562E+07-3.20716E+06 6.61474E+07 2.62285E+07 2.47702E+07
 -1       347-4.06825E+07 8.81298E+07-5.16076E+06-3.79164E+06 2.24958E+07 2.13146E+07
 -1       348-4.44587E+07 1.51222E+07 3.41532E+05-1.26497E+07 8.31745E+06 1.34457E+07
 -1       349-8.71390E+07-3.76621E+07 6.13253E+05-5.47827E+06-1.29292E+06-6.13275E+06
 -1       350-1.61896E+08-3.11619E+07 2.69961E+06-4.50437E+07-2.18483E+06 6.97493E+06
 -1       351-1.95395E+08 2.48669E+06 2.39401E+07-7.52914E+07-1.82525E+07-2.32684E+06
 -1       352-2.10155E+08-2.11277E+07-3.89278E+07 2.50133E+05 2.61487E+06-4.15907E+06
 -1       353-1.54312E+07-7.75720E+06-3.27843E+07 3.55592E+07-8.02624E+06-5.23579E+07
 -1       354 2.14999E+08 8.31842E+07 7.03457E+07 1.65783E+07-8.82673E+06 1.36410E+07
 -1       355 2.86624E+08 1.11465E+08 1.11465E+08 2.28740E+06 6.49206E+01-5.77546E+07
 -1       356 5.10753E+07 1.98626E+07 1.98626E+07-9.42601E+05 1.23836E+01 1.08617E+07
 -1       357-1.84724E+06 7.37549E+05-5.24552E+06-1.71978E+07 7.78011E+05 9.27989E+06
 -1       358-3.38673E+07-3.72590E+06 5.19124E+06 3.35699E+06-7.81487E+04 8.74516E+05
 -1       359-2.35334E+07-1.08381E+07-9.86888E+05 9.33611E+06-1.43799E+05-6.04912E+06
 -1       360 9.11988E+06 1.76759E+07 3.05600E+06 2.05990E+07 2.49696E+06-3.80933E+06
 -1       361 7.99301E+07 1.00888E+07-7.15447E+06-1.08992E+08 3.17484E+07 6.72048E+06
 -1       362-1.00166E+08-3.00807E+07-3.79588E+06 2.20569E+07 2.17172E+07 4.79274E+07
 -1       363-1.97079E+08 2.57190E+07 2.63942E+07-5.35840E+07 2.10224E+06-1.32784E+07
 -1       364 4.11143E+06 5.73386E+04-3.51928E+07 1.42420E+07 5.84387E+06-4.95876E+07
 -1       365 2.55894E+08 9.95144E+07 9.95145E+07 5.46056E+05-6.41856E+01-3.84286E+07
 -1       366 3.15806E+07 1.22813E+07 1.22813E+07-9.36650E+05-1.17915E+01 7.51176E+06
 -1       367 2.30756E+07 8.94549E+06 7.13989E+06-9.04682E+06 1.60113E+06-7.28366E+03
 -1       368-1.96298E+06 3.20741E+05-4.11189E+06-1.60460E+07 5.10860E+05 5.02470E+06
 -1       369-1.92747E+07-5.53338E+06-3.08289E+06-9.56451E+06-5.72813E+05 1.38054E+04
 -1       370-2.22303E+07-5.98954E+06 3.47722E+06-9.97363E+05 8.01634E+05 1.80970E+06
 -1       371-2.71919E+07-1.20834E+07-1.06943E+06 5.70821E+06 1.10712E+06 4.67642E+05
 -1       372-2.24652E+07-1.12447E+07-9.62256E+05 1.10637E+07-1.75100E+06-2.58682E+06
 -1       373 1.20249E+07 1.05275E+07 5.21277E+06 2.08711E+07-1.55891E+06 3.42541E+06
 -1       374 2.22289E+07 2.05862E+07 4.95532E+06 1.69385E+07-4.71337E+06-7.86187E+06
 -1       375 5.35495E+06 2.73919E+06-9.34870E+05 2.40581E+06 3.39106E+05-1.37290E+06
 -1       376 5.93854E+05-8.24548E+05 1.19226E+06-7.92129E+05 7.42612E+05-2.98740E+06
 -1       377 1.25485E+06-5.05492E+05 1.31687E+05-4.27221E+04 4.87411E+05-2.33891E+06
 -1       378 2.76223E+06 9.63118E+05 4.61976E+05 4.53806E+05 6.60090E+05-2.73821E+06
 -1       379 3.71186E+06 1.12701E+05-1.49112E+05-1.43745E+05 4.65661E+05-2.42063E+06
 -1       380-2.71388E+05-2.70984E+06-1.77770E+06-1.63281E+06-9.61405E+04-3.01908E+06
 -1       381 8.85943E+05 1.25154E+06 6.79007E+05 2.60357E+06 6.56632E+05-6.54243E+05
 -1       382 2.55607E+06 5.84376E+06 9.30442E+06 2.80591E+06 5.43612E+05-4.25378E+05
 -1       383 3.67975E+07 1.79624E+06-7.29654E+06-5.17954E+06 3.05020E+06-1.09353E+07
 -1       384 1.52869E+08-1.48544E+07 7.15729E+06-5.92471E+07 1.55199E+07 4.16744E+07
 -1       385 1.89297E+08 1.10435E+07 4.78530E+07-2.41491E+07 2.08336E+07-3.98225E+06
 -1       386-8.11397E+07 4.16239E+06 8.23514E+06 6.08160E+07-2.02348E+07 4.84451E+07
 -1       387-2.81040E+08-3.91275E+07-3.93547E+07 1.16220E+07-1.30764E+07 3.46599E+06
 -1       388-1.85823E+08 2.60344E+07 2.60550E+07-6.57346E+07 2.24245E+07-1.94980E+07
 -1       389-1.01965E+08 1.86567E+07-1.11428E+07-4.03942E+07-9.86483E+06 5.61118E+06
 -1       390 3.33690E+07 3.41311E+07-2.75286E+07-2.21615E+06-2.97179E+06-2.79099E+07
 -1       391 1.92927E+08 7.92540E+07 5.29964E+07 3.03682E+06-1.08659E+07 6.61889E+06
 -1       392 2.43010E+08 9.45039E+07 9.45042E+07-1.78441E+06-3.67218E+00-3.42456E+07
 -1       393 1.65251E+07 6.42641E+06 6.42641E+06-1.16791E+06 2.05480E+01 3.57915E+06
 -1       394-3.49407E+06-2.43528E+06-2.83670E+06-1.68078E+07-1.29992E+06 2.22912E+06
 -1       395-1.21172E+07-6.87740E+06 2.00651E+06-1.93322E+06-1.09952E+06 7.35207E+04
 -1       396-1.46169E+07-8.01256E+06-5.93080E+05 1.25008E+07 3.09001E+06-2.93745E+06
 -1       397 2.61472E+06 3.23508E+06-9.46293E+05 2.43253E+06 1.60288E+05-8.76041E+05
 -1       398 6.27645E+05-1.15024E+05 7.73295E+05 2.52203E+04 8.41190E+05-1.04478E+06
 -1       399 2.16385E+06-3.62337E+05 1.23002E+05 3.15434E+05 5.18688E+05-1.39207E+06
 -1       400 3.19333E+06-7.95977E+05-5.25989E+05 1.65136E+05 6.33209E+05-3.05369E+04
 -1       401-6.24915E+06-3.89157E+06 2.84586E+05-1.21218E+06-9.80419E+04-2.45566E+06
 -1       402 1.12863E+07-1.73694E+07-6.90205E+06-7.70112E+06-8.53678E+06 3.98506E+06
 -1       403-2.79196E+07 4.68199E+07 5.99314E+07-6.91041E+07-3.65493E+06 1.96753E+07
 -1       404 5.76761E+07 8.98803E+07-4.20407E+07-2.11199E+07-6.30682E+06-3.50377E+07
 -1       405 2.58994E+08 1.00720E+08 1.00720E+08-5.86192E+06 8.13268E+01-5.34488E+07
 -1       406 1.60481E+05 6.24373E+04 6.23993E+04-1.58827E+06-2.50635E-01-1.65582E+06
 -1       407-3.58461E+06-2.29957E+06-9.98031E+05-1.02631E+07 4.39228E+06-1.66364E+06
 -1       408-6.63265E+06-8.70907E+06-2.99658E+06-1.75603E+07-3.09937E+05 1.86504E+06
 -1       409 3.76410E+03-6.58773E+06 4.41643E+05-1.13895E+07 6.30323E+05 1.22107E+06
 -1       410-5.02769E+05-7.80858E+06 9.44028E+05-3.73823E+06-1.21053E+06-2.16690E+06
 -1       411-5.08439E+06-5.46868E+06 1.85643E+05 4.74474E+06-1.29820E+06 2.38230E+06
 -1       412-2.35875E+06-2.70965E+06 1.59064E+06 1.18089E+07 3.64490E+04 9.09140E+05
 -1       413-1.46562E+06-1.52609E+06 1.11772E+06-9.55463E+05 1.79683E+06-3.16043E+05
 -1       414 9.30951E+05-9.57038E+05 1.06828E+06-1.61194E+05 2.10551E+06-1.63084E+04
 -1       415 1.88147E+06-1.79830E+05-2.40601E+05 6.63650E+05 1.49410E+06-1.63388E+06
 -1       416 1.13509E+06-1.08586E+06-3.94936E+05 2.53332E+05 1.80553E+06-5.94315E+05
 -1       417 2.16778E+06-1.19723E+06-1.48020E+05 3.14089E+05 1.94933E+06-8.84267E+05
 -1       418 3.09699E+06-5.95280E+05 7.02662E+05 7.21251E+05 2.00432E+06-3.75735E+05
 -1       419 2.84381E+06-5.20795E+05 7.85152E+05 9.56145E+05 2.27526E+06-3.01869E+05
 -1       420-5.25918E+04-2.75768E+06-1.71597E+06-5.13879E+05 2.83209E+06 8.08095E+05
 -1       421 5.58406E+06-2.40146E+06-2.48328E+06-2.02587E+05 3.38080E+06 3.49723E+06
 -1       422 7.03502E+06 5.30340E+06 6.68079E+06 3.87170E+06 8.03823E+05-1.89235E+06
 -1       423-5.34237E+06-1.53700E+04 3.75450E+06 8.48974E+05 3.72983E+06-9.99896E+05
 -1       424-1.46325E+07 1.55915E+07 3.87512E+07-2.98678E+07 1.87425E+07-3.29071E+07
 -1       425-5.56043E+07 2.35504E+07-4.98760E+07-1.28404E+07 7.13846E+06 2.14082E+06
 -1       426 1.49884E+08 2.81258E+08 4.35115E+05-8.13758E+07 4.78322E+07 3.02548E+07
 -1       427 2.50884E+08 1.65131E+08 5.63422E+07-7.82974E+07-8.14714E+07-2.02016E+07
 -1       428 3.04157E+08 1.18283E+08 1.18284E+08-1.62447E+07-5.96566E+02-1.57439E+08
 -1       429-2.96253E+07-1.15209E+07-1.15210E+07-9.12671E+05 2.78181E-02-3.78670E+06
 -1       430 2.81920E+05-1.49162E+07 5.51065E+06-2.16546E+07 1.25962E+06-5.13879E+06
 -1       431 1.89825E+06-1.03332E+07-7.86949E+06-4.42252E+06 2.35304E+06 5.04690E+06
 -1       432-5.14304E+05-2.19233E+06-1.32185E+05-3.44062E+05 1.60852E+06-5.12980E+05
 -1       433 6.65832E+05-2.09811E+06-2.61594E+05-9.21027E+04 1.07036E+06-1.17408E+06
 -1       434 2.21331E+06-1.74742E+06 3.53568E+04 1.34928E+05 1.07996E+06-9.20491E+05
 -1       435 2.31851E+06-2.54902E+06-2.02834E+03 4.98576E+05 1.17522E+06-1.00611E+04
 -1       436 6.22998E+06 9.10023E+05 1.44832E+06 9.77594E+05 1.78884E+06 2.55214E+06
 -1       437-7.80593E+06 1.07259E+05 3.60644E+06 6.62452E+05 6.12663E+06 2.84913E+06
 -1       438 4.15011E+08 6.41675E+08-9.51092E+07-4.90528E+08 5.35357E+07-2.12491E+08
 -1       439 7.34852E+08 2.85774E+08 2.85776E+08-1.60356E+07 9.36774E+01-5.07530E+06
 -1       440-6.40118E+07-2.48935E+07-2.48935E+07-1.43690E+06 1.19479E+01-2.08787E+07
 -1       441-3.94095E+07-2.37878E+07-8.73657E+06-2.27405E+07-7.62770E+05 2.41154E+06
 -1       442 2.17779E+06-1.95843E+07 1.30435E+07-3.46314E+07-2.79786E+06-6.58185E+06
 -1       443 2.75016E+07-6.81196E+05 9.32511E+06-7.65516E+06-1.85106E+06 3.66258E+05
 -1       444 1.27838E+07-3.58589E+06-1.17111E+07-3.34674E+05-1.42811E+06 4.98714E+05
 -1       445 1.43064E+06-2.30388E+06-3.33834E+05-2.92098E+03 2.86353E+06-2.88459E+05
 -1       446 2.90804E+05-2.67652E+06-4.68556E+05-2.70896E+05 1.71239E+06-4.65040E+05
 -1       447 9.60691E+04-2.65014E+06 1.01553E+05-2.06295E+05 1.72875E+06-9.35443E+05
 -1       448 1.34795E+06-2.66961E+06 8.81095E+04-3.29326E+04 1.80453E+06-2.65671E+05
 -1       449 2.05514E+06-3.04056E+06 2.59324E+04-1.51247E+05 1.80643E+06-8.59443E+05
 -1       450 2.69332E+06-2.88990E+06 1.17013E+02-1.21831E+05 2.29022E+06-1.73869E+05
 -1       451 1.88716E+06-3.51874E+06-5.38945E+05 1.88191E+05 2.46251E+06 1.79987E+05
 -1       452 1.20276E+06-4.39870E+06 4.24040E+05 1.54127E+06 2.54314E+06 1.43163E+06
 -1       453 6.43541E+06-3.72747E+06 3.47589E+06 6.64417E+05 3.04465E+06 2.34513E+06
 -1       454 1.58817E+06-1.06606E+06-1.75541E+06 2.30929E+05 6.36580E+06-3.82623E+05
 -1       455-9.76850E+06-1.05677E+07-3.71105E+06 6.78677E+06 8.28994E+06 2.60569E+06
 -1       456 6.11562E+08 5.59995E+08-3.33642E+08-9.32494E+08 1.51447E+08-1.61409E+08
 -1       457 9.73763E+08 4.96858E+08 8.09353E+07-4.85062E+08 5.10579E+07 5.48701E+07
 -1       458 1.37529E+09 5.34834E+08 5.34834E+08-2.95329E+07 6.11568E+01-3.26210E+08
 -1       459-1.08144E+08-4.20558E+07-4.20559E+07-4.83793E+06 7.46582E+01-8.33651E+06
 -1       460-6.34121E+07-2.00215E+07 1.09085E+07-5.86975E+07-2.17655E+07-1.78472E+07
 -1       461-1.24693E+06-2.71036E+06 2.69336E+05 2.89086E+05 1.28060E+06-2.68843E+05
 -1       462 1.17388E+06-2.55461E+06 6.24178E+04-2.10968E+05 6.56132E+05-1.04929E+06
 -1       463 1.30056E+06-4.00533E+06-1.75008E+05-3.88396E+05 9.70063E+05-1.20609E+06
 -1       464 4.32437E+06-3.33683E+06 6.52594E+05-4.73003E+05 1.72945E+05 8.06393E+05
 -1       465-9.56087E+06-1.58223E+07-6.57418E+06 5.20156E+06 3.84866E+06 8.61583E+05
 -1       466 1.16805E+07-1.96035E+07-4.31794E+06-2.45677E+06 1.41604E+07-3.68980E+05
 -1       467 1.34220E+09 2.09221E+08-3.64158E+08-1.08874E+09 3.97570E+08-3.37247E+08
 -1       468 2.27731E+09 8.85621E+08 8.85622E+08-9.60228E+07-1.38912E+03-1.83448E+08
 -1       469-1.58373E+08-6.15895E+07-6.15896E+07-4.16572E+06-1.02679E+01-4.56752E+06
 -1       470-1.35302E+08-3.30966E+07-2.18405E+07-2.74726E+07-3.01768E+06 3.02165E+05
 -1       471-9.53112E+07 1.43365E+07 2.79496E+07-3.86826E+07-3.02056E+06-1.57658E+07
 -1       472-5.75791E+07 2.55521E+07 5.69687E+06 1.12105E+07-1.21689E+07-4.43451E+06
 -1       473-4.38190E+07 2.42623E+07-2.67696E+07 4.02580E+07-3.13546E+06-2.17367E+07
 -1       474-5.70099E+06-5.66873E+06 1.20840E+05-2.19157E+06 3.01030E+05-1.09177E+06
 -1       475-8.57455E+05-3.31401E+06 8.11655E+05-3.91648E+05 4.08897E+05 2.89116E+05
 -1       476 1.20436E+06-3.78801E+06-5.40108E+05-2.97178E+05 1.44596E+05-1.14361E+06
 -1       477 7.35019E+05-3.52627E+06-9.18799E+04-1.02097E+06 3.16329E+05-4.98891E+05
 -1       478 1.48778E+06-3.14272E+06 4.02253E+05-9.24067E+05 3.99808E+05-1.34425E+06
 -1       479 1.43379E+06-5.77315E+06-4.57695E+05-5.49329E+05-2.30566E+05 6.56298E+05
 -1       480 4.51842E+06-6.35146E+06 1.58478E+05-5.90355E+05-2.20089E+05 7.83346E+05
 -1       481 6.19116E+06-4.46963E+06-4.15553E+04-2.03002E+06 2.91589E+06-2.45119E+05
 -1       482-1.03368E+07-3.11281E+06-3.49998E+06 6.99609E+06 8.03014E+06 2.11522E+06
 -1       483 1.16081E+07-1.27984E+07 1.97463E+04-1.88602E+06 1.03032E+06 3.94292E+06
 -1       484 7.02757E+07 4.52670E+07 1.25465E+07-3.63030E+07 3.17454E+07-1.50197E+07
 -1       485 7.24563E+08-6.63319E+08 5.03207E+08 6.96270E+08 1.54827E+08-4.20216E+08
 -1       486 1.08328E+09-6.49489E+08-1.03227E+08 3.05573E+08 2.86973E+08-6.62345E+07
 -1       487 1.87237E+09-4.49209E+08-5.36949E+08-5.87390E+08 5.63905E+07-3.95709E+08
 -1       488 2.76178E+09 6.44082E+08 4.85925E+08-4.69094E+08 6.28144E+07 3.74627E+07
 -1       489 3.29492E+09 1.28136E+09 1.28136E+09-8.30809E+07 1.93506E+01-8.05012E+07
 -1       490-1.96071E+08-7.62499E+07-7.62499E+07-1.91774E+06 5.24274E+01-3.29839E+07
 -1       491-6.35033E+07 2.41220E+07 3.01363E+07-1.23437E+07 8.31173E+05-1.99137E+07
 -1       492 1.68330E+07 6.18175E+07-1.85151E+07 5.55986E+07 1.73310E+07-1.12639E+07
 -1       493 6.26789E+06-2.27546E+06-1.28802E+06 6.71276E+05-1.02426E+05 1.18467E+06
 -1       494-2.65020E+06-4.48741E+06 2.49612E+05-1.63889E+06 1.05900E+06-4.46192E+04
 -1       495 2.44198E+06-1.66487E+06-1.35398E+05-2.21347E+06-1.06466E+06-1.63368E+06
 -1       496 1.27911E+06-8.69792E+06-5.72970E+05-1.61039E+05 8.67096E+05-2.42701E+06
 -1       497 4.24549E+07 3.45822E+07 1.58954E+07-2.09885E+07-1.47722E+07 1.41764E+07
 -1       498-5.58752E+07 1.29069E+07 1.67227E+07 3.62606E+07-7.62990E+05 1.16976E+07
 -1       499-1.91803E+08-1.45659E+09 3.23779E+08 1.01253E+09-3.56407E+08-2.33253E+08
 -1       500 1.26578E+09-6.21788E+08-5.72889E+08 1.34111E+07-6.16429E+06-3.49665E+08
 -1       501 3.78539E+09 1.47210E+09 1.47210E+09-2.63234E+07-8.08832E+02-6.63858E+08
 -1       502-2.19814E+08-8.54833E+07-8.54833E+07-1.34245E+06 7.10031E+00-2.86988E+07
 -1       503-1.63775E+08-5.23229E+07-4.46558E+07-7.90508E+05 5.31126E+06 6.11813E+06
 -1       504-3.61366E+07 1.68669E+07 2.63081E+07 4.84291E+06 1.39431E+06-3.23059E+07
 -1       505 4.51678E+07 4.43847E+07 1.10362E+07 4.03344E+07-1.23586E+05 4.70237E+06
 -1       506 1.06921E+08 4.65198E+07-1.68172E+07 7.31037E+07 4.49477E+05-4.12917E+06
 -1       507 1.47370E+08 3.20971E+07 3.37039E+06 7.38950E+07 9.58172E+06-3.52127E+07
 -1       508 7.81223E+07-1.80119E+07-1.71491E+07 8.99813E+07 1.98488E+07 1.15999E+07
 -1       509 1.16987E+07-1.43368E+06-2.69555E+06-2.75784E+06-4.69210E+06-1.39647E+06
 -1       510-6.40373E+06-8.95852E+06-6.60230E+06-4.40280E+06-3.22274E+06-3.39452E+06
 -1       511-7.08867E+06 3.37822E+05 2.35347E+06 6.53872E+05-6.73919E+05 1.95050E+06
 -1       512 1.30239E+06-2.82822E+06 3.87937E+05 6.03381E+05-1.61218E+06 3.04765E+05
 -1       513 1.08148E+06-8.99130E+06-3.20103E+06-2.68559E+06-2.81552E+06-2.98933E+06
 -1       514 1.09027E+07 7.47512E+06 4.80164E+06-7.36003E+06-1.10300E+06-3.46842E+06
 -1       515 3.35457E+05 1.06395E+07 2.24924E+06-9.05045E+06-2.04465E+06-6.93621E+06
 -1       516-3.29267E+07-4.43880E+07-1.20589E+07 1.79723E+07-1.55572E+07 1.45232E+07
 -1       517 6.59991E+07-8.10586E+07 1.87293E+06-5.61717E+06-3.70958E+07 3.12844E+07
 -1       518 8.82485E+07 1.40957E+08 5.01315E+07-5.30802E+07 5.73815E+07-3.30165E+07
 -1       519-1.45263E+08-9.64108E+06-5.94763E+07 1.35071E+07 2.67277E+07-7.19734E+06
 -1       520-1.20219E+09 1.23159E+08 2.73234E+08 1.44519E+09-2.23029E+08 1.46813E+08
 -1       521-2.24915E+09-8.12020E+08-2.71466E+07 1.38709E+09-8.70976E+07-6.07339E+08
 -1       522-1.49238E+09-1.24684E+09 3.17617E+08 1.48052E+09 3.01857E+07-1.00300E+08
 -1       523-5.01784E+08-1.07013E+09-1.83328E+08 9.63545E+08-2.22920E+07 5.94356E+07
 -1       524 7.52134E+08-4.50711E+08-4.86582E+08 4.36094E+08-7.46778E+06-5.54893E+08
 -1       525 2.92134E+09 8.75553E+08 7.77641E+08 1.89683E+08-6.95874E+07 1.16228E+08
 -1       526 3.93344E+09 1.52967E+09 1.52967E+09-5.35202E+06-4.96012E+02-4.45422E+08
 -1       527-2.16899E+08-8.43498E+07-8.43499E+07 2.72836E+04-6.74487E+01-3.98544E+07
 -1       528-1.44147E+07 1.18534E+07 2.97441E+07 8.18182E+06-1.37695E+06-2.68569E+07
 -1       529 1.30745E+08 2.25832E+07-2.14167E+07 5.95515E+07 6.36790E+06-1.03207E+07
 -1       530 1.24198E+08-3.45078E+07-1.88308E+06 8.18907E+07 2.35127E+07 3.83035E+07
 -1       531-1.58274E+07 1.38962E+07 4.16279E+06 1.08240E+07-1.52580E+07 5.10813E+06
 -1       532 8.04763E+06 1.76308E+06-9.42173E+05 1.54007E+06-1.66906E+06-5.64902E+06
 -1       533-2.95580E+06-1.25525E+06 5.12764E+05-5.94038E+05 9.31088E+05-5.55419E+06
 -1       534 8.73465E+06-1.34166E+07 2.32569E+06 1.19449E+05-5.05532E+06-2.44581E+06
 -1       535-1.38423E+08-9.50194E+07-6.26779E+07 5.39787E+07 3.76968E+07-5.36565E+07
 -1       536 7.78938E+07-5.81423E+08 1.17933E+07 9.82141E+06 2.22072E+08 5.87966E+07
 -1       537-1.72697E+09 2.71231E+08 2.32845E+07 1.25751E+09-4.18308E+08 5.34917E+08
 -1       538-1.74989E+09-7.00669E+08 3.12318E+08 1.29642E+09-1.06850E+08-1.69807E+08
 -1       539 3.95251E+08-3.49090E+08-4.49667E+08 6.38016E+08-7.29100E+06-3.72689E+08
 -1       540 3.39827E+09 1.32155E+09 1.32155E+09 2.85456E+07 1.91104E+03-6.52681E+08
 -1       541-2.11180E+08-8.21254E+07-8.21254E+07 7.36586E+04 5.75138E+01-4.06199E+07
 -1       542-1.54305E+08-5.74697E+07-4.46875E+07 5.61194E+06 3.55598E+06 7.26544E+06
 -1       543-5.37812E+05 2.09840E+06 2.96558E+07 1.09552E+07 1.37494E+06-3.49995E+07
 -1       544 1.04343E+08 2.59492E+07 1.66328E+07 2.67771E+07-9.10079E+05 5.99989E+06
 -1       545 1.44481E+08 2.03725E+07-2.27578E+07 4.79591E+07 1.26036E+07-8.62059E+06
 -1       546 1.94990E+08 1.03892E+07 1.30416E+07 3.94122E+07-1.02645E+06-6.32166E+06
 -1       547 1.44352E+08-5.58804E+07 4.75933E+06-2.36203E+06 4.36966E+05 3.51101E+07
 -1       548-1.38436E+08-2.47809E+07-3.37816E+07-1.71305E+07 2.18065E+07 1.73475E+07
 -1       549-1.73563E+08 1.06738E+07-1.81200E+07 4.45592E+07 5.39634E+06 6.11079E+07
 -1       550-4.51382E+07-4.60922E+06 5.42096E+06 7.11262E+06 5.59592E+05-1.20679E+07
 -1       551-1.84559E+06-9.44303E+06-8.00166E+06-2.25521E+06-3.26199E+04-4.96724E+06
 -1       552 3.22165E+05 3.33728E+06-9.30681E+05-4.28375E+06-2.27384E+06-6.82541E+06
 -1       553 1.25945E+07 1.82508E+07 3.69639E+06-2.98342E+06-4.93632E+06-1.33903E+07
 -1       554 1.27247E+07-1.33675E+07 3.77172E+06 6.15983E+05-7.70458E+05-2.03538E+07
 -1       555-4.77103E+07-7.78124E+07-1.13917E+07 3.53521E+07 1.44553E+07-3.85140E+07
 -1       556-8.84514E+06 6.82941E+07-1.52040E+07-3.27706E+07-1.41407E+07-1.06826E+07
 -1       557 1.53879E+07 1.62186E+08 4.53931E+07-4.99917E+05 1.01368E+07-4.23076E+07
 -1       558 5.09531E+08-1.23872E+08-2.83212E+06-4.91531E+07-6.25169E+07-2.32172E+08
 -1       559 1.48210E+09-1.81400E+09-4.57599E+07-1.73973E+08-6.59817E+08 5.58022E+08
 -1       560 1.00834E+09-6.85017E+08 2.69181E+08-1.02463E+09-4.49622E+08 3.03509E+08
 -1       561-1.92911E+09 9.61252E+08 1.54196E+07-2.28615E+07-1.25910E+08 5.09450E+08
 -1       562-2.42246E+09-1.52954E+08-1.21733E+08 7.99657E+08 4.30424E+07-1.30304E+08
 -1       563-1.78663E+09-5.49394E+08 2.58264E+08 1.10764E+09-2.91717E+08-9.73600E+07
 -1       564-1.17369E+09-5.89531E+08-2.14627E+08 9.41097E+08-2.00468E+07 1.41389E+08
 -1       565 1.39540E+08-2.02387E+08-3.71799E+08 8.31759E+08-3.56123E+07-4.77727E+08
 -1       566 1.99013E+09 6.65426E+08 5.66454E+08 4.65669E+08-2.18391E+07 1.15256E+08
 -1       567 2.72481E+09 1.05965E+09 1.05965E+09 4.60961E+07-1.55793E+03-4.53449E+08
 -1       568-2.02953E+08-7.89260E+07-7.89260E+07 8.70091E+05-4.70013E+01-3.47158E+07
 -1       569 5.74278E+06 1.17263E+06 2.42575E+07 1.94799E+06 2.10176E+06-3.81212E+07
 -1       570 1.44809E+08-4.24536E+06-2.45895E+07 4.29944E+07-6.93360E+06-1.16290E+07
 -1       571 8.47756E+07-2.84876E+07 7.98829E+05-1.63251E+07 1.89560E+07 3.94084E+07
 -1       572-9.95528E+07-1.48786E+07-1.29458E+06 6.98676E+07 1.05220E+07 2.42090E+07
 -1       573 6.57516E+08-1.17124E+09-3.22502E+08 5.25327E+08-1.91699E+08 3.86713E+08
 -1       574-8.60182E+08 6.66108E+08 1.39144E+07-2.29299E+08-4.10146E+08 3.64625E+08
 -1       575-1.40357E+09-6.48871E+07 2.30194E+08 8.46404E+08 1.47335E+08-1.76421E+08
 -1       576-2.81170E+07-1.37194E+08-2.28734E+08 7.84291E+08-8.42891E+06-3.39549E+08
 -1       577 1.76466E+09 6.86257E+08 6.86257E+08 6.58179E+07 1.70784E+03-2.20226E+08
 -1       578-2.01690E+08-7.84348E+07-7.84349E+07 2.77334E+06 2.43657E+01-3.55506E+07
 -1       579-1.51958E+08-5.37629E+07-4.98900E+07-1.19732E+06-1.04994E+07 7.03427E+06
 -1       580 1.21024E+07 7.69920E+06 2.09681E+07-8.51505E+06-1.42993E+06-3.85163E+07
 -1       581 1.61749E+08 2.43418E+07 3.03283E+07 6.62718E+06 5.94560E+06 5.68329E+06
 -1       582 1.53636E+08-2.83268E+06-1.67526E+07 5.09856E+07-2.02066E+06 2.12438E+06
 -1       583 1.15932E+08 1.23935E+07 1.48685E+06 2.80110E+07-5.02407E+06-5.11052E+06
 -1       584 3.51032E+07-2.53083E+06-7.90816E+05-4.82787E+06-3.34369E+06-5.00172E+06
 -1       585 2.52404E+07-3.39027E+07 1.43989E+06-3.65960E+06 4.91002E+06 2.82879E+07
 -1       586 4.40015E+07-8.17564E+07 7.07042E+06-1.04872E+07 1.98607E+07 1.17460E+07
 -1       587 1.35095E+05-6.43783E+07 5.15233E+06-5.89257E+07 2.26666E+07 1.70781E+07
 -1       588-1.41737E+07-5.69569E+07 8.72256E+06-5.35341E+07-2.32600E+06 1.01136E+07
 -1       589 6.26159E+07 1.20152E+09-1.71349E+08-1.22572E+09-3.82386E+07 2.76099E+08
 -1       590-2.57821E+08 1.73220E+09-6.39268E+07-1.31985E+09-5.50501E+08 3.50524E+08
 -1       591-7.78786E+08 2.19239E+09-3.23896E+07-2.00989E+08-5.00440E+08 8.91320E+07
 -1       592-2.91851E+08 1.31364E+09-2.95189E+06-2.00583E+07-4.43158E+08 4.33976E+08
 -1       593-8.50197E+07 6.10908E+08-2.65952E+06-1.56146E+08 5.88572E+07-8.38253E+07
 -1       594-8.61690E+08 2.90036E+08-4.98323E+07 2.75941E+08 2.43609E+07-1.31906E+08
 -1       595-1.17564E+09 1.85821E+08 9.32226E+07 6.71912E+08-4.57783E+07 1.25249E+08
 -1       596-1.15605E+09-1.65056E+08-1.90070E+08 6.38929E+08-9.57533E+07 1.96820E+08
 -1       597-1.26860E+08-1.67592E+08-9.31399E+07 6.92821E+08-1.24133E+07-6.31441E+07
 -1       598 8.22457E+08 2.45508E+08 2.93684E+08 4.62959E+08 7.70675E+07 1.41475E+08
 -1       599 8.89293E+08 3.45836E+08 3.45837E+08 9.34926E+07-1.33401E+03 1.11962E+08
 -1       600 6.30028E+07 1.86831E+07-4.90747E+06 6.17032E+07-8.61985E+06-3.57954E+06
 -1       601 2.11165E+07-1.60095E+07-1.93804E+06-1.90815E+07-7.69346E+06 7.91246E+05
 -1       602-8.96990E+06-8.89915E+07-3.40017E+06-4.92482E+07-4.48033E+06-8.30324E+06
 -1       603-3.11339E+07-9.15546E+07-4.77595E+06-5.88762E+07-2.29359E+07-6.22363E+05
 -1       604 4.10818E+08 2.00617E+09 7.34498E+07-1.04018E+09 4.72974E+08 7.31057E+07
 -1       605 2.57137E+08 2.75085E+09 1.71185E+08-8.23006E+08 8.05058E+07-1.09801E+08
 -1       606 1.41972E+08 1.55911E+09 1.19463E+07-5.86751E+08 9.65422E+07-4.96288E+07
 -1       607-3.90765E+08-4.48226E+07 4.11221E+07 2.83385E+08-1.67991E+08 4.34121E+07
 -1       608-1.23918E+07 1.36774E+07 3.77843E+06 4.36688E+07-1.86750E+07-3.50177E+06
 -1       609-3.82892E+06-7.42426E+06 1.45932E+05 2.16636E+06 4.22696E+06 1.59645E+07
 -1       610 8.03106E+06-2.26160E+07-9.08703E+05-3.41627E+07 5.46739E+06 4.34778E+06
 -1       611-1.00605E+07-3.38130E+07 4.51109E+06-4.93600E+07-7.72083E+06-8.75307E+06
 -1       612-3.10326E+07-5.05967E+07 7.56008E+06-6.38862E+07-2.08613E+05 8.49031E+06
 -1       613-1.89763E+07-5.94159E+07 8.51562E+06-6.88360E+07-1.41865E+07 1.24502E+07
 -1       614-8.05694E+06-7.16948E+07 8.18407E+06-7.71355E+07-1.77548E+07-1.03055E+07
 -1       615-5.05742E+07 1.81299E+09-1.87833E+08-1.13736E+09 2.82227E+08-1.39415E+08
 -1       616 1.68897E+08 1.74277E+09-2.62342E+08-1.00404E+09 2.63116E+08 2.02251E+08
 -1       617 4.17018E+08 1.81268E+09-2.89594E+08-9.22781E+08 7.45121E+07 1.26246E+08
 -1       618 7.43354E+07 1.88709E+09-2.97158E+08-8.35942E+08 1.71351E+08-1.35615E+08
 -1       619 1.04925E+07 2.05271E+09-2.01110E+08-8.91131E+08-1.05052E+07-2.40993E+06
 -1       620 3.60567E+08 8.93800E+08-6.02806E+07-8.05440E+08 3.54124E+07-3.84021E+07
 -1       621 3.21203E+08-1.47827E+08 4.34708E+06-3.27373E+08 1.87492E+08-2.08161E+08
 -1       622-3.14032E+06-1.13379E+07-3.26165E+05-4.42967E+07 1.51130E+07 4.75994E+06
 -1       623-2.59025E+07-2.32545E+07-3.90668E+06-5.83631E+07-2.59302E+06 4.78883E+06
 -1       624-2.23530E+07 1.19897E+07-2.15341E+05-7.41247E+07-1.53757E+07-4.58629E+06
 -1       625 1.97992E+08 2.33533E+08 1.22472E+08-1.00289E+09 1.24630E+08-1.12212E+08
 -1       626 3.87469E+08 1.19742E+09 1.54238E+08-6.08628E+08 4.85496E+07 3.53659E+07
 -1       627 3.53402E+08 2.03123E+09 3.84699E+08-3.01758E+08-1.81613E+08 1.10738E+08
 -1       628-9.81488E+06 3.29634E+06 2.45524E+06-5.37315E+07 9.61711E+06 2.52029E+06
 -1       629-1.04492E+07 1.70383E+06-5.65933E+06-5.43285E+07-5.93785E+06-1.99118E+05
 -1       630-2.22621E+07 2.05289E+06-1.63603E+07-5.45586E+07-1.90694E+07 6.63160E+05
 -1       631-4.41264E+07 3.30240E+07-2.10304E+07-4.39108E+07-1.26813E+07 2.63305E+06
 -1       632-9.36951E+07 6.52602E+07-3.31035E+07-1.00779E+07-3.74327E+07-1.09077E+07
 -1       633-1.85200E+08-1.49144E+07-2.19108E+07 1.36931E+08 3.50601E+05-2.50272E+07
 -1       634-3.33578E+08-1.88703E+08-5.28542E+07 2.63666E+08-7.12490E+07-9.12925E+07
 -1       635-4.99956E+08-3.47720E+08 1.05826E+08 5.53467E+08 1.82933E+08-8.21302E+07
 -1       636-3.92302E+08-5.49220E+08 3.29340E+08 8.88879E+08 1.85649E+08-1.41069E+08
 -1       637 1.18108E+08-1.10514E+09 3.62413E+08 8.75560E+08 2.97419E+08-3.52229E+08
 -1       638 5.56690E+08-1.35995E+09 4.59685E+08 7.98035E+07 6.14791E+08-1.00815E+08
 -1       639 5.64800E+08-4.57614E+08 5.39735E+08-2.89970E+08 3.91795E+08 5.79816E+06
 -1       640 2.10858E+08 3.72290E+07 4.04311E+08-3.48921E+08 4.79201E+08 6.87150E+05
 -1       641 8.57528E+07 4.15387E+07 3.09471E+08-2.49616E+08 4.71005E+08 3.12818E+07
 -1       642 1.74440E+08 7.32609E+07 2.82168E+08-1.38371E+08 4.64875E+08-6.06570E+06
 -1       643-9.04642E+06-7.54321E+06-2.50484E+06-3.63971E+07 4.72711E+06-2.21705E+06
 -1       644 2.11961E+07 7.49897E+07 2.15812E+07-3.04101E+07 8.57363E+06 3.43566E+06
 -1       645-9.74675E+05 1.20755E+08 2.09675E+07 1.02141E+07 2.20355E+06 1.71453E+07
 -1       646-1.00841E+08-1.10773E+08-1.25600E+07 1.55387E+08 2.21791E+07 6.36528E+07
 -1       647-4.60362E+08-9.44124E+08-9.67729E+07 4.69145E+08-7.06782E+07-7.72918E+07
 -1       648-5.00948E+08-2.41727E+09-4.74802E+08 2.60896E+08-8.59892E+07-7.02334E+06
 -1       649-7.91764E+08-2.23671E+09-6.80549E+08-1.83172E+08-1.55115E+08 8.59639E+07
 -1       650-5.88924E+08-1.83089E+09-5.71142E+08-1.71122E+08-8.91958E+07-1.42056E+08
 -1       651-1.11994E+07-2.87985E+07-1.11994E+07-6.98819E+06 2.64658E+07 7.02477E+01
 -1       652 1.63403E+07 4.20177E+07 1.63402E+07-4.55368E+06-1.79357E+06-9.10654E+01
 -1       653 4.41425E+07 1.13509E+08 4.41424E+07-2.52621E+06-1.69366E+07 7.46753E+01
 -1       654 5.35993E+07 1.37826E+08 5.35992E+07-5.70209E+05-2.74173E+07-8.09561E+01
 -1       655 5.73834E+07 1.47557E+08 5.73831E+07 4.94612E+06 8.71139E+06 1.72758E+02
 -1       656 2.22850E+07 5.73031E+07 2.22846E+07 1.36617E+07-1.83131E+07 4.20508E+01
 -1       657-3.85489E+07-9.91276E+07-3.85501E+07 2.20296E+07 1.12252E+08 3.67594E+02
 -1       658-2.44809E+08-6.29512E+08-2.44810E+08 2.07301E+07-2.25138E+06 9.17559E+01
 -1       659-5.19364E+08-1.33551E+09-5.19364E+08 3.37774E+07 2.53908E+08-6.14979E+01
 -1       660-8.22710E+08-2.11554E+09-8.22710E+08 1.01228E+08 2.81852E+08 1.07844E+03
 -1       661-1.14478E+09-2.94373E+09-1.14479E+09 7.45665E+07 1.29186E+08 1.27827E+03
 -1       662-1.21483E+09-3.12383E+09-1.21483E+09 7.69331E+06 6.08130E+08-7.54540E+02
 -1       663-1.23419E+09-3.17364E+09-1.23419E+09-6.95991E+06 5.62469E+08 9.05683E+02
 -1       664-1.05632E+09-2.71624E+09-1.05632E+09-3.20526E+07 4.38231E+08-9.40152E+02
 -1       665-9.02648E+08-2.32109E+09-9.02649E+08-7.42256E+07 2.97322E+08 5.75013E+02
 -1       666 1.05058E-04 2.69705E-04 1.05459E-04 3.21884E-05 1.60235E+07 2.81483E+01
 -1       667 3.90701E-05 1.00515E-04 3.90311E-05-4.40283E-07 2.55284E+05 3.05943E+01
 -1       668 4.57012E-06 1.15898E-05 4.76072E-06 4.19037E-06-8.77999E+06 5.52613E+01
 -1       669-1.68626E-05-4.32460E-05-1.69604E-05 1.37135E-05-2.85486E+07-4.31607E+01
 -1       670-3.51579E-06-1.04988E-05-2.09144E-06 1.54527E-05-6.46304E+06 1.96547E+00
 -1       671 6.84807E-06 2.06064E-05 3.87181E-06 7.35326E-06-2.34192E+07 1.30902E+01
 -1       672 1.09975E-05 3.09568E-05 8.28307E-06 1.19209E-06-1.48176E+07-1.31373E+02
 -1       673 1.97561E-05 4.85806E-05 2.18216E-05-3.07430E-06 4.28293E+07-1.42054E+02
 -1       674 2.57953E-05 2.48425E-04 6.25716E-05-1.14788E-05 1.37646E+07-1.51957E+06
 -1       675-2.48783E-06 8.41777E-05 1.31528E-06 9.19745E-06-1.41288E+06 6.33404E+05
 -1       676-4.03140E-06 6.60322E-06 1.20709E-06 2.61963E-05-3.04555E+06-5.86686E+05
 -1       677-4.26676E-05-4.55873E-05 3.06328E-07 2.90677E-05-1.50475E+07-2.40036E+06
 -1       678 9.15435E-06 1.97805E-05 3.33525E-05 5.45429E-06-2.90538E+07-3.15994E+06
 -1       679 6.15963E-06 3.69897E-05 9.59878E-06 9.02172E-06-3.43948E+07-9.73294E+05
 -1       680 3.98714E-06 4.37176E-05 1.65503E-05-9.54978E-06-2.24240E+07 2.80211E+06
 -1       681-7.39685E-06 2.77637E-05-5.12344E-07 1.85613E-06 2.61635E+07 2.90235E+06
 -1       682-5.83986E-06 7.67387E-06 1.12453E-04 1.31421E-05 1.41941E+05-6.52666E+05
 -1       683-9.84660E-05 7.31019E-05 2.11017E-05 4.20605E-05 2.33266E+06-4.60792E+05
 -1       684-4.96836E-05 1.58618E-04 2.10565E-05-7.35978E-07 7.02296E+05-2.88650E+06
 -1       685-6.16223E-05-2.14927E-05 6.98696E-06 2.48532E-05-4.95524E+06-7.22050E+06
 -1       686-1.35161E-05-2.58526E-05-7.08378E-05-5.89993E-06-7.32184E+06-1.71738E+06
 -1       687-2.02972E-05-3.48971E-05-6.58132E-05-1.28699E-05-2.91926E+07-1.46191E+07
 -1       688 3.46101E-05 4.52803E-05-2.48096E-05 3.00606E-05-9.13556E+06-3.36291E+06
 -1       689-1.61923E-05 6.59173E-05 2.00152E-05 9.20449E-06-1.72716E+06 1.95186E+07
 -1       690-3.73421E-05-2.25163E-05-4.61289E-05-2.56380E-05 1.38273E+07 3.95053E+06
 -1       691-3.48967E-05-2.25897E-05-7.48013E-05-2.26777E-06-2.17528E+07 5.65933E+06
 -1       692 2.53902E-04 9.87714E-05 9.88480E-05 3.56014E-05 3.92348E+00 1.74362E+07
 -1       693 2.09250E-04 6.04673E-06 5.46518E-06-1.02751E-05-8.19128E+05 1.63422E+07
 -1       694 9.60111E-05-8.92195E-05 4.50900E-05 2.21906E-05-1.07293E+06 2.72059E+06
 -1       695 1.17630E-04 1.09818E-04-1.91506E-05 7.09120E-05-3.88657E+05-1.50605E+06
 -1       696-3.58247E-05 3.19824E-04 2.53578E-05-6.48950E-05 1.85443E+06-4.99066E+06
 -1       697 3.69167E-05-3.31178E-06 1.14340E-04-2.66405E-05 5.86891E+06 9.22604E+06
 -1       698 1.19365E-04 3.05921E-04 4.00171E-05 2.20207E-05 2.25685E+07 2.19910E+07
 -1       699 3.29341E-05-5.22998E-05-3.01964E-05-1.49697E-05-1.10964E+06-5.32018E+06
 -1       700 9.84408E-06 1.63918E-05 3.01648E-06 2.82591E-05-1.79031E+07-2.43609E+06
 -1       701-5.52647E-05 7.84406E-06 1.04490E-05 4.32264E-06-8.36561E+06-5.30157E+07
 -1       702-9.88282E-05-5.17201E-05-8.60170E-05 7.88505E-06-5.46914E+01-5.73130E+07
 -1       703 1.01403E-04 3.93180E-05 3.90030E-05-9.39704E-07 1.70411E+01 7.45044E+06
 -1       704 9.94483E-05 9.99098E-07 1.06753E-05 1.42136E-05 5.74182E+05 5.12071E+06
 -1       705 1.24318E-04-1.96516E-05 3.88279E-05 6.35130E-06 6.60245E+05 1.91191E+06
 -1       706 2.18391E-04-1.86230E-05 3.96690E-06-6.86909E-05-1.78535E+06-2.72707E+06
 -1       707 5.96180E-04 5.69868E-04 1.44694E-04 3.84321E-04-2.80999E+06-6.13227E+06
 -1       708 5.34840E-05-7.25884E-06 4.15426E-05-2.26767E-05 6.31174E+05-3.70409E+06
 -1       709-9.42520E-06 9.23971E-06 8.95382E-06-2.05743E-06 1.09185E+06-1.88308E+06
 -1       710-2.59912E-05-9.59370E-06-2.28037E-05 4.95509E-06-1.20370E+06-6.09543E+06
 -1       711-7.32988E-05-2.36872E-05-1.27391E-05 1.40949E-05-1.08879E+06 4.58610E+06
 -1       712-3.22895E-04 3.31049E-04-5.58136E-05-1.97567E-05 1.69620E+07 3.17724E+07
 -1       713-3.24793E-04-5.75662E-05-6.53699E-05 7.51226E-05-2.03315E+07 4.94321E+07
 -1       714-6.74793E-05 4.54974E-05 1.23610E-04-1.67465E-05 2.21626E+07-2.05845E+07
 -1       715-4.36225E-05 3.82238E-06-2.07734E-05 4.11659E-06-3.76362E+06-2.85073E+07
 -1       716-5.07589E-05-2.92808E-05-5.39278E-05-3.88535E-06-1.37945E+02-3.34648E+07
 -1       717 2.00376E-05 7.76218E-06 7.68841E-06-2.08069E-06 4.83007E+01-1.63395E+06
 -1       718 1.05576E-06-5.27959E-06 6.14280E-07 1.45722E-05-1.28240E+05 1.89261E+06
 -1       719-3.92639E-05-6.64472E-05-3.91011E-05 2.33214E-05-1.40018E+06-2.14619E+06
 -1       720-7.15980E-05-3.45802E-05-6.86425E-05 1.51931E-05-5.56781E+04 9.04728E+05
 -1       721-2.50097E-05 2.76703E-05-7.37596E-06-2.09067E-05 1.33838E+06-6.07891E+05
 -1       722 3.68443E-05 3.85246E-05 1.70861E-05 3.43961E-05 8.87294E+05-2.44841E+06
 -1       723-2.14638E-06-9.00160E-06-2.21318E-05 1.37178E-05 2.16494E+06-6.35004E+05
 -1       724-7.16945E-06-8.08693E-06-1.54952E-05 9.05608E-06 1.90019E+06-9.61074E+05
 -1       725 8.73778E-06 3.51275E-06 8.35222E-06 5.03238E-07 6.00502E+06 8.21979E+06
 -1       726 3.79917E-05 9.35591E-05 6.15678E-05-1.24297E-05 8.05238E+06-3.71339E+06
 -1       727 7.18497E-05 4.90025E-05 1.09229E-04 1.13761E-05 1.81980E+07-3.55822E+07
 -1       728-9.47155E-06-2.60149E-06-2.07663E-05-6.75209E-08 4.39625E+07 3.07129E+07
 -1       729-4.46215E-05-3.83668E-05-9.32049E-05-7.63498E-06-7.97396E+02-1.55414E+08
 -1       730-3.99464E-05-1.55951E-05-1.57937E-05 1.08781E-05-1.79118E+01-2.05771E+07
 -1       731-5.62540E-05-4.18472E-05-1.41883E-05 2.99085E-05-2.42761E+06-6.56161E+06
 -1       732-1.25999E-05-1.20497E-05-4.36143E-05-8.92417E-06-1.72390E+06-4.37485E+04
 -1       733 2.97430E-05 9.16507E-06 3.82233E-05-1.00308E-06 3.35215E+06 7.43472E+05
 -1       734-1.81680E-06 9.61284E-06 1.30084E-05 1.43673E-05 1.94603E+06-6.41135E+05
 -1       735 1.47504E-05 1.33127E-05 2.94106E-05 1.16086E-05 1.58156E+06-7.27466E+05
 -1       736 1.49597E-05 4.21973E-06 2.60260E-05 1.97023E-06 2.91750E+06-6.33321E+05
 -1       737 4.82177E-06 5.04537E-06 6.47020E-06-8.23248E-06-3.32080E+05 5.13828E+06
 -1       738-2.36824E-05-3.89680E-06-4.78731E-05-4.74596E-06-1.37131E+06 3.25651E+06
 -1       739 8.80957E-05 1.49325E-04 2.41993E-04 1.70646E-05 1.44582E+08-1.50267E+08
 -1       740-4.29302E-05-9.20594E-05-2.83234E-04-4.42546E-05 1.09738E+03-3.15068E+08
 -1       741-5.24241E-06-2.06928E-06-2.16009E-06 1.69966E-05 1.42191E+01-3.71529E+06
 -1       742 7.17367E-06-1.06373E-06 1.49795E-05 7.43127E-07-3.04942E+06-1.56017E+07
 -1       743-7.52695E-06 3.61819E-06 9.67522E-06-3.89758E-06-3.78399E+06-2.29488E+07
 -1       744-7.46528E-07-2.13440E-05-1.45598E-05 3.91678E-06-9.04693E+05-5.77807E+06
 -1       745-1.93002E-05-1.57662E-05-3.16705E-05 1.05183E-05-4.71243E+05-1.60314E+06
 -1       746-1.84199E-05-8.63313E-06-2.71132E-05 1.83628E-06 1.37648E+06-1.69299E+06
 -1       747 6.86800E-06 7.77686E-06 9.04613E-06-6.19881E-06-1.56185E+06 2.32419E+06
 -1       748-7.73158E-06-1.21832E-05-2.05647E-05-1.18821E-05 2.16153E+07-4.60117E+06
 -1       749 1.03535E-05 2.20181E-05 2.96070E-05 2.67860E-06 7.71210E+07-6.17855E+07
 -1       750-2.85417E-04-1.08093E-04-4.17188E-04-3.73498E-05 1.64914E+08-4.44174E+08
 -1       751 1.37797E-04 1.70047E-04 4.33574E-05-9.84957E-05 5.89475E+07-3.93196E+08
 -1       752-1.36882E-04-1.74537E-04-4.85286E-04-2.60218E-05-2.85789E+02-6.47534E+07
 -1       753 2.50544E-05 9.58005E-06 9.11643E-06 5.28556E-06 5.39376E+01-2.81656E+07
 -1       754 3.09136E-05-1.81515E-06-3.21063E-06 4.97501E-06 1.21404E+06-3.28102E+07
 -1       755 5.53963E-05 4.32876E-05 2.54277E-05 2.41745E-05 1.30926E+05-5.01204E+06
 -1       756-1.83508E-05 3.47681E-05 9.51253E-05-2.67280E-05 2.00846E+07 1.20348E+07
 -1       757-6.42723E-06-7.18651E-05 3.52761E-05 1.08521E-05-3.11428E+06-1.82799E+06
 -1       758 2.67342E-06 9.55119E-06 1.88478E-05-1.96587E-06 1.93011E+06 7.82949E+06
 -1       759 1.39030E-05 1.31396E-05 1.39903E-05-6.64530E-06-6.84177E+06-1.45473E+06
 -1       760-6.10577E-06 1.98028E-06-4.97458E-06-8.63310E-06 5.78196E+06-1.88446E+07
 -1       761-2.47113E-05-2.34690E-05-1.20160E-05-2.35057E-05-1.17750E+08 1.01386E+08
 -1       762 1.22022E-05-3.48389E-05-1.55721E-05 1.38581E-05-4.73636E+07-2.68982E+07
 -1       763-3.21269E-04-2.70553E-04-9.21238E-04 9.26852E-06-2.27906E+08 1.55393E+08
 -1       764 1.20502E-04 7.05421E-05 5.97710E-05-2.83644E-05 3.16096E+07-1.16040E+08
 -1       765 3.91833E-04 4.63322E-04 1.38548E-03-3.82446E-05-2.57207E+06-5.64041E+08
 -1       766-1.59979E-04-1.67623E-04-4.40829E-04-3.26033E-05-5.87791E+02-4.35818E+08
 -1       767 3.85642E-05 1.52919E-05 1.60806E-05-1.80511E-06-4.04165E+01-4.01287E+07
 -1       768 3.53130E-05-8.93264E-06-1.64934E-05-4.72751E-06 1.23780E+06-3.55808E+07
 -1       769 7.64923E-05-1.09666E-05 1.40444E-05 7.90943E-06 1.26106E+07-9.03549E+06
 -1       770 3.25393E-04 1.47624E-04 1.03219E-04 4.61713E-06 6.29235E+05 3.60186E+07
 -1       771 3.72561E-04-3.85054E-04-6.00892E-06 2.53867E-06 6.72618E+06 5.17197E+07
 -1       772 1.04383E-04 4.89763E-05 7.57609E-05-1.51997E-05 1.21795E+06-1.25178E+06
 -1       773 3.05327E-05 2.97581E-06 1.47999E-05-7.78440E-06-1.13976E+07-9.37174E+06
 -1       774-3.84001E-07-2.35243E-05-3.37656E-05 1.54914E-06 6.90148E+07-7.83769E+07
 -1       775-3.39914E-05 8.05594E-06-2.35431E-05 1.61566E-05 2.87480E+07 2.31005E+07
 -1       776-5.73418E-04-5.53921E-04-4.13468E-04-3.04088E-04-5.73425E+08 4.98591E+08
 -1       777-7.30428E-04-5.27445E-04-1.13685E-03 1.12131E-04-1.32444E+08 5.17697E+08
 -1       778-3.18024E-04-2.28664E-04-5.58745E-04-1.67768E-05-2.97738E+08-1.02759E+08
 -1       779-8.15578E-05 1.22102E-04 3.23899E-04-5.48698E-05-3.08930E+07-4.85421E+08
 -1       780-2.81416E-04-1.74537E-04-3.43215E-04-3.69847E-05 1.52262E+03-4.47493E+08
 -1       781 6.62096E-05 2.55271E-05 2.49571E-05-9.46078E-06-9.97385E+01-3.52917E+07
 -1       782 4.46616E-05-2.79992E-06 2.10670E-06 7.55012E-07-1.66237E+06-3.90140E+07
 -1       783 7.40044E-06-1.99286E-05 9.76904E-06-1.96271E-05-1.55866E+06 2.25752E+06
 -1       784-2.62408E-05 7.58932E-05 6.22108E-05 6.95322E-06-3.14825E+06-4.35577E+06
 -1       785-8.72776E-05-2.83329E-04-2.64827E-05 7.58811E-06 1.98571E+07 1.21180E+07
 -1       786-1.48914E-05 5.18002E-06-9.40640E-05 1.83759E-05-2.29450E+06 1.02991E+07
 -1       787-1.15380E-04-1.67936E-04-1.11801E-05-3.73125E-05-4.08676E+07 2.77741E+08
 -1       788-5.31454E-04-6.91692E-04-1.57544E-03 1.23368E-04-5.08705E+08 9.28123E+07
 -1       789-3.96010E-04-4.21955E-04-7.26768E-04-3.96119E-05 4.98775E+07-7.70932E+07
 -1       790-1.31692E-04 3.61049E-05-1.28563E-04-1.90934E-05-5.41954E+07 1.28951E+08
 -1       791-1.97686E-04 8.61138E-05 7.99969E-05 1.11312E-05-6.62603E+06-6.62685E+07
 -1       792-5.28127E-04-2.38657E-04-3.20718E-04-8.69781E-05 2.07521E+03 1.12136E+08
 -1       793-2.21101E-05-2.43706E-05-6.97532E-05-4.72530E-06-1.76241E+07-3.50572E+06
 -1       794 2.48009E-05 2.75369E-06 1.61113E-05 2.04900E-05 5.62051E+06 4.65254E+06
 -1       795 7.46071E-06-7.75259E-05-3.76921E-05-1.32781E-05-4.47581E+05 8.72079E+06
 -1       796 5.08968E-06-3.06948E-05 5.82895E-05-1.29221E-05-1.82082E+07-1.03037E+07
 -1       797 1.91033E-04 1.14322E-04 6.68370E-04-5.63078E-05 2.92426E+08-1.43330E+08
 -1       798-5.41229E-05-3.08100E-04-1.94204E-04-2.39504E-05 8.09447E+07 1.25428E+08
 -1       799 1.67141E-04-4.40888E-06 1.47597E-05-2.29006E-05-1.19979E+07 3.23357E+06
 -1       800 3.73043E-04 3.37970E-04 8.93851E-04-3.60608E-06 1.80508E+08-1.95787E+08
 -1       801 4.14951E-06-3.59367E-05-4.16557E-06-2.11922E-06 9.59036E+06 2.26788E+06
 -1       802-7.83755E-06-5.01234E-05-1.33455E-05 8.52581E-06-1.93259E+07 4.15345E+05
 -1       803-1.74280E-05-5.76945E-05-2.60184E-05-1.03979E-05-3.74633E+07-1.04043E+07
 -1       804 3.53819E-05 3.31663E-05 8.81446E-05 7.89296E-06-7.28216E+07-8.60860E+07
 -1       805 6.86944E-06-1.06022E-05-2.01594E-05-1.44262E-06 1.75664E+08-1.36090E+08
 -1       806 1.75506E-04 7.48982E-05 3.50997E-04-2.04078E-05 6.14785E+08-1.04229E+08
 -1       807 6.63605E-05-1.20029E-04 1.83674E-04-6.37431E-05 4.86911E+08-3.28679E+06
 -1       808-1.58325E-05-3.01227E-04-1.30758E-05 9.09436E-06 4.71446E+08-8.12235E+06
 -1       809-2.68114E-05-5.90282E-05-3.69763E-05 9.18948E-06 2.63938E+07-1.12989E+02
 -1       810-1.32769E-05-3.29567E-05-1.44495E-05 1.57733E-06-1.67566E+07-1.11522E+01
 -1       811-5.00097E-06-2.50335E-05 7.55012E-06-9.16177E-06 9.13459E+06 1.66900E+02
 -1       812 1.96719E-05 1.73328E-05 5.37401E-05-9.34582E-06 1.10680E+08 6.05042E+02
 -1       813 8.08686E-05 9.49949E-05 1.94937E-04-1.31223E-05 2.43924E+08-1.48269E+03
 -1       814-2.93776E-05-4.30644E-05-6.25476E-05 1.73964E-05 1.17665E+08 1.17110E+01
 -1       815-1.06782E-04-2.51845E-04-1.29722E-04 6.45872E-07 5.56840E+08 1.61000E+02
 -1       816-2.73556E-04-5.52297E-04-4.24981E-04-7.09146E-05 2.93749E+08-1.72183E+03
 -1       817-1.84306E+07-4.73930E+07-1.84306E+07 1.80801E+06 1.61117E+07-2.55648E+01
 -1       818-7.66407E+06-1.97076E+07-7.66408E+06 1.68540E+06 6.30445E+06 3.32278E+01
 -1       819 3.98852E+06 1.02562E+07 3.98852E+06 1.32178E+06 2.14223E+05-2.58025E+01
 -1       820 1.28174E+07 3.29589E+07 1.28174E+07 1.54423E+06-4.12030E+06 3.06569E+01
 -1       821 2.22428E+07 5.71959E+07 2.22429E+07 2.13606E+06-8.98316E+06-9.46185E-01
 -1       822 3.64893E+07 9.38297E+07 3.64894E+07 8.82305E+05-1.33900E+07-1.45575E+00
 -1       823 5.15169E+07 1.32472E+08 5.15169E+07 7.26149E+05-2.91990E+07 9.25804E+00
 -1       824 6.89220E+07 1.77228E+08 6.89220E+07 5.39441E+06-1.52809E+07 8.32757E+01
 -1       825 8.87570E+07 2.28232E+08 8.87570E+07 4.86512E+06-7.61012E+06-2.08163E+00
 -1       826 9.69110E+07 2.49199E+08 9.69109E+07 1.09960E+06-4.44620E+07 4.36197E+01
 -1       827 9.51596E+07 2.44696E+08 9.51596E+07-4.98601E+05-2.39990E+07 5.07269E+01
 -1       828 7.30182E+07 1.87761E+08 7.30181E+07-3.16463E+06-3.75177E+07-1.55980E+02
 -1       829 4.58077E+07 1.17791E+08 4.58077E+07-5.01055E+06-1.50547E+07 1.22360E+02
 -1       830 7.24234E+06 1.86231E+07 7.24232E+06-6.51064E+06 6.02871E+06-1.48887E+02
 -1       831-2.98781E+07-7.68295E+07-2.98781E+07-7.77152E+06 4.30214E+07 1.23871E+02
 -1       832-1.14920E+07-3.04921E+07-9.13287E+06 1.49208E+07 2.49998E+06-1.00451E+06
 -1       833 1.65564E+06 8.15678E+06 1.52999E+06 1.42648E+07 1.75840E+06 1.87786E+06
 -1       834 1.75886E+07 4.85093E+07 1.24702E+07 1.48167E+07-1.13548E+06 5.01062E+06
 -1       835 4.12073E+07 9.18092E+07 1.79253E+07 2.42705E+07 3.41336E+06-2.04143E+06
 -1       836 4.49027E+07 1.90126E+08 3.17390E+07 2.47117E+07 1.23858E+06-6.00785E+06
 -1       837 5.18637E+07 1.81773E+08 4.81827E+07-2.18298E+07 7.49307E+06 2.82783E+06
 -1       838 2.36640E+07 8.57786E+07 2.35971E+07-4.68272E+07 6.38617E+06-3.31278E+05
 -1       839-1.87101E+07-4.05666E+07-1.08883E+07-5.17910E+07 9.42584E+06 7.80204E+05
 -1       840 7.48616E+05 2.22756E+06 6.07867E+06 2.48533E+07 1.36587E+07-1.64896E+06
 -1       841-1.92987E+06 1.78317E+06 1.36411E+06 2.58117E+07 3.01434E+06 8.17092E+05
 -1       842-2.40193E+06 4.33056E+06-1.89497E+06 2.60817E+07-1.40989E+06 4.87532E+05
 -1       843 2.61576E+06 1.30397E+07-2.87115E+06 2.64702E+07-3.78357E+06-3.23640E+06
 -1       844 1.02238E+07 2.26539E+07-2.86864E+06 2.67101E+07-3.00416E+06-8.91623E+05
 -1       845 1.44241E+07 1.97135E+07-1.57980E+07 2.79140E+07-1.10677E+07 1.90491E+06
 -1       846 2.08311E+07 2.46170E+07-2.59132E+07 3.84681E+07-1.51215E+07-2.86430E+06
 -1       847 2.21888E+07 1.01349E+08-1.87979E+07 6.01469E+07-2.81743E+07-2.43401E+07
 -1       848-3.20570E+07 1.25455E+08-4.19867E+07 2.83528E+07-2.92177E+07-2.94739E+06
 -1       849-4.55823E+07 8.54727E+07-4.01353E+07-1.35039E+07-2.12247E+07 2.06253E+05
 -1       850-3.40599E+07 5.34752E+07-2.90347E+07-4.48483E+07-3.38212E+07-5.18056E+05
 -1       851-2.80757E+07 3.16727E+07-2.32752E+07-6.40367E+07-1.77558E+07 1.83823E+06
 -1       852-2.02305E+07 1.48560E+07-1.55986E+07-8.29505E+07-2.20969E+07 3.18864E+06
 -1       853-1.32882E+07 2.01096E+06-4.49541E+06-8.45742E+07-4.39694E+06-1.35823E+06
 -1       854-9.91475E+06-2.69807E+06 7.88653E+06-8.31997E+07 2.60955E+07 3.33214E+06
 -1       855 7.44209E+06 2.70508E+07 6.00351E+06 1.55492E+07 2.26156E+06 1.44358E+06
 -1       856 1.47046E+06-1.08311E+06-9.29710E+05 2.31631E+07 1.28463E+06-5.50473E+05
 -1       857-5.75109E+05 5.06650E+05-3.60882E+06 2.61376E+07 1.16918E+06 3.28411E+05
 -1       858-4.80907E+06-1.96380E+07-1.34709E+07 1.30098E+07 1.14075E+06 9.44324E+05
 -1       859-4.92228E+07 6.71314E+07-9.65194E+06-2.38584E+07-3.00452E+06-2.08722E+07
 -1       860-7.84244E+07-1.55289E+07-9.53938E+06-7.21218E+07 3.00508E+06 2.12809E+06
 -1       861-4.06039E+07-3.72966E+07-9.45346E+06-8.16787E+07 1.03066E+07 2.51827E+06
 -1       862 2.42237E+06 1.13640E+07 5.54320E+06-6.48744E+07 1.68319E+07 3.81838E+06
 -1       863 4.86541E+06 4.30026E+06 9.06566E+05-2.43433E+07-1.67913E+05-8.36129E+05
 -1       864 1.04881E+07 1.47685E+07-3.52109E+04-1.55617E+07 1.45799E+06-7.64243E+06
 -1       865 9.65845E+06 2.52853E+07-2.77007E+06-2.27805E+06 2.27487E+06-3.76905E+05
 -1       866 5.78838E+06 9.71761E+06-1.75617E+06 5.95146E+06 2.24230E+05 3.58343E+05
 -1       867 6.07459E+06-6.84317E+06 1.43447E+05 1.49444E+07 7.21595E+05-2.71594E+06
 -1       868 5.73064E+06-1.32878E+06 3.85939E+06 2.41022E+07-2.96364E+06-9.10286E+06
 -1       869-2.07013E+06-1.90789E+06 3.78127E+06 2.43316E+07-4.66931E+06-7.00964E+06
 -1       870-1.87107E+06 4.83879E+05 1.47527E+07 1.59121E+07 3.43759E+06 1.85782E+05
 -1       871-3.49908E+06-8.18264E+06 2.21162E+07 6.24018E+06-6.24319E+06-1.37219E+06
 -1       872-5.08025E+07 4.22495E+07 3.64109E+07-4.15119E+07-2.73903E+07-1.41269E+07
 -1       873-1.05087E+08-6.06466E+06 2.22836E+07-6.37677E+07-1.59262E+07 2.39085E+07
 -1       874-9.63630E+07-7.24220E+07 2.07462E+07-1.00510E+08-8.19326E+06-3.52697E+06
 -1       875-5.93456E+07-8.02445E+07 1.43233E+07-9.13290E+07-9.47965E+06 5.99799E+06
 -1       876-4.08244E+07-7.02749E+07 7.70333E+06-8.06532E+07-1.45299E+06 1.88777E+07
 -1       877-7.49672E+06-2.62146E+07 5.94034E+06-5.77829E+07-1.05826E+07-8.53656E+06
 -1       878 1.52799E+07 2.41772E+06-3.09670E+06-2.97928E+07 1.34091E+07 3.46123E+06
 -1       879 1.32837E+07 1.06373E+07 1.96418E+06 2.35391E+07 8.69930E+06 2.49054E+07
 -1       880 3.87337E+06 2.57420E+07 6.87688E+06 7.16518E+07-2.30419E+07 5.77086E+06
 -1       881 2.22182E+07 1.00664E+07-1.81812E+06-2.19682E+07-8.17288E+06 3.19448E+06
 -1       882 1.65708E+07 1.78357E+07-1.04221E+06-7.39723E+06-2.18400E+05-9.56334E+05
 -1       883 9.27800E+06-9.66604E+05 1.61318E+06-1.06587E+06 3.79870E+05 8.50002E+05
 -1       884-6.11229E+07-1.21379E+08-1.70513E+06-8.85805E+07-3.69287E+07 1.12509E+06
 -1       885-1.13744E+07-9.77527E+07-1.92702E+06-5.19813E+07-1.10883E+07-2.13490E+05
 -1       886 4.85452E+07 6.73482E+06-6.32643E+06-9.72171E+06-1.04334E+07 4.44414E+06
 -1       887 8.73584E+07 3.26903E+07-6.07122E+06 9.15947E+07-1.66005E+07-1.29246E+07
 -1       888-7.04134E+07-2.73830E+07-2.73830E+07 7.50450E+05-1.33767E+01 1.75406E+07
 -1       889-4.92777E+07-1.82782E+07-1.58069E+07 1.05186E+07-2.21237E+06-2.23801E+03
 -1       890 4.35544E+06 1.72815E+06 7.92094E+06 1.81958E+07-8.62341E+05 1.61730E+07
 -1       891 4.90368E+07 1.15362E+07 1.00413E+07 8.36754E+06 1.46952E+06 9.69063E+05
 -1       892 4.44975E+07 8.20265E+06-5.29981E+06-1.18332E+07-1.07875E+06 2.69945E+06
 -1       893 3.49998E+07 1.43575E+07-6.06743E+05-1.27360E+07-4.26204E+05-1.08135E+06
 -1       894 2.09930E+07 1.20846E+07 4.63962E+05-9.53645E+06-3.54284E+05-1.35208E+06
 -1       895 1.15224E+07 9.08161E+06 4.76889E+05-7.43666E+06-2.21328E+06 9.89171E+04
 -1       896 9.97168E+06 2.89568E+06 1.81619E+06-7.69652E+06 1.94139E+06-4.87243E+06
 -1       897-3.25847E+06-6.76127E+07 1.09412E+07-7.92383E+07 5.24192E+06 9.01766E+06
 -1       898 3.59784E+06-8.00562E+07 3.20716E+06-6.61474E+07 2.62285E+07 2.47702E+07
 -1       899 4.06825E+07-8.81298E+07 5.16076E+06 3.79164E+06 2.24958E+07 2.13146E+07
 -1       900 4.44587E+07-1.51222E+07-3.41532E+05 1.26497E+07 8.31745E+06 1.34457E+07
 -1       901 8.71390E+07 3.76621E+07-6.13253E+05 5.47827E+06-1.29292E+06-6.13275E+06
 -1       902 1.61896E+08 3.11619E+07-2.69961E+06 4.50437E+07-2.18483E+06 6.97493E+06
 -1       903 1.95395E+08-2.48669E+06-2.39401E+07 7.52914E+07-1.82525E+07-2.32684E+06
 -1       904 2.10155E+08 2.11277E+07 3.89278E+07-2.50133E+05 2.61487E+06-4.15907E+06
 -1       905 1.54312E+07 7.75720E+06 3.27843E+07-3.55592E+07-8.02624E+06-5.23579E+07
 -1       906-2.14999E+08-8.31842E+07-7.03457E+07-1.65783E+07-8.82673E+06 1.36410E+07
 -1       907-2.86624E+08-1.11465E+08-1.11465E+08-2.28740E+06 6.49206E+01-5.77546E+07
 -1       908-5.10753E+07-1.98626E+07-1.98626E+07 9.42601E+05 1.23836E+01 1.08617E+07
 -1       909 1.84724E+06-7.37549E+05 5.24552E+06 1.71978E+07 7.78011E+05 9.27989E+06
 -1       910 3.38673E+07 3.72590E+06-5.19124E+06-3.35699E+06-7.81487E+04 8.74516E+05
 -1       911 2.35334E+07 1.08381E+07 9.86888E+05-9.33611E+06-1.43799E+05-6.04912E+06
 -1       912-9.11988E+06-1.76759E+07-3.05600E+06-2.05990E+07 2.49696E+06-3.80933E+06
 -1       913-7.99301E+07-1.00888E+07 7.15447E+06 1.08992E+08 3.17484E+07 6.72048E+06
 -1       914 1.00166E+08 3.00807E+07 3.79588E+06-2.20569E+07 2.17172E+07 4.79274E+07
 -1       915 1.97079E+08-2.57190E+07-2.63942E+07 5.35840E+07 2.10224E+06-1.32784E+07
 -1       916-4.11143E+06-5.73386E+04 3.51928E+07-1.42420E+07 5.84387E+06-4.95876E+07
 -1       917-2.55894E+08-9.95144E+07-9.95145E+07-5.46056E+05-6.41856E+01-3.84286E+07
 -1       918-3.15806E+07-1.22813E+07-1.22813E+07 9.36650E+05-1.17915E+01 7.51176E+06
 -1       919-2.30756E+07-8.94549E+06-7.13989E+06 9.04682E+06 1.60113E+06-7.28366E+03
 -1       920 1.96298E+06-3.20741E+05 4.11189E+06 1.60460E+07 5.10860E+05 5.02470E+06
 -1       921 1.92747E+07 5.53338E+06 3.08289E+06 9.56451E+06-5.72813E+05 1.38054E+04
 -1       922 2.22303E+07 5.98954E+06-3.47722E+06 9.97363E+05 8.01634E+05 1.80970E+06
 -1       923 2.71919E+07 1.20834E+07 1.06943E+06-5.70821E+06 1.10712E+06 4.67642E+05
 -1       924 2.24652E+07 1.12447E+07 9.62256E+05-1.10637E+07-1.75100E+06-2.58682E+06
 -1       925-1.20249E+07-1.05275E+07-5.21277E+06-2.08711E+07-1.55891E+06 3.42541E+06
 -1       926-2.22289E+07-2.05862E+07-4.95532E+06-1.69385E+07-4.71337E+06-7.86187E+06
 -1       927-5.35495E+06-2.73919E+06 9.34870E+05-2.40581E+06 3.39106E+05-1.37290E+06
 -1       928-5.93854E+05 8.24548E+05-1.19226E+06 7.92129E+05 7.42612E+05-2.98740E+06
 -1       929-1.25485E+06 5.05492E+05-1.31687E+05 4.27221E+04 4.87411E+05-2.33891E+06
 -1       930-2.76223E+06-9.63118E+05-4.61976E+05-4.53806E+05 6.60090E+05-2.73821E+06
 -1       931-3.71186E+06-1.12701E+05 1.49112E+05 1.43745E+05 4.65661E+05-2.42063E+06
 -1       932 2.71388E+05 2.70984E+06 1.77770E+06 1.63281E+06-9.61405E+04-3.01908E+06
 -1       933-8.85943E+05-1.25154E+06-6.79007E+05-2.60357E+06 6.56632E+05-6.54243E+05
 -1       934-2.55607E+06-5.84376E+06-9.30442E+06-2.80591E+06 5.43612E+05-4.25378E+05
 -1       935-3.67975E+07-1.79624E+06 7.29654E+06 5.17954E+06 3.05020E+06-1.09353E+07
 -1       936-1.52869E+08 1.48544E+07-7.15729E+06 5.92471E+07 1.55199E+07 4.16744E+07
 -1       937-1.89297E+08-1.10435E+07-4.78530E+07 2.41491E+07 2.08336E+07-3.98225E+06
 -1       938 8.11397E+07-4.16239E+06-8.23514E+06-6.08160E+07-2.02348E+07 4.84451E+07
 -1       939 2.81040E+08 3.91275E+07 3.93547E+07-1.16220E+07-1.30764E+07 3.46599E+06
 -1       940 1.85823E+08-2.60344E+07-2.60550E+07 6.57346E+07 2.24245E+07-1.94980E+07
 -1       941 1.01965E+08-1.86567E+07 1.11428E+07 4.03942E+07-9.86483E+06 5.61118E+06
 -1       942-3.33690E+07-3.41311E+07 2.75286E+07 2.21615E+06-2.97179E+06-2.79099E+07
 -1       943-1.92927E+08-7.92540E+07-5.29964E+07-3.03682E+06-1.08659E+07 6.61889E+06
 -1       944-2.43010E+08-9.45039E+07-9.45042E+07 1.78441E+06-3.67218E+00-3.42456E+07
 -1       945-1.65251E+07-6.42641E+06-6.42641E+06 1.16791E+06 2.05480E+01 3.57915E+06
 -1       946 3.49407E+06 2.43528E+06 2.83670E+06 1.68078E+07-1.29992E+06 2.22912E+06
 -1       947 1.21172E+07 6.87740E+06-2.00651E+06 1.93322E+06-1.09952E+06 7.35207E+04
 -1       948 1.46169E+07 8.01256E+06 5.93080E+05-1.25008E+07 3.09001E+06-2.93745E+06
 -1       949-2.61472E+06-3.23508E+06 9.46293E+05-2.43253E+06 1.60288E+05-8.76041E+05
 -1       950-6.27645E+05 1.15024E+05-7.73295E+05-2.52203E+04 8.41190E+05-1.04478E+06
 -1       951-2.16385E+06 3.62337E+05-1.23002E+05-3.15434E+05 5.18688E+05-1.39207E+06
 -1       952-3.19333E+06 7.95977E+05 5.25989E+05-1.65136E+05 6.33209E+05-3.05369E+04
 -1       953 6.24915E+06 3.89157E+06-2.84586E+05 1.21218E+06-9.80419E+04-2.45566E+06
 -1       954-1.12863E+07 1.73694E+07 6.90205E+06 7.70112E+06-8.53678E+06 3.98506E+06
 -1       955 2.79196E+07-4.68199E+07-5.99314E+07 6.91041E+07-3.65493E+06 1.96753E+07
 -1       956-5.76761E+07-8.98803E+07 4.20407E+07 2.11199E+07-6.30682E+06-3.50377E+07
 -1       957-2.58994E+08-1.00720E+08-1.00720E+08 5.86192E+06 8.13268E+01-5.34488E+07
 -1       958-1.60481E+05-6.24373E+04-6.23993E+04 1.58827E+06-2.50635E-01-1.65582E+06
 -1       959 3.58461E+06 2.29957E+06 9.98031E+05 1.02631E+07 4.39228E+06-1.66364E+06
 -1       960 6.63265E+06 8.70907E+06 2.99658E+06 1.75603E+07-3.09937E+05 1.86504E+06
 -1       961-3.76410E+03 6.58773E+06-4.41643E+05 1.13895E+07 6.30323E+05 1.22107E+06
 -1       962 5.02769E+05 7.80858E+06-9.44028E+05 3.73823E+06-1.21053E+06-2.16690E+06
 -1       963 5.08439E+06 5.46868E+06-1.85643E+05-4.74474E+06-1.29820E+06 2.38230E+06
 -1       964 2.35875E+06 2.70965E+06-1.59064E+06-1.18089E+07 3.64490E+04 9.09140E+05
 -1       965 1.46562E+06 1.52609E+06-1.11772E+06 9.55463E+05 1.79683E+06-3.16043E+05
 -1       966-9.30951E+05 9.57038E+05-1.06828E+06 1.61194E+05 2.10551E+06-1.63084E+04
 -1       967-1.88147E+06 1.79830E+05 2.40601E+05-6.63650E+05 1.49410E+06-1.63388E+06
 -1       968-1.13509E+06 1.08586E+06 3.94936E+05-2.53332E+05 1.80553E+06-5.94315E+05
 -1       969-2.16778E+06 1.19723E+06 1.48020E+05-3.14089E+05 1.94933E+06-8.84267E+05
 -1       970-3.09699E+06 5.95280E+05-7.02662E+05-7.21251E+05 2.00432E+06-3.75735E+05
 -1       971-2.84381E+06 5.20795E+05-7.85152E+05-9.56145E+05 2.27526E+06-3.01869E+05
 -1       972 5.25918E+04 2.75768E+06 1.71597E+06 5.13879E+05 2.83209E+06 8.08095E+05
 -1       973-5.58406E+06 2.40146E+06 2.48328E+06 2.02587E+05 3.38080E+06 3.49723E+06
 -1       974-7.03502E+06-5.30340E+06-6.68079E+06-3.87170E+06 8.03823E+05-1.89235E+06
 -1       975 5.34237E+06 1.53700E+04-3.75450E+06-8.48974E+05 3.72983E+06-9.99896E+05
 -1       976 1.46325E+07-1.55915E+07-3.87512E+07 2.98678E+07 1.87425E+07-3.29071E+07
 -1       977 5.56043E+07-2.35504E+07 4.98760E+07 1.28404E+07 7.13846E+06 2.14082E+06
 -1       978-1.49884E+08-2.81258E+08-4.35115E+05 8.13758E+07 4.78322E+07 3.02548E+07
 -1       979-2.50884E+08-1.65131E+08-5.63422E+07 7.82974E+07-8.14714E+07-2.02016E+07
 -1       980-3.04157E+08-1.18283E+08-1.18284E+08 1.62447E+07-5.96566E+02-1.57439E+08
 -1       981 2.96253E+07 1.15209E+07 1.15210E+07 9.12671E+05 2.78179E-02-3.78670E+06
 -1       982-2.81920E+05 1.49162E+07-5.51065E+06 2.16546E+07 1.25962E+06-5.13879E+06
 -1       983-1.89825E+06 1.03332E+07 7.86949E+06 4.42252E+06 2.35304E+06 5.04690E+06
 -1       984 5.14304E+05 2.19233E+06 1.32185E+05 3.44062E+05 1.60852E+06-5.12980E+05
 -1       985-6.65832E+05 2.09811E+06 2.61594E+05 9.21027E+04 1.07036E+06-1.17408E+06
 -1       986-2.21331E+06 1.74742E+06-3.53568E+04-1.34928E+05 1.07996E+06-9.20491E+05
 -1       987-2.31851E+06 2.54902E+06 2.02834E+03-4.98576E+05 1.17522E+06-1.00611E+04
 -1       988-6.22998E+06-9.10023E+05-1.44832E+06-9.77594E+05 1.78884E+06 2.55214E+06
 -1       989 7.80593E+06-1.07259E+05-3.60644E+06-6.62452E+05 6.12663E+06 2.84913E+06
 -1       990-4.15011E+08-6.41675E+08 9.51092E+07 4.90528E+08 5.35357E+07-2.12491E+08
 -1       991-7.34852E+08-2.85774E+08-2.85776E+08 1.60356E+07 9.36774E+01-5.07530E+06
 -1       992 6.40118E+07 2.48935E+07 2.48935E+07 1.43690E+06 1.19479E+01-2.08787E+07
 -1       993 3.94095E+07 2.37878E+07 8.73657E+06 2.27405E+07-7.62770E+05 2.41154E+06
 -1       994-2.17779E+06 1.95843E+07-1.30435E+07 3.46314E+07-2.79786E+06-6.58185E+06
 -1       995-2.75016E+07 6.81196E+05-9.32511E+06 7.65516E+06-1.85106E+06 3.66258E+05
 -1       996-1.27838E+07 3.58589E+06 1.17111E+07 3.34674E+05-1.42811E+06 4.98714E+05
 -1       997-1.43064E+06 2.30388E+06 3.33834E+05 2.92098E+03 2.86353E+06-2.88459E+05
 -1       998-2.90804E+05 2.67652E+06 4.68556E+05 2.70896E+05 1.71239E+06-4.65040E+05
 -1       999-9.60691E+04 2.65014E+06-1.01553E+05 2.06295E+05 1.72875E+06-9.35443E+05
 -1      1000-1.34795E+06 2.66961E+06-8.81095E+04 3.29326E+04 1.80453E+06-2.65671E+05
 -1      1001-2.05514E+06 3.04056E+06-2.59324E+04 1.51247E+05 1.80643E+06-8.59443E+05
 -1      1002-2.69332E+06 2.88990E+06-1.17013E+02 1.21831E+05 2.29022E+06-1.73869E+05
 -1      1003-1.88716E+06 3.51874E+06 5.38945E+05-1.88191E+05 2.46251E+06 1.79987E+05
 -1      1004-1.20276E+06 4.39870E+06-4.24040E+05-1.54127E+06 2.54314E+06 1.43163E+06
 -1      1005-6.43541E+06 3.72747E+06-3.47589E+06-6.64417E+05 3.04465E+06 2.34513E+06
 -1      1006-1.58817E+06 1.06606E+06 1.75541E+06-2.30929E+05 6.36580E+06-3.82623E+05
 -1      1007 9.76850E+06 1.05677E+07 3.71105E+06-6.78677E+06 8.28994E+06 2.60569E+06
 -1      1008-6.11562E+08-5.59995E+08 3.33642E+08 9.32494E+08 1.51447E+08-1.61409E+08
 -1      1009-9.73763E+08-4.96858E+08-8.09353E+07 4.85062E+08 5.10579E+07 5.48701E+07
 -1      1010-1.37529E+09-5.34834E+08-5.34834E+08 2.95329E+07 6.11568E+01-3.26210E+08
 -1      1011 1.08144E+08 4.20558E+07 4.20559E+07 4.83793E+06 7.46582E+01-8.33651E+06
 -1      1012 6.34121E+07 2.00215E+07-1.09085E+07 5.86975E+07-2.17655E+07-1.78472E+07
 -1      1013 1.24693E+06 2.71036E+06-2.69336E+05-2.89086E+05 1.28060E+06-2.68843E+05
 -1      1014-1.17388E+06 2.55461E+06-6.24178E+04 2.10968E+05 6.56132E+05-1.04929E+06
 -1      1015-1.30056E+06 4.00533E+06 1.75008E+05 3.88396E+05 9.70063E+05-1.20609E+06
 -1      1016-4.32437E+06 3.33683E+06-6.52594E+05 4.73003E+05 1.72945E+05 8.06393E+05
 -1      1017 9.56087E+06 1.58223E+07 6.57418E+06-5.20156E+06 3.84866E+06 8.61583E+05
 -1      1018-1.16805E+07 1.96035E+07 4.31794E+06 2.45677E+06 1.41604E+07-3.68980E+05
 -1      1019-1.34220E+09-2.09221E+08 3.64158E+08 1.08874E+09 3.97570E+08-3.37247E+08
 -1      1020-2.27731E+09-8.85621E+08-8.85622E+08 9.60228E+07-1.38912E+03-1.83448E+08
 -1      1021 1.58373E+08 6.15895E+07 6.15896E+07 4.16572E+06-1.02679E+01-4.56752E+06
 -1      1022 1.35302E+08 3.30966E+07 2.18405E+07 2.74726E+07-3.01768E+06 3.02165E+05
 -1      1023 9.53112E+07-1.43365E+07-2.79496E+07 3.86826E+07-3.02056E+06-1.57658E+07
 -1      1024 5.75791E+07-2.55521E+07-5.69687E+06-1.12105E+07-1.21689E+07-4.43451E+06
 -1      1025 4.38190E+07-2.42623E+07 2.67696E+07-4.02580E+07-3.13546E+06-2.17367E+07
 -1      1026 5.70099E+06 5.66873E+06-1.20840E+05 2.19157E+06 3.01030E+05-1.09177E+06
 -1      1027 8.57455E+05 3.31401E+06-8.11655E+05 3.91648E+05 4.08897E+05 2.89116E+05
 -1      1028-1.20436E+06 3.78801E+06 5.40108E+05 2.97178E+05 1.44596E+05-1.14361E+06
 -1      1029-7.35019E+05 3.52627E+06 9.18799E+04 1.02097E+06 3.16329E+05-4.98891E+05
 -1      1030-1.48778E+06 3.14272E+06-4.02253E+05 9.24067E+05 3.99808E+05-1.34425E+06
 -1      1031-1.43379E+06 5.77315E+06 4.57695E+05 5.49329E+05-2.30566E+05 6.56298E+05
 -1      1032-4.51842E+06 6.35146E+06-1.58478E+05 5.90355E+05-2.20089E+05 7.83346E+05
 -1      1033-6.19116E+06 4.46963E+06 4.15553E+04 2.03002E+06 2.91589E+06-2.45119E+05
 -1      1034 1.03368E+07 3.11281E+06 3.49998E+06-6.99609E+06 8.03014E+06 2.11522E+06
 -1      1035-1.16081E+07 1.27984E+07-1.97463E+04 1.88602E+06 1.03032E+06 3.94292E+06
 -1      1036-7.02757E+07-4.52670E+07-1.25465E+07 3.63030E+07 3.17454E+07-1.50197E+07
 -1      1037-7.24563E+08 6.63319E+08-5.03207E+08-6.96270E+08 1.54827E+08-4.20216E+08
 -1      1038-1.08328E+09 6.49489E+08 1.03227E+08-3.05573E+08 2.86973E+08-6.62345E+07
 -1      1039-1.87237E+09 4.49209E+08 5.36949E+08 5.87390E+08 5.63905E+07-3.95709E+08
 -1      1040-2.76178E+09-6.44082E+08-4.85925E+08 4.69094E+08 6.28144E+07 3.74627E+07
 -1      1041-3.29492E+09-1.28136E+09-1.28136E+09 8.30809E+07 1.93506E+01-8.05012E+07
 -1      1042 1.96071E+08 7.62499E+07 7.62499E+07 1.91774E+06 5.24274E+01-3.29839E+07
 -1      1043 6.35033E+07-2.41220E+07-3.01363E+07 1.23437E+07 8.31173E+05-1.99137E+07
 -1      1044-1.68330E+07-6.18175E+07 1.85151E+07-5.55986E+07 1.73310E+07-1.12639E+07
 -1      1045-6.26789E+06 2.27546E+06 1.28802E+06-6.71276E+05-1.02426E+05 1.18467E+06
 -1      1046 2.65020E+06 4.48741E+06-2.49612E+05 1.63889E+06 1.05900E+06-4.46192E+04
 -1      1047-2.44198E+06 1.66487E+06 1.35398E+05 2.21347E+06-1.06466E+06-1.63368E+06
 -1      1048-1.27911E+06 8.69792E+06 5.72970E+05 1.61039E+05 8.67096E+05-2.42701E+06
 -1      1049-4.24549E+07-3.45822E+07-1.58954E+07 2.09885E+07-1.47722E+07 1.41764E+07
 -1      1050 5.58752E+07-1.29069E+07-1.67227E+07-3.62606E+07-7.62990E+05 1.16976E+07
 -1      1051 1.91803E+08 1.45659E+09-3.23779E+08-1.01253E+09-3.56407E+08-2.33253E+08
 -1      1052-1.26578E+09 6.21788E+08 5.72889E+08-1.34111E+07-6.16429E+06-3.49665E+08
 -1      1053-3.78539E+09-1.47210E+09-1.47210E+09 2.63234E+07-8.08831E+02-6.63858E+08
 -1      1054 2.19814E+08 8.54833E+07 8.54833E+07 1.34245E+06 7.10031E+00-2.86988E+07
 -1      1055 1.63775E+08 5.23229E+07 4.46558E+07 7.90508E+05 5.31126E+06 6.11813E+06
 -1      1056 3.61366E+07-1.68669E+07-2.63081E+07-4.84291E+06 1.39431E+06-3.23059E+07
 -1      1057-4.51678E+07-4.43847E+07-1.10362E+07-4.03344E+07-1.23586E+05 4.70237E+06
 -1      1058-1.06921E+08-4.65198E+07 1.68172E+07-7.31037E+07 4.49477E+05-4.12917E+06
 -1      1059-1.47370E+08-3.20971E+07-3.37039E+06-7.38950E+07 9.58172E+06-3.52127E+07
 -1      1060-7.81223E+07 1.80119E+07 1.71491E+07-8.99813E+07 1.98488E+07 1.15999E+07
 -1      1061-1.16987E+07 1.43368E+06 2.69555E+06 2.75784E+06-4.69210E+06-1.39647E+06
 -1      1062 6.40373E+06 8.95852E+06 6.60230E+06 4.40280E+06-3.22274E+06-3.39452E+06
 -1      1063 7.08867E+06-3.37822E+05-2.35347E+06-6.53872E+05-6.73919E+05 1.95050E+06
 -1      1064-1.30239E+06 2.82822E+06-3.87937E+05-6.03381E+05-1.61218E+06 3.04765E+05
 -1      1065-1.08148E+06 8.99130E+06 3.20103E+06 2.68559E+06-2.81552E+06-2.98933E+06
 -1      1066-1.09027E+07-7.47512E+06-4.80164E+06 7.36003E+06-1.10300E+06-3.46842E+06
 -1      1067-3.35457E+05-1.06395E+07-2.24924E+06 9.05045E+06-2.04465E+06-6.93621E+06
 -1      1068 3.29267E+07 4.43880E+07 1.20589E+07-1.79723E+07-1.55572E+07 1.45232E+07
 -1      1069-6.59991E+07 8.10586E+07-1.87293E+06 5.61717E+06-3.70958E+07 3.12844E+07
 -1      1070-8.82485E+07-1.40957E+08-5.01315E+07 5.30802E+07 5.73815E+07-3.30165E+07
 -1      1071 1.45263E+08 9.64108E+06 5.94763E+07-1.35071E+07 2.67277E+07-7.19734E+06
 -1      1072 1.20219E+09-1.23159E+08-2.73234E+08-1.44519E+09-2.23029E+08 1.46813E+08
 -1      1073 2.24915E+09 8.12020E+08 2.71466E+07-1.38709E+09-8.70976E+07-6.07339E+08
 -1      1074 1.49238E+09 1.24684E+09-3.17617E+08-1.48052E+09 3.01857E+07-1.00300E+08
 -1      1075 5.01784E+08 1.07013E+09 1.83328E+08-9.63545E+08-2.22920E+07 5.94356E+07
 -1      1076-7.52134E+08 4.50711E+08 4.86582E+08-4.36094E+08-7.46778E+06-5.54893E+08
 -1      1077-2.92134E+09-8.75553E+08-7.77641E+08-1.89683E+08-6.95874E+07 1.16228E+08
 -1      1078-3.93344E+09-1.52967E+09-1.52967E+09 5.35202E+06-4.96012E+02-4.45422E+08
 -1      1079 2.16899E+08 8.43498E+07 8.43499E+07-2.72836E+04-6.74487E+01-3.98544E+07
 -1      1080 1.44147E+07-1.18534E+07-2.97441E+07-8.18182E+06-1.37695E+06-2.68569E+07
 -1      1081-1.30745E+08-2.25832E+07 2.14167E+07-5.95515E+07 6.36790E+06-1.03207E+07
 -1      1082-1.24198E+08 3.45078E+07 1.88308E+06-8.18907E+07 2.35127E+07 3.83035E+07
 -1      1083 1.58274E+07-1.38962E+07-4.16279E+06-1.08240E+07-1.52580E+07 5.10813E+06
 -1      1084-8.04763E+06-1.76308E+06 9.42173E+05-1.54007E+06-1.66906E+06-5.64902E+06
 -1      1085 2.95580E+06 1.25525E+06-5.12764E+05 5.94038E+05 9.31088E+05-5.55419E+06
 -1      1086-8.73465E+06 1.34166E+07-2.32569E+06-1.19449E+05-5.05532E+06-2.44581E+06
 -1      1087 1.38423E+08 9.50194E+07 6.26779E+07-5.39787E+07 3.76968E+07-5.36565E+07
 -1      1088-7.78938E+07 5.81423E+08-1.17933E+07-9.82141E+06 2.22072E+08 5.87966E+07
 -1      1089 1.72697E+09-2.71231E+08-2.32845E+07-1.25751E+09-4.18308E+08 5.34917E+08
 -1      1090 1.74989E+09 7.00669E+08-3.12318E+08-1.29642E+09-1.06850E+08-1.69807E+08
 -1      1091-3.95251E+08 3.49090E+08 4.49667E+08-6.38016E+08-7.29100E+06-3.72689E+08
 -1      1092-3.39827E+09-1.32155E+09-1.32155E+09-2.85456E+07 1.91104E+03-6.52681E+08
 -1      1093 2.11180E+08 8.21254E+07 8.21254E+07-7.36586E+04 5.75138E+01-4.06199E+07
 -1      1094 1.54305E+08 5.74697E+07 4.46875E+07-5.61194E+06 3.55598E+06 7.26544E+06
 -1      1095 5.37812E+05-2.09840E+06-2.96558E+07-1.09552E+07 1.37494E+06-3.49995E+07
 -1      1096-1.04343E+08-2.59492E+07-1.66328E+07-2.67771E+07-9.10079E+05 5.99989E+06
 -1      1097-1.44481E+08-2.03725E+07 2.27578E+07-4.79591E+07 1.26036E+07-8.62059E+06
 -1      1098-1.94990E+08-1.03892E+07-1.30416E+07-3.94122E+07-1.02645E+06-6.32166E+06
 -1      1099-1.44352E+08 5.58804E+07-4.75933E+06 2.36203E+06 4.36966E+05 3.51101E+07
 -1      1100 1.38436E+08 2.47809E+07 3.37816E+07 1.71305E+07 2.18065E+07 1.73475E+07
 -1      1101 1.73563E+08-1.06738E+07 1.81200E+07-4.45592E+07 5.39634E+06 6.11079E+07
 -1      1102 4.51382E+07 4.60922E+06-5.42096E+06-7.11262E+06 5.59592E+05-1.20679E+07
 -1      1103 1.84559E+06 9.44303E+06 8.00166E+06 2.25521E+06-3.26199E+04-4.96724E+06
 -1      1104-3.22165E+05-3.33728E+06 9.30681E+05 4.28375E+06-2.27384E+06-6.82541E+06
 -1      1105-1.25945E+07-1.82508E+07-3.69639E+06 2.98342E+06-4.93632E+06-1.33903E+07
 -1      1106-1.27247E+07 1.33675E+07-3.77172E+06-6.15983E+05-7.70458E+05-2.03538E+07
 -1      1107 4.77103E+07 7.78124E+07 1.13917E+07-3.53521E+07 1.44553E+07-3.85140E+07
 -1      1108 8.84514E+06-6.82941E+07 1.52040E+07 3.27706E+07-1.41407E+07-1.06826E+07
 -1      1109-1.53879E+07-1.62186E+08-4.53931E+07 4.99917E+05 1.01368E+07-4.23076E+07
 -1      1110-5.09531E+08 1.23872E+08 2.83212E+06 4.91531E+07-6.25169E+07-2.32172E+08
 -1      1111-1.48210E+09 1.81400E+09 4.57599E+07 1.73973E+08-6.59817E+08 5.58022E+08
 -1      1112-1.00834E+09 6.85017E+08-2.69181E+08 1.02463E+09-4.49622E+08 3.03509E+08
 -1      1113 1.92911E+09-9.61252E+08-1.54196E+07 2.28615E+07-1.25910E+08 5.09450E+08
 -1      1114 2.42246E+09 1.52954E+08 1.21733E+08-7.99657E+08 4.30424E+07-1.30304E+08
 -1      1115 1.78663E+09 5.49394E+08-2.58264E+08-1.10764E+09-2.91717E+08-9.73600E+07
 -1      1116 1.17369E+09 5.89531E+08 2.14627E+08-9.41097E+08-2.00468E+07 1.41389E+08
 -1      1117-1.39540E+08 2.02387E+08 3.71799E+08-8.31759E+08-3.56123E+07-4.77727E+08
 -1      1118-1.99013E+09-6.65426E+08-5.66454E+08-4.65669E+08-2.18391E+07 1.15256E+08
 -1      1119-2.72481E+09-1.05965E+09-1.05965E+09-4.60961E+07-1.55793E+03-4.53449E+08
 -1      1120 2.02953E+08 7.89260E+07 7.89260E+07-8.70091E+05-4.70013E+01-3.47158E+07
 -1      1121-5.74278E+06-1.17263E+06-2.42575E+07-1.94799E+06 2.10176E+06-3.81212E+07
 -1      1122-1.44809E+08 4.24536E+06 2.45895E+07-4.29944E+07-6.93360E+06-1.16290E+07
 -1      1123-8.47756E+07 2.84876E+07-7.98829E+05 1.63251E+07 1.89560E+07 3.94084E+07
 -1      1124 9.95528E+07 1.48786E+07 1.29458E+06-6.98676E+07 1.05220E+07 2.42090E+07
 -1      1125-6.57516E+08 1.17124E+09 3.22502E+08-5.25327E+08-1.91699E+08 3.86713E+08
 -1      1126 8.60182E+08-6.66108E+08-1.39144E+07 2.29299E+08-4.10146E+08 3.64625E+08
 -1      1127 1.40357E+09 6.48871E+07-2.30194E+08-8.46404E+08 1.47335E+08-1.76421E+08
 -1      1128 2.81170E+07 1.37194E+08 2.28734E+08-7.84291E+08-8.42891E+06-3.39549E+08
 -1      1129-1.76466E+09-6.86257E+08-6.86257E+08-6.58179E+07 1.70784E+03-2.20226E+08
 -1      1130 2.01690E+08 7.84348E+07 7.84349E+07-2.77334E+06 2.43657E+01-3.55506E+07
 -1      1131 1.51958E+08 5.37629E+07 4.98900E+07 1.19732E+06-1.04994E+07 7.03427E+06
 -1      1132-1.21024E+07-7.69920E+06-2.09681E+07 8.51505E+06-1.42993E+06-3.85163E+07
 -1      1133-1.61749E+08-2.43418E+07-3.03283E+07-6.62718E+06 5.94560E+06 5.68329E+06
 -1      1134-1.53636E+08 2.83268E+06 1.67526E+07-5.09856E+07-2.02066E+06 2.12438E+06
 -1      1135-1.15932E+08-1.23935E+07-1.48685E+06-2.80110E+07-5.02407E+06-5.11052E+06
 -1      1136-3.51032E+07 2.53083E+06 7.90816E+05 4.82787E+06-3.34369E+06-5.00172E+06
 -1      1137-2.52404E+07 3.39027E+07-1.43989E+06 3.65960E+06 4.91002E+06 2.82879E+07
 -1      1138-4.40015E+07 8.17564E+07-7.07042E+06 1.04872E+07 1.98607E+07 1.17460E+07
 -1      1139-1.35095E+05 6.43783E+07-5.15233E+06 5.89257E+07 2.26666E+07 1.70781E+07
 -1      1140 1.41737E+07 5.69569E+07-8.72256E+06 5.35341E+07-2.32600E+06 1.01136E+07
 -1      1141-6.26159E+07-1.20152E+09 1.71349E+08 1.22572E+09-3.82386E+07 2.76099E+08
 -1      1142 2.57821E+08-1.73220E+09 6.39268E+07 1.31985E+09-5.50501E+08 3.50524E+08
 -1      1143 7.78786E+08-2.19239E+09 3.23896E+07 2.00989E+08-5.00440E+08 8.91320E+07
 -1      1144 2.91851E+08-1.31364E+09 2.95189E+06 2.00583E+07-4.43158E+08 4.33976E+08
 -1      1145 8.50197E+07-6.10908E+08 2.65952E+06 1.56146E+08 5.88572E+07-8.38253E+07
 -1      1146 8.61690E+08-2.90036E+08 4.98323E+07-2.75941E+08 2.43609E+07-1.31906E+08
 -1      1147 1.17564E+09-1.85821E+08-9.32226E+07-6.71912E+08-4.57783E+07 1.25249E+08
 -1      1148 1.15605E+09 1.65056E+08 1.90070E+08-6.38929E+08-9.57533E+07 1.96820E+08
 -1      1149 1.26860E+08 1.67592E+08 9.31399E+07-6.92821E+08-1.24133E+07-6.31441E+07
 -1      1150-8.22457E+08-2.45508E+08-2.93684E+08-4.62959E+08 7.70675E+07 1.41475E+08
 -1      1151-8.89293E+08-3.45836E+08-3.45837E+08-9.34926E+07-1.33401E+03 1.11962E+08
 -1      1152-6.30028E+07-1.86831E+07 4.90747E+06-6.17032E+07-8.61985E+06-3.57954E+06
 -1      1153-2.11165E+07 1.60095E+07 1.93804E+06 1.90815E+07-7.69346E+06 7.91246E+05
 -1      1154 8.96990E+06 8.89915E+07 3.40017E+06 4.92482E+07-4.48033E+06-8.30324E+06
 -1      1155 3.11339E+07 9.15546E+07 4.77595E+06 5.88762E+07-2.29359E+07-6.22363E+05
 -1      1156-4.10818E+08-2.00617E+09-7.34498E+07 1.04018E+09 4.72974E+08 7.31057E+07
 -1      1157-2.57137E+08-2.75085E+09-1.71185E+08 8.23006E+08 8.05058E+07-1.09801E+08
 -1      1158-1.41972E+08-1.55911E+09-1.19463E+07 5.86751E+08 9.65422E+07-4.96288E+07
 -1      1159 3.90765E+08 4.48226E+07-4.11221E+07-2.83385E+08-1.67991E+08 4.34121E+07
 -1      1160 1.23918E+07-1.36774E+07-3.77843E+06-4.36688E+07-1.86750E+07-3.50177E+06
 -1      1161 3.82892E+06 7.42426E+06-1.45932E+05-2.16636E+06 4.22696E+06 1.59645E+07
 -1      1162-8.03106E+06 2.26160E+07 9.08703E+05 3.41627E+07 5.46739E+06 4.34778E+06
 -1      1163 1.00605E+07 3.38130E+07-4.51109E+06 4.93600E+07-7.72083E+06-8.75307E+06
 -1      1164 3.10326E+07 5.05967E+07-7.56008E+06 6.38862E+07-2.08613E+05 8.49031E+06
 -1      1165 1.89763E+07 5.94159E+07-8.51562E+06 6.88360E+07-1.41865E+07 1.24502E+07
 -1      1166 8.05694E+06 7.16948E+07-8.18407E+06 7.71355E+07-1.77548E+07-1.03055E+07
 -1      1167 5.05742E+07-1.81299E+09 1.87833E+08 1.13736E+09 2.82227E+08-1.39415E+08
 -1      1168-1.68897E+08-1.74277E+09 2.62342E+08 1.00404E+09 2.63116E+08 2.02251E+08
 -1      1169-4.17018E+08-1.81268E+09 2.89594E+08 9.22781E+08 7.45121E+07 1.26246E+08
 -1      1170-7.43354E+07-1.88709E+09 2.97158E+08 8.35942E+08 1.71351E+08-1.35615E+08
 -1      1171-1.04925E+07-2.05271E+09 2.01110E+08 8.91131E+08-1.05052E+07-2.40993E+06
 -1      1172-3.60567E+08-8.93800E+08 6.02806E+07 8.05440E+08 3.54124E+07-3.84021E+07
 -1      1173-3.21203E+08 1.47827E+08-4.34708E+06 3.27373E+08 1.87492E+08-2.08161E+08
 -1      1174 3.14032E+06 1.13379E+07 3.26165E+05 4.42967E+07 1.51130E+07 4.75994E+06
 -1      1175 2.59025E+07 2.32545E+07 3.90668E+06 5.83631E+07-2.59302E+06 4.78883E+06
 -1      1176 2.23530E+07-1.19897E+07 2.15341E+05 7.41247E+07-1.53757E+07-4.58629E+06
 -1      1177-1.97992E+08-2.33533E+08-1.22472E+08 1.00289E+09 1.24630E+08-1.12212E+08
 -1      1178-3.87469E+08-1.19742E+09-1.54238E+08 6.08628E+08 4.85496E+07 3.53659E+07
 -1      1179-3.53402E+08-2.03123E+09-3.84699E+08 3.01758E+08-1.81613E+08 1.10738E+08
 -1      1180 9.81488E+06-3.29634E+06-2.45524E+06 5.37315E+07 9.61711E+06 2.52029E+06
 -1      1181 1.04492E+07-1.70383E+06 5.65933E+06 5.43285E+07-5.93785E+06-1.99118E+05
 -1      1182 2.22621E+07-2.05289E+06 1.63603E+07 5.45586E+07-1.90694E+07 6.63160E+05
 -1      1183 4.41264E+07-3.30240E+07 2.10304E+07 4.39108E+07-1.26813E+07 2.63305E+06
 -1      1184 9.36951E+07-6.52602E+07 3.31035E+07 1.00779E+07-3.74327E+07-1.09077E+07
 -1      1185 1.85200E+08 1.49144E+07 2.19108E+07-1.36931E+08 3.50601E+05-2.50272E+07
 -1      1186 3.33578E+08 1.88703E+08 5.28542E+07-2.63666E+08-7.12490E+07-9.12925E+07
 -1      1187 4.99956E+08 3.47720E+08-1.05826E+08-5.53467E+08 1.82933E+08-8.21302E+07
 -1      1188 3.92302E+08 5.49220E+08-3.29340E+08-8.88879E+08 1.85649E+08-1.41069E+08
 -1      1189-1.18108E+08 1.10514E+09-3.62413E+08-8.75560E+08 2.97419E+08-3.52229E+08
 -1      1190-5.56690E+08 1.35995E+09-4.59685E+08-7.98035E+07 6.14791E+08-1.00815E+08
 -1      1191-5.64800E+08 4.57614E+08-5.39735E+08 2.89970E+08 3.91795E+08 5.79816E+06
 -1      1192-2.10858E+08-3.72290E+07-4.04311E+08 3.48921E+08 4.79201E+08 6.87150E+05
 -1      1193-8.57528E+07-4.15387E+07-3.09471E+08 2.49616E+08 4.71005E+08 3.12818E+07
 -1      1194-1.74440E+08-7.32609E+07-2.82168E+08 1.38371E+08 4.64875E+08-6.06570E+06
 -1      1195 9.04642E+06 7.54321E+06 2.50484E+06 3.63971E+07 4.72711E+06-2.21705E+06
 -1      1196-2.11961E+07-7.49897E+07-2.15812E+07 3.04101E+07 8.57363E+06 3.43566E+06
 -1      1197 9.74675E+05-1.20755E+08-2.09675E+07-1.02141E+07 2.20355E+06 1.71453E+07
 -1      1198 1.00841E+08 1.10773E+08 1.25600E+07-1.55387E+08 2.21791E+07 6.36528E+07
 -1      1199 4.60362E+08 9.44124E+08 9.67729E+07-4.69145E+08-7.06782E+07-7.72918E+07
 -1      1200 5.00948E+08 2.41727E+09 4.74802E+08-2.60896E+08-8.59892E+07-7.02334E+06
 -1      1201 7.91764E+08 2.23671E+09 6.80549E+08 1.83172E+08-1.55115E+08 8.59639E+07
 -1      1202 5.88924E+08 1.83089E+09 5.71142E+08 1.71122E+08-8.91958E+07-1.42056E+08
 -1      1203 1.11994E+07 2.87985E+07 1.11994E+07 6.98819E+06 2.64658E+07 7.02478E+01
 -1      1204-1.63403E+07-4.20177E+07-1.63402E+07 4.55368E+06-1.79357E+06-9.10654E+01
 -1      1205-4.41425E+07-1.13509E+08-4.41424E+07 2.52621E+06-1.69366E+07 7.46753E+01
 -1      1206-5.35993E+07-1.37826E+08-5.35992E+07 5.70209E+05-2.74173E+07-8.09561E+01
 -1      1207-5.73834E+07-1.47557E+08-5.73831E+07-4.94612E+06 8.71139E+06 1.72758E+02
 -1      1208-2.22850E+07-5.73031E+07-2.22846E+07-1.36617E+07-1.83131E+07 4.20508E+01
 -1      1209 3.85489E+07 9.91276E+07 3.85501E+07-2.20296E+07 1.12252E+08 3.67594E+02
 -1      1210 2.44809E+08 6.29512E+08 2.44810E+08-2.07301E+07-2.25138E+06 9.17559E+01
 -1      1211 5.19364E+08 1.33551E+09 5.19364E+08-3.37774E+07 2.53908E+08-6.14978E+01
 -1      1212 8.22710E+08 2.11554E+09 8.22710E+08-1.01228E+08 2.81852E+08 1.07844E+03
 -1      1213 1.14478E+09 2.94373E+09 1.14479E+09-7.45665E+07 1.29186E+08 1.27827E+03
 -1      1214 1.21483E+09 3.12383E+09 1.21483E+09-7.69331E+06 6.08130E+08-7.54540E+02
 -1      1215 1.23419E+09 3.17364E+09 1.23419E+09 6.95991E+06 5.62469E+08 9.05683E+02
 -1      1216 1.05632E+09 2.71624E+09 1.05632E+09 3.20526E+07 4.38231E+08-9.40152E+02
 -1      1217 9.02648E+08 2.32109E+09 9.02649E+08 7.42256E+07 2.97322E+08 5.75013E+02
 -1      1218-9.82039E+06-8.62679E+06-6.80583E+06-4.43817E+06-7.29134E+06-9.92804E+06
 -1      1219-2.25831E+06 2.67968E+05-5.56083E+05 1.09791E+05 4.47270E+05-2.37126E+06
 -1      1220-4.84277E+06-6.92055E+05-3.23476E+05-4.41674E+05 1.80171E+05-3.14931E+06
 -1      1221-5.72516E+06-2.40382E+05-2.81089E+06 4.59734E+05 1.45284E+06 1.66839E+05
 -1      1222-8.11674E+06-4.89945E+06-7.15763E+06-1.07679E+06 1.46302E+06-2.84010E+06
 -1      1223-5.53770E+07 8.15926E+06-1.60464E+07 1.18020E+07 1.35755E+07 5.51438E+07
 -1      1224 1.03900E+06 2.07152E+06 4.94025E+04 4.85859E+05 1.75703E+06-4.69187E+05
 -1      1225-2.20772E+06 1.48520E+06 6.23271E+05-6.85437E+05 2.01063E+06-5.68813E+05
 -1      1226-4.12649E+06 2.02768E+06 1.59944E+05-7.16506E+05 1.53509E+06-1.13149E+06
 -1      1227-5.19156E+06 1.82110E+06-2.35151E+05-1.33570E+06 2.36334E+06 4.36444E+05
 -1      1228-5.57440E+06 3.12210E+06 2.55209E+06-7.38521E+05 5.48681E+05-1.96601E+06
 -1      1229 7.70368E+06 7.62149E+06 8.85534E+06-1.61964E+06-1.30416E+05 3.93607E+06
 -1      1230-9.03702E+05 4.45687E+06-5.17117E+05 1.77567E+05 2.11162E+06-1.04724E+06
 -1      1231-9.37187E+05 4.95129E+06-1.65364E+05 3.93045E+05 1.33764E+06-1.19985E+06
 -1      1232-3.81355E+06 5.62337E+06-8.84512E+04 2.36332E+05 1.81883E+06-8.89323E+05
 -1      1233-4.54674E+06 6.65395E+06 4.53500E+05-5.46814E+05 1.70361E+06 8.69548E+05
 -1      1234-6.58279E+06 6.54854E+06-3.51462E+06-2.38404E+06 6.50315E+06-3.13147E+05
 -1      1235 3.13361E+06 9.23336E+06-3.89341E+06-4.00499E+06 1.57342E+07 2.71048E+05
 -1      1236 3.24723E+06 7.64516E+06 2.67440E+05 1.28402E+06 1.51016E+06 3.12490E+06
 -1      1237-6.75656E+05 7.11070E+06 7.87929E+05 8.93588E+05 6.37339E+05-4.36395E+05
 -1      1238-2.88758E+06 6.89241E+06-3.89393E+05 1.90676E+06-6.01598E+05-8.80593E+05
 -1      1239-7.60593E+06 1.18823E+07 1.81088E+05 1.33492E+06 1.18406E+06-8.16231E+05
 -1      1240 5.20721E+05 7.81163E+06-1.85991E+06-5.51408E+06-6.08992E+06 8.66928E+06
 -1      1241-1.94224E+07 9.25577E+06 3.69691E+07 1.63423E+07-1.50134E+07 3.52274E+07
 -1      1242-9.46431E+06-4.79864E+05-6.19037E+06 1.72806E+06-5.29830E+06 1.23864E+06
 -1      1243 4.59060E+06 1.98816E+06-3.57934E+06 4.43410E+05-2.90902E+06-4.52892E+06
 -1      1244-1.83048E+06 8.72263E+06 2.46681E+06 5.07539E+06 1.22812E+06-4.55266E+06
 -1      1245-1.86729E+06 1.37934E+06 3.03935E+06 1.00385E+07-1.01698E+07 4.92257E+06
 -1      1246-4.86774E+07 5.77455E+07-5.40462E+06 6.19134E+06 4.91002E+07-4.24892E+07
 -1      1247 1.26661E+08 1.05509E+08 1.27767E+08 4.10458E+06 6.16801E+07 1.92596E+07
 -1      1248 7.19135E+07-2.94883E+06 2.95135E+07-1.63619E+07 5.51070E+06 7.13528E+07
 -1      1249 6.34303E+06 5.77000E+06 4.83414E+06 1.00695E+06-2.63068E+06-5.02935E+06
 -1      1250-4.23967E+06-6.51326E+06 6.70018E+06 2.87683E+06 3.03395E+06-1.51518E+07
 -1      1251 7.65763E+05 2.64025E+07-2.94405E+07-1.50960E+07-4.13257E+07 4.33361E+06
 -1      1252-1.01496E+08-1.36453E+08-1.25517E+08-8.24084E+06-2.20610E+07-7.29327E+07
 -1      1253-5.96088E+08 7.41672E+08 5.25091E+07 3.58215E+07-7.68705E+08 6.32680E+08
 -1      1254-3.02164E+06-2.56943E+06-3.27031E+06-1.56004E+06-4.03491E+06-5.75114E+06
 -1      1255-3.35280E+06-1.03269E+06-2.14056E+05-1.15890E+06 7.10624E+04-1.63278E+06
 -1      1256-4.16878E+06-4.48669E+05-3.94630E+05-5.84798E+05 2.49174E+05-2.04916E+06
 -1      1257-4.88251E+06-3.96809E+04 2.89150E+05-4.61588E+05 3.80045E+05-1.51453E+06
 -1      1258-6.95556E+06-4.78327E+05-2.19047E+05-4.51620E+05 1.64952E+05-2.31786E+06
 -1      1259-7.91230E+06-6.36312E+05-7.92031E+05-5.02355E+05 4.84743E+05-1.33408E+06
 -1      1260-9.52887E+06-1.18365E+06-2.16442E+06-7.03820E+05 1.25972E+06-5.10186E+05
 -1      1261-6.16168E+06 8.60865E+05 1.73628E+06-1.08160E+06-5.01609E+05-2.15077E+06
 -1      1262-1.38626E+07-3.79697E+06-4.29804E+06 4.74896E+05 6.01002E+05-1.95077E+06
 -1      1263-2.04173E+07-7.62812E+05 4.72778E+06 2.80985E+06 1.05159E+06 6.69481E+05
 -1      1264-2.40925E+07 9.86193E+06-7.98994E+06 4.30830E+06 9.81896E+06 3.23779E+07
 -1      1265-2.95849E+05 8.47773E+04-1.36438E+04-8.48148E+05-4.32162E+05-7.40740E+05
 -1      1266-3.27695E+06 9.22392E+05-3.50343E+05-7.42596E+05 1.00273E+05-1.33872E+06
 -1      1267-6.51323E+06 1.04767E+06-1.96570E+05-8.98415E+05 4.27404E+05-7.29674E+05
 -1      1268-8.70769E+06 1.11535E+06-1.16072E+05-1.31106E+06 4.43538E+05-7.07167E+05
 -1      1269-6.35371E+06 7.08539E+05-1.77961E+06-1.67819E+05 2.02024E+06 3.07057E+06
 -1      1270-2.29988E+06 1.21412E+07-4.19666E+06 8.27599E+05-9.64812E+05 3.60958E+06
 -1      1271 2.60033E+05 2.08330E+06 9.93443E+04 8.97416E+03 1.34622E+06-5.23151E+05
 -1      1272-1.48143E+06 1.88059E+06-4.85453E+05-3.84314E+05 1.07590E+06-5.92810E+05
 -1      1273-2.73539E+06 2.57368E+06 3.85649E+05-6.90282E+05 1.53744E+06-5.68002E+05
 -1      1274-4.55079E+06 2.60448E+06 8.39271E+03-8.91053E+05 1.36326E+06-2.67279E+05
 -1      1275-6.17479E+06 2.76033E+06-2.16456E+04-1.13968E+06 1.32162E+06-8.52108E+05
 -1      1276-7.18715E+06 2.80387E+06-2.95018E+05-1.39375E+06 1.51560E+06-8.54292E+04
 -1      1277-7.87102E+06 2.81188E+06-3.09392E+05-1.71729E+06 1.74268E+06 2.85567E+05
 -1      1278-7.04437E+06 3.20806E+06-3.62808E+04-1.52891E+06 1.52743E+06-3.79799E+05
 -1      1279-5.87613E+06 3.47273E+06 1.43911E+06-1.76777E+06 1.37353E+06-8.40511E+05
 -1      1280-3.53732E+06 6.69977E+05-1.06132E+06-2.41508E+06 3.04922E+06 3.34923E+06
 -1      1281 4.30798E+06 8.88118E+06 5.77038E+06-2.21139E+06-4.81522E+04 3.44556E+06
 -1      1282 5.15509E+05 5.24000E+06 4.99808E+05 2.70529E+05 1.06066E+06-3.06690E+05
 -1      1283-2.26262E+06 4.94726E+06 9.30805E+04 2.28253E+03 7.37985E+05-8.09200E+05
 -1      1284-5.85211E+06 5.42019E+06-1.16306E+04-3.47560E+05 6.90685E+05-7.21401E+05
 -1      1285-7.34176E+06 6.23001E+06-7.62472E+04-1.33972E+06 7.08027E+05 2.31498E+05
 -1      1286-5.67766E+06 6.98226E+06 9.36068E+04-3.04073E+06 1.21334E+06 5.88058E+05
 -1      1287-4.28865E+05 5.57048E+06-2.59138E+06-8.94040E+05 4.05909E+06-2.02595E+06
 -1      1288 1.01292E+05 7.15479E+06-7.39267E+04 3.54299E+05 1.74345E+06-6.05232E+05
 -1      1289-7.83927E+05 7.13262E+06 6.36671E+04 4.66982E+05 1.35980E+06 3.20531E+04
 -1      1290-1.71138E+06 7.32874E+06-3.06226E+04 5.82864E+05 1.14033E+06-9.39868E+05
 -1      1291-3.50830E+06 7.70186E+06 8.24278E+04 3.91738E+05 1.31289E+06-2.58339E+05
 -1      1292-5.53079E+06 8.26447E+06-2.67372E+04 3.20827E+05 1.36977E+06-6.51778E+05
 -1      1293-6.64576E+06 8.92333E+06 9.22105E+04-1.73601E+05 1.49138E+06 6.67433E+04
 -1      1294-7.33678E+06 9.71955E+06 1.01589E+05-9.05323E+05 1.65077E+06 5.01328E+05
 -1      1295-6.80765E+06 1.03006E+07-6.04861E+05-2.15804E+06 2.42892E+06 2.98713E+04
 -1      1296-6.06123E+06 9.98144E+06-1.63898E+06-4.12343E+06 3.92590E+06 8.05403E+05
 -1      1297-1.10967E+06 1.15395E+07 2.73893E+06-3.10769E+06 1.72184E+06 2.00416E+06
 -1      1298-7.79694E+05 1.08231E+07-4.55595E+06-1.45873E+06 1.19836E+07-8.23417E+05
 -1      1299 2.44502E+05 8.31367E+06 3.60255E+04 3.86441E+05 1.14443E+06 1.92458E+05
 -1      1300-1.31404E+06 8.59413E+06 2.18996E+05 1.01496E+06 5.57603E+05-5.63763E+05
 -1      1301-4.86945E+06 9.86862E+06-5.02749E+04 1.48696E+06 4.43458E+05-8.17625E+05
 -1      1302-9.42142E+06 1.22922E+07-1.52168E+05 4.92998E+05 3.73892E+05-2.06872E+05
 -1      1303-4.14876E+06 1.66354E+07 5.92270E+05-4.41610E+06-9.60087E+05 3.56248E+06
 -1      1304 2.49243E+06 2.14786E+07 6.77384E+06-1.09136E+06 3.61924E+06 5.38797E+06
 -1      1305 7.18454E+05 9.49172E+06 5.04889E+04 4.26333E+05 1.28950E+06 1.59411E+06
 -1      1306-7.87566E+04 9.36064E+06-1.42812E+05 7.56670E+05 1.24589E+05-2.09884E+05
 -1      1307-2.75451E+05 1.02761E+07 5.56193E+05 1.46105E+06 2.95184E+05-4.01449E+05
 -1      1308-2.19807E+06 1.01291E+07 6.32795E+04 2.34357E+06 1.49862E+05-1.01999E+05
 -1      1309-4.16329E+06 1.08462E+07-4.71516E+03 2.89735E+06-2.45868E+05-9.80068E+05
 -1      1310-6.58022E+06 1.40826E+07 2.23126E+05 2.54500E+06 5.51722E+05 1.64347E+05
 -1      1311-1.07942E+07 1.72183E+07 1.75575E+05 2.06082E+06 6.92531E+05-3.60736E+05
 -1      1312-9.38319E+06 1.63469E+07 4.35158E+05 8.57502E+05 2.85420E+05 1.41260E+06
 -1      1313-6.29418E+06 1.61641E+07-8.02000E+04-4.21462E+06-2.08863E+06 4.77637E+06
 -1      1314-1.87452E+06 3.13580E+07 1.17805E+06-5.55811E+06 1.01613E+07 6.73844E+05
 -1      1315 7.41954E+06 3.79242E+07 2.72464E+07-3.07391E+06-5.19788E+06 2.33337E+07
 -1      1316-8.83536E+04 8.69802E+06 4.12424E+05-4.05156E+05-1.07217E+06-1.53684E+06
 -1      1317 1.19004E+06 8.26305E+06-6.71733E+05 1.83608E+06-1.22795E+05-8.15354E+05
 -1      1318-3.92493E+06 9.83914E+06 6.80012E+05 4.63981E+06 4.30873E+05-1.61141E+06
 -1      1319-8.90991E+06 1.46501E+07-5.52622E+05 4.38298E+06-1.13739E+06 6.65083E+04
 -1      1320-1.75348E+07 2.40688E+07 4.54500E+06 4.75985E+06 8.74802E+06-1.21691E+06
 -1      1321-1.58780E+07 4.53364E+06-2.88434E+07-1.31751E+07 2.75148E+07-2.15469E+07
 -1      1322-3.32865E+06 2.05838E+06-3.97089E+06 4.61621E+05-4.95457E+06 1.63725E+06
 -1      1323 2.35202E+06 8.80543E+06 8.33768E+05 1.35394E+06-4.30734E+05 3.87697E+06
 -1      1324 2.93701E+06 5.24304E+06-2.15332E+06 1.64758E+06-1.40172E+06-2.73628E+06
 -1      1325-7.48277E+04 6.47900E+06 1.44013E+05 4.30310E+06-9.70508E+05-1.69043E+06
 -1      1326-2.61637E+06 8.31430E+06 1.21037E+06 7.49158E+06-3.51197E+05-2.69833E+06
 -1      1327-7.73779E+06 7.61994E+06 2.17819E+04 9.58877E+06-4.07946E+06 1.21773E+06
 -1      1328-7.02706E+06 1.04339E+07 8.02072E+05 1.13390E+07-6.01841E+06 1.39820E+06
 -1      1329-1.55952E+07 2.32300E+07-5.70010E+06 4.65155E+06 1.45723E+06-7.34190E+06
 -1      1330-2.89262E+07 3.56494E+07-3.44717E+06 6.61610E+06 2.20376E+07-1.78353E+07
 -1      1331-8.68237E+06 2.08629E+07 2.08609E+07 2.20454E+07-3.28248E+07 4.97151E+07
 -1      1332 6.62241E+07 1.60317E+08 7.82743E+07 1.81095E+07 5.16449E+07 1.45657E+07
 -1      1333 3.90596E+06-8.17472E+06 5.47306E+06-2.73293E+06-5.45959E+06 4.28067E+06
 -1      1334 5.53375E+06 3.98268E+06 3.62327E+06 2.15339E+05 1.83433E+06 1.27321E+06
 -1      1335-8.68194E+05 2.57697E+06-2.17405E+06 5.88138E+06-2.21504E+06-2.37336E+06
 -1      1336-2.00398E+07 4.15061E+06-1.47930E+06 1.04746E+07-1.07762E+05-9.54362E+06
 -1      1337-5.78197E+06 1.53748E+07-1.44096E+07-1.18665E+07-5.46968E+07 2.73908E+07
 -1      1338-1.90773E+07 3.21005E+08-9.73556E+07 2.44584E+07 1.17084E+07 3.56597E+07
 -1      1339 3.10707E+07-9.00987E+06 1.48792E+07-6.34053E+06 4.67571E+06 4.27102E+07
 -1      1340 2.34588E+07 6.16886E+05-5.71128E+06-4.14696E+06-9.69010E+05 1.62464E+06
 -1      1341 1.19580E+07 2.55715E+06 2.57420E+06-5.82474E+04-2.30656E+06-4.15473E+06
 -1      1342-8.60744E+04-1.77871E+06-9.81001E+05 2.74052E+06-6.12395E+05-7.59276E+06
 -1      1343-3.22518E+05 9.44199E+05 6.51379E+06 2.99246E+06 2.62172E+06-1.25109E+07
 -1      1344-1.12861E+07-1.95038E+06-4.88208E+06 2.72628E+06-5.89568E+06-7.43785E+06
 -1      1345-2.53462E+07-5.43383E+06-2.31665E+07 4.65511E+06-2.60271E+07-1.53101E+06
 -1      1346 2.15063E+06 1.15614E+07 2.32509E+07 1.56169E+07 2.22366E+07-3.39104E+07
 -1      1347-1.41398E+08-6.59272E+07-7.78213E+07-1.31884E+07-1.87166E+07-6.23086E+07
 -1      1348-2.94297E+08 2.82699E+07 9.78001E+07-8.27497E+06-4.08157E+07-2.91815E+07
 -1      1349-3.37098E+08 3.80643E+08 2.48766E+07 1.26984E+07-4.69797E+08 3.93124E+08
 -1      1350-1.75452E+06-1.36336E+06-1.06077E+06-1.40058E+06-1.22491E+06-2.09066E+06
 -1      1351-5.20544E+06-3.72545E+05-4.94496E+04-1.00126E+06 2.08959E+05-1.11313E+06
 -1      1352-8.78192E+06-2.95434E+05 8.79076E+04-8.33059E+05 2.43326E+05-1.22634E+06
 -1      1353-1.12402E+07-3.50579E+05 1.88081E+04-1.09427E+06 5.56443E+05-1.08284E+06
 -1      1354-1.59043E+07-2.59775E+06-1.16224E+06 7.38974E+05 4.28362E+05-2.19970E+06
 -1      1355-1.80794E+07 1.06966E+07-2.36263E+06 3.18876E+06 4.44178E+06 1.19340E+07
 -1      1356 9.18977E+04 2.60410E+06 1.24889E+05-7.02477E+04 9.28780E+05-3.42991E+05
 -1      1357-3.74508E+06 3.23671E+06-1.35495E+04-9.02892E+05 7.67488E+05-6.11935E+05
 -1      1358-8.25797E+06 3.56244E+06-1.29373E+05-1.45902E+06 8.29462E+05-4.55326E+05
 -1      1359-1.05298E+07 3.72999E+06-3.75016E+05-2.24944E+06 1.05659E+06 5.77643E+04
 -1      1360-8.00646E+06 3.76840E+06 1.34075E+05-2.41249E+06 1.27415E+06 5.82260E+05
 -1      1361 1.79202E+06 7.80219E+06 1.24199E+06-2.26703E+06 6.05828E+05 1.29269E+06
 -1      1362 3.04339E+05 9.72679E+06 2.75699E+05 5.68369E+05 1.15609E+06-2.67194E+05
 -1      1363-2.27998E+06 9.68684E+06 6.24971E+04 7.41824E+05 7.08119E+05-4.90592E+05
 -1      1364-7.26014E+06 1.09736E+07 5.50538E+04 4.13940E+05 8.07388E+05-4.23202E+05
 -1      1365-9.94395E+06 1.26468E+07-1.85224E+05-1.28854E+06 1.13633E+06 3.45976E+05
 -1      1366-6.72954E+06 1.45560E+07 1.27543E+05-5.21571E+06 1.58545E+06 8.46805E+05
 -1      1367-1.26705E+06 1.20722E+07-3.89178E+06-2.54094E+06 6.29124E+06-4.51188E+04
 -1      1368 7.11297E+05 1.25458E+07 2.98202E+05 4.24797E+05 4.79117E+05 1.18477E+05
 -1      1369-5.42068E+05 1.32185E+07 4.97169E+04 1.96690E+06 1.68216E+05-4.42976E+05
 -1      1370-5.43516E+06 1.45740E+07 2.50523E+05 3.90872E+06-2.47691E+05-7.52081E+05
 -1      1371-1.40714E+07 2.21904E+07-5.99855E+04 2.75144E+06 7.79259E+05-6.09124E+05
 -1      1372-7.74583E+06 2.52826E+07 3.70553E+06-4.91718E+06-3.55146E+05 1.84926E+06
 -1      1373-3.49587E+06 3.33181E+07-3.43570E+06-6.37790E+06 9.22642E+06 5.12862E+06
 -1      1374-1.82167E+06 5.13930E+06-1.68156E+06-2.66489E+05-3.31678E+06 9.68870E+05
 -1      1375 4.22089E+06 8.19322E+06-3.14688E+05 2.26735E+06-7.31189E+05-4.14547E+05
 -1      1376-4.06925E+06 1.00710E+07 3.57693E+05 9.65243E+06-9.43554E+05-1.20495E+06
 -1      1377-1.30387E+07 1.32920E+07-3.34096E+06 1.41165E+07-2.22252E+06 1.68559E+05
 -1      1378-2.98423E+07 4.11101E+07-1.57429E+05 8.52341E+06-1.78103E+06 1.14130E+06
 -1      1379 4.23406E+07 1.66193E+08 2.52236E+07 1.98167E+07 4.66147E+07 9.63207E+06
 -1      1380 2.30899E+07-1.09297E+07 4.62177E+06-5.69743E+06 2.06944E+06 1.63346E+07
 -1      1381 1.49222E+07 2.50833E+06 1.14117E+06-2.59819E+05-5.46771E+05-4.59950E+06
 -1      1382 5.33971E+05 6.97607E+05 3.05675E+06 4.89273E+06 1.63478E+05-7.89998E+06
 -1      1383-1.99832E+07 3.16286E+06 2.31759E+06 9.80201E+06-5.63412E+06-1.14175E+07
 -1      1384-1.41898E+08-4.09094E+07-2.63136E+07-1.04038E+07-1.14038E+07-5.05651E+07
 -1      1385-2.92685E+08 3.16321E+08 7.81531E+06 1.11493E+07-1.80503E+08 1.54468E+08
 -1      1386-1.39449E+06-1.18774E+06-7.08360E+05-1.40256E+06-4.27843E+05-1.03704E+06
 -1      1387-3.87924E+06-9.83717E+05-4.35994E+04-1.66498E+06 3.43342E+05-2.93845E+05
 -1      1388-6.42141E+06-4.84465E+05-8.06098E+04-1.46555E+06-2.59765E+04-6.45859E+05
 -1      1389-8.40741E+06-3.17608E+05-8.70055E+04-1.16903E+06 1.27281E+05-1.92744E+05
 -1      1390-1.07057E+07-2.66941E+05 3.02586E+05-1.26217E+06 2.64309E+05-4.72432E+05
 -1      1391-1.29802E+07-6.38421E+05-4.74233E+05-1.36770E+06 2.16340E+05-3.17857E+05
 -1      1392-1.36617E+07-3.06610E+05 2.12477E+05-1.48820E+06 4.16347E+05-9.26869E+05
 -1      1393-1.30058E+07 3.93935E+04 1.35190E+04-1.36744E+06 2.19215E+04 2.56426E+05
 -1      1394-1.97931E+07-3.14297E+06-1.47897E+06 8.39346E+05 5.37544E+05-4.70033E+05
 -1      1395-2.07688E+07-2.20139E+06 1.57788E+06 2.37249E+06-2.81353E+05 5.32963E+04
 -1      1396-1.50507E+07 9.51925E+06-1.69380E+06 2.32755E+06 3.39831E+06 7.34326E+06
 -1      1397-3.34332E+05 4.55352E+05 6.60253E+04-9.98280E+05-3.21159E+05-3.94868E+04
 -1      1398-5.34119E+06 1.42532E+06-5.86090E+04-1.45063E+06-1.71263E+05-2.09255E+05
 -1      1399-1.05015E+07 1.62275E+06 8.36639E+04-1.65942E+06-7.26548E+04-8.24796E+04
 -1      1400-1.34703E+07 1.97511E+06 3.74536E+05-2.20174E+06-1.07090E+05-3.01932E+05
 -1      1401-1.22656E+07 7.51866E+05-4.22161E+05-9.19561E+05 5.53556E+05 1.14674E+06
 -1      1402-1.35563E+06 1.18972E+07-1.29533E+06 1.98970E+05-8.12694E+04-6.24945E+05
 -1      1403-1.06952E+05 2.94131E+06-3.23893E+04-1.68202E+05 3.35379E+05-4.90441E+05
 -1      1404-2.12810E+06 3.19929E+06-1.65918E+05-7.27850E+05 3.34282E+05-8.07793E+04
 -1      1405-4.54274E+06 4.07524E+06 7.49094E+04-1.12303E+06 3.58924E+05-3.66830E+05
 -1      1406-7.51326E+06 4.21343E+06 1.32260E+04-1.42149E+06 3.42035E+05 7.17128E+04
 -1      1407-1.03260E+07 4.36506E+06-1.22121E+05-1.80195E+06 3.16607E+05-3.28808E+05
 -1      1408-1.18223E+07 4.69437E+06-6.95535E+04-2.24699E+06 4.84328E+05-4.39911E+04
 -1      1409-1.32275E+07 4.60362E+06-3.34009E+05-2.80727E+06 6.50158E+05 8.04719E+04
 -1      1410-1.19780E+07 5.00332E+06 1.42381E+05-2.99381E+06 1.86074E+05-3.97966E+05
 -1      1411-9.53355E+06 4.64798E+06 2.65781E+05-3.11729E+06 1.46329E+05 3.00584E+04
 -1      1412-4.93241E+06 2.80254E+06-5.53206E+05-2.65179E+06 1.07521E+06 6.93075E+05
 -1      1413 1.14673E+06 8.17140E+06 1.33090E+06-2.03661E+06 1.28769E+06 1.59314E+06
 -1      1414 2.09929E+05 7.90760E+06 7.78196E+04 5.45108E+05-8.39411E+04-2.23536E+05
 -1      1415-3.73719E+06 8.13011E+06 8.45627E+04-5.05149E+03-1.24999E+05-2.99939E+05
 -1      1416-9.65864E+06 8.92230E+06-4.27296E+04-5.94604E+05-1.60714E+05-3.43290E+05
 -1      1417-1.24230E+07 1.01467E+07-1.50965E+05-2.22883E+06-3.33632E+05 2.13309E+05
 -1      1418-8.59838E+06 1.12856E+07-3.67269E+03-4.89079E+06-1.37770E+05-3.31790E+04
 -1      1419-3.22216E+05 9.91152E+06-5.33104E+05-2.56936E+06-5.78757E+05 6.35482E+05
 -1      1420 3.94786E+05 1.21765E+07 3.07356E+05 7.80765E+05 6.37697E+05-1.10035E+05
 -1      1421-1.10970E+06 1.18404E+07 6.80725E+04 8.12323E+05 3.16853E+05 1.48218E+05
 -1      1422-2.90728E+06 1.20236E+07-1.33065E+04 9.06773E+05 2.65172E+05-2.64664E+05
 -1      1423-5.87727E+06 1.25979E+07-5.38804E+03 6.53478E+05 4.07676E+05 9.91797E+04
 -1      1424-9.02404E+06 1.36588E+07 6.94485E+04 5.06073E+05 4.42508E+05-3.12872E+05
 -1      1425-1.11088E+07 1.46163E+07-2.95790E+04-3.76731E+05 3.98676E+05 1.12716E+05
 -1      1426-1.25275E+07 1.57509E+07-2.07177E+05-1.67553E+06 3.33792E+05 4.16826E+05
 -1      1427-1.13102E+07 1.74832E+07 1.03104E+05-3.58920E+06 1.08139E+06-4.54463E+05
 -1      1428-7.93837E+06 1.84247E+07 5.17818E+05-6.37536E+06 1.82132E+06-1.22688E+05
 -1      1429-3.31884E+06 1.60864E+07-4.90311E+05-5.79493E+06 2.46424E+05 5.54911E+04
 -1      1430-2.12214E+06 1.29151E+07-5.16596E+06-4.12451E+06 2.19821E+06 1.34840E+05
 -1      1431 1.60060E+05 1.39225E+07-1.83395E+05 6.96395E+05 6.69968E+04-8.28826E+04
 -1      1432-2.01097E+06 1.44512E+07 1.22656E+05 1.65514E+06 1.06915E+05-2.19454E+05
 -1      1433-8.10539E+06 1.63883E+07-4.77245E+03 2.49025E+06-1.28417E+05-3.16245E+05
 -1      1434-1.45274E+07 2.13425E+07 3.25469E+05 5.54910E+05-3.38792E+04-6.97966E+05
 -1      1435-9.59964E+06 2.50154E+07-5.59172E+05-6.50933E+06-7.77273E+05 1.43587E+06
 -1      1436 3.32614E+06 3.39252E+07 6.33820E+06-6.38767E+06 1.95620E+06 5.24629E+05
 -1      1437 7.06670E+05 1.56864E+07 8.32787E+04 5.00869E+05-2.91973E+04-2.29396E+05
 -1      1438 1.50576E+05 1.58044E+07 7.01696E+04 1.34750E+06-2.30851E+05-8.45103E+04
 -1      1439-5.17616E+05 1.63795E+07 7.26476E+04 2.46430E+06 2.28596E+05-2.35770E+05
 -1      1440-3.54052E+06 1.67752E+07 1.81859E+05 3.70909E+06-1.09404E+05 3.96984E+05
 -1      1441-6.86543E+06 1.83215E+07 2.57681E+05 4.92155E+06-6.35734E+05-3.05402E+05
 -1      1442-1.18598E+07 2.22050E+07-3.24274E+05 4.49593E+06 5.98727E+05 3.52042E+04
 -1      1443-1.72065E+07 2.72088E+07-1.33853E+05 3.43046E+06 1.43765E+06-1.39447E+06
 -1      1444-1.45239E+07 2.96601E+07 7.02122E+05-2.94930E+05-1.24594E+06 1.29871E+06
 -1      1445-1.08008E+07 3.36551E+07 3.35609E+06-5.86805E+06-3.18733E+06 2.64704E+06
 -1      1446-9.11903E+06 3.83146E+07-5.52558E+06-7.83306E+06 6.78901E+06-6.47052E+05
 -1      1447-4.28293E+06 3.76999E+07-3.77010E+06-8.96105E+06 1.20779E+07 2.33581E+06
 -1      1448 6.51783E+05 1.47736E+07 2.33400E+05-2.80095E+05 3.29284E+05 3.00927E+05
 -1      1449 1.63844E+06 1.36617E+07-1.34293E+05 2.75580E+06-2.72333E+05-2.39786E+05
 -1      1450-6.65673E+06 1.65056E+07-1.14384E+04 7.81049E+06 6.36853E+05-8.26074E+05
 -1      1451-1.69560E+07 2.37497E+07-3.10249E+05 8.90538E+06-1.09851E+06 1.02253E+06
 -1      1452-2.26048E+07 4.52601E+07-1.38059E+06 9.56371E+02 7.07722E+06-3.54328E+06
 -1      1453-1.02103E+07 4.47419E+07-2.69516E+06-1.07856E+07-8.60384E+06-5.35897E+05
 -1      1454-1.41589E+06 7.41060E+06-1.74734E+06-1.36987E+06-1.29820E+06 1.87397E+06
 -1      1455 2.67281E+06 1.21984E+07 2.99890E+05 4.72040E+05 3.43254E+05 1.22727E+06
 -1      1456 4.56090E+06 1.03277E+07-5.38701E+05 2.93879E+06-1.15333E+06-5.62692E+05
 -1      1457 6.92498E+05 1.06984E+07-2.78774E+05 7.78678E+06-5.79391E+05-8.31562E+05
 -1      1458-5.14203E+06 1.19907E+07-1.18047E+05 1.19379E+07 1.05252E+05-1.52729E+06
 -1      1459-1.08679E+07 1.48902E+07 5.15434E+05 1.48983E+07-1.51156E+06 6.29628E+05
 -1      1460-1.80775E+07 1.80889E+07-2.71912E+06 1.72129E+07-2.91621E+06 2.37402E+06
 -1      1461-3.09807E+07 3.19829E+07 5.36457E+05 1.47392E+07 2.87260E+06-7.36383E+06
 -1      1462-3.18510E+07 4.44556E+07-6.73553E+05 1.04794E+07 7.59380E+06-8.62293E+06
 -1      1463-4.48146E+06 7.01797E+07 5.11317E+06 1.61864E+07-1.43826E+07 1.50850E+07
 -1      1464 4.71288E+07 2.01619E+08 3.26695E+07 1.73686E+07 1.20713E+07 1.54544E+07
 -1      1465 3.65114E+06-4.60843E+06 2.03889E+06-3.93026E+06-1.03201E+06-1.22386E+06
 -1      1466 1.09486E+07 6.50744E+06 1.27705E+06 1.11209E+06 8.73132E+05 6.30485E+05
 -1      1467-2.49996E+05 4.99438E+06-1.38846E+05 1.04618E+07-7.25137E+04-4.22252E+05
 -1      1468-2.10967E+07 1.21627E+07 4.65814E+06 1.69806E+07 1.21683E+06-5.66893E+06
 -1      1469-4.69021E+07 1.31279E+07-3.27496E+06 3.30403E+06-1.68981E+07 1.48044E+07
 -1      1470 2.69066E+06 3.06585E+08-3.67242E+07 2.33403E+07 1.02055E+06-1.37790E+07
 -1      1471 2.02416E+07-9.02496E+06 3.34361E+06-5.61873E+06 2.77286E+06 9.64503E+06
 -1      1472 2.42626E+07 2.63898E+06-2.57676E+06-4.34945E+06-8.72340E+05 3.11747E+05
 -1      1473 1.98985E+07 3.82978E+06 1.99028E+06-3.57150E+05-3.15256E+05-1.93740E+06
 -1      1474 4.13048E+06-7.49281E+05 2.22988E+05 4.73319E+06-1.10291E+06 9.30673E+05
 -1      1475 2.79922E+06 1.77060E+06 4.27946E+06 7.30747E+06-3.04672E+05-3.75297E+06
 -1      1476-1.59877E+07-2.58246E+06-5.21472E+06 1.05043E+07-6.14417E+05-2.95798E+06
 -1      1477-2.16403E+07 3.60535E+06 2.02865E+06 1.43767E+07-1.91328E+06-1.19291E+07
 -1      1478-2.58135E+07 9.92706E+06 2.87059E+06 1.79206E+07-9.49982E+05 5.50073E+06
 -1      1479-1.69711E+08-4.34299E+07-3.21505E+07-2.85411E+06-1.98270E+07-1.50296E+07
 -1      1480-2.79730E+08 5.63533E+06 3.61942E+07-2.21309E+06 1.61553E+07-5.71761E+06
 -1      1481-2.52072E+08 2.70315E+08 5.37757E+06 1.07779E+07-1.17860E+08 1.05566E+08
 -3
    1PSTEP                        35           1           1          
    1PGM                1.000000E+00                                  
    1PGK                2.003583E+12                                  
    1PHID                         -1                                  
    1PSUBC                         0                                  
    1PMODE                         9                                  
  100CL  109 225280.6251        1481                     2    9MODAL      1
 -4  TOSTRAIN    6    1
 -5  EXX         1    4    1    1
 -5  EYY         1    4    2    2
 -5  EZZ         1    4    3    3
 -5  EXY         1    4    1    2
 -5  EYZ         1    4    2    3
 -5  EZX         1    4    3    1
 -1         1 5.07988E+00 3.52321E+00-8.62630E-02 1.05605E+01-3.22141E+00-7.80827E+00
 -1         2 2.11270E+01-6.74583E-01-7.75312E+00 1.25363E+01 2.58516E+00-2.21248E+00
 -1         3 3.68423E+01-7.85941E+00-1.09002E+01 1.10347E+01-1.95587E-01-4.86294E+00
 -1         4 4.87889E+01-1.21225E+01-1.38588E+01 8.80211E+00 9.58352E-01-1.45125E+00
 -1         5 6.30334E+01-1.55643E+01-1.98525E+01 9.50343E+00 1.99009E+00-3.55714E+00
 -1         6 7.45218E+01-1.84049E+01-1.96411E+01 1.02980E+01 1.62892E+00-2.39328E+00
 -1         7 8.02077E+01-2.03480E+01-2.42564E+01 1.12053E+01 3.13485E+00-6.97878E+00
 -1         8 7.65921E+01-2.16308E+01-2.14360E+01 1.02960E+01 1.65056E-01 1.93073E+00
 -1         9 1.08817E+02-1.65483E+01-2.90772E+01-6.31978E+00 4.04739E+00-3.53907E+00
 -1        10 1.21142E+02-1.86592E+01-4.71149E+01-1.78634E+01-2.11843E+00 4.01290E-01
 -1        11 1.01422E+02-8.35747E+01 8.53006E-01-1.75251E+01 2.55873E+01 5.52904E+01
 -1        12 2.82540E+00-3.12046E+00-1.89057E-01 7.51647E+00-2.41814E+00-2.97312E-01
 -1        13 3.36698E+01-1.72780E+01-6.10490E+00 1.09224E+01-1.28951E+00-1.57557E+00
 -1        14 6.45842E+01-2.67044E+01-1.51160E+01 1.24945E+01-5.47048E-01-6.21023E-01
 -1        15 8.31073E+01-3.31879E+01-2.11365E+01 1.65778E+01-8.06322E-01-2.27337E+00
 -1        16 7.26938E+01-2.53203E+01-1.64805E+01 6.92376E+00 4.16795E+00 8.63428E+00
 -1        17 2.54361E+01-7.43495E+01 2.49821E+01-1.49812E+00-6.11911E-01-4.70547E+00
 -1        18 5.42030E+00-1.75313E+01 4.85888E+00 1.26646E+00 2.52520E+00-3.69273E+00
 -1        19 1.75144E+01-2.25977E+01 2.74030E+00 5.48028E+00 2.51695E+00-6.08221E-01
 -1        20 3.35576E+01-3.13308E+01-1.21065E+00 8.45574E+00 2.70248E+00-2.76201E+00
 -1        21 5.11572E+01-3.71379E+01-5.51282E+00 1.07030E+01 2.57533E+00 5.39955E-01
 -1        22 6.77297E+01-4.28855E+01-9.09971E+00 1.35676E+01 2.38387E+00-2.47573E+00
 -1        23 7.71604E+01-4.72005E+01-1.13310E+01 1.69185E+01 3.64671E+00-3.31227E-01
 -1        24 8.48413E+01-4.94168E+01-1.22393E+01 2.11371E+01 4.89531E+00 6.05906E-01
 -1        25 7.89339E+01-4.89252E+01-1.23252E+01 2.25416E+01 1.40103E+00-2.99645E+00
 -1        26 6.41730E+01-4.26056E+01-9.61025E+00 2.34714E+01 1.10177E+00 2.26322E-01
 -1        27 3.27190E+01-2.55206E+01-2.53873E-01 1.99664E+01 8.09568E+00 5.21845E+00
 -1        28 8.90534E+00-4.39862E+01 7.51871E+00 1.53345E+01 9.69554E+00 1.19954E+01
 -1        29 1.19176E+01-4.60413E+01 1.29123E+01-4.10434E+00-6.32027E-01-1.68309E+00
 -1        30 3.55135E+01-5.38403E+01 6.73796E+00 3.80348E-02-9.41168E-01-2.25837E+00
 -1        31 7.14407E+01-6.84629E+01-9.61438E-01 4.47702E+00-1.21008E+00-2.58477E+00
 -1        32 8.95401E+01-8.03963E+01-2.86126E+00 1.67818E+01-2.51205E+00 1.60609E+00
 -1        33 6.91607E+01-8.05539E+01 4.44760E+00 3.68248E+01-1.03733E+00-2.49818E-01
 -1        34 1.73422E+01-5.97118E+01 1.89301E+01 1.93458E+01-4.35770E+00 4.78480E+00
 -1        35 1.82394E+01-7.04700E+01 1.88977E+01-5.87870E+00 4.80148E+00-8.28499E-01
 -1        36 2.61417E+01-7.13653E+01 1.72737E+01-6.11632E+00 2.38572E+00 1.11600E+00
 -1        37 3.68833E+01-7.55374E+01 1.50934E+01-6.82747E+00 1.99659E+00-1.99277E+00
 -1        38 5.53129E+01-8.37946E+01 1.11010E+01-4.92030E+00 3.06956E+00 7.46765E-01
 -1        39 7.56938E+01-9.50946E+01 7.22522E+00-3.81043E+00 3.33182E+00-2.35574E+00
 -1        40 8.93711E+01-1.04324E+02 5.95112E+00 2.83656E+00 3.00180E+00 8.48683E-01
 -1        41 9.92929E+01-1.13627E+02 6.52776E+00 1.26158E+01 2.51326E+00 3.13846E+00
 -1        42 9.54961E+01-1.21301E+02 9.56080E+00 2.70246E+01 8.14225E+00-3.42184E+00
 -1        43 7.78957E+01-1.20603E+02 1.42256E+01 4.80027E+01 1.37135E+01-9.23767E-01
 -1        44 4.52103E+01-1.00900E+02 2.39131E+01 4.36324E+01 1.85543E+00 4.17815E-01
 -1        45 2.52465E+01-8.79753E+01 4.81647E+01 3.10551E+01 1.65513E+01 1.01527E+00
 -1        46 2.16876E+01-8.19356E+01 2.42736E+01-5.24344E+00 5.04446E-01-6.24057E-01
 -1        47 3.58332E+01-8.81173E+01 1.97683E+01-1.24622E+01 8.05006E-01-1.65236E+00
 -1        48 7.46633E+01-1.09759E+02 1.36705E+01-1.87501E+01-9.66906E-01-2.38114E+00
 -1        49 1.21144E+02-1.48936E+02 9.31032E+00-4.17814E+00-2.55091E-01-5.25527E+00
 -1        50 9.67494E+01-1.63882E+02 2.86800E+01 4.90114E+01-5.85241E+00 1.08112E+01
 -1        51 4.67507E+01-1.83642E+02 2.40716E+01 4.80954E+01 1.47291E+01 3.95015E+00
 -1        52 2.18167E+01-9.09719E+01 2.65105E+01-3.77125E+00-2.19838E-01-1.72722E+00
 -1        53 2.52605E+01-9.26032E+01 2.58660E+01-1.01458E+01-1.73817E+00-6.36313E-01
 -1        54 3.01424E+01-9.70827E+01 2.56981E+01-1.85547E+01 1.72120E+00-1.77521E+00
 -1        55 4.87559E+01-1.04210E+02 2.07286E+01-2.79273E+01-8.23744E-01 2.98905E+00
 -1        56 7.09859E+01-1.18657E+02 1.73530E+01-3.70564E+01-4.78671E+00-2.29949E+00
 -1        57 1.05803E+02-1.50686E+02 1.89466E+01-3.38517E+01 4.50806E+00 2.65067E-01
 -1        58 1.45809E+02-1.88612E+02 1.72617E+01-2.58293E+01 1.08246E+01-1.04995E+01
 -1        59 1.35443E+02-1.97236E+02 2.08001E+01 2.22065E+00-9.38120E+00 9.77851E+00
 -1        60 1.24494E+02-2.10233E+02 1.79005E+01 4.41830E+01-2.39987E+01 1.99307E+01
 -1        61 1.07647E+02-2.49501E+02 8.05902E+01 5.89783E+01 5.11172E+01-4.87192E+00
 -1        62 8.10781E+01-2.35028E+02 7.72168E+01 6.74714E+01 9.09391E+01 1.75872E+01
 -1        63 2.08834E+01-8.54456E+01 2.40336E+01 2.10895E+00 2.47932E+00 2.26581E+00
 -1        64 1.26425E+01-7.78854E+01 2.59901E+01-2.07495E+01-2.05051E+00-1.80545E+00
 -1        65 6.63241E+01-1.08075E+02 1.62890E+01-5.88084E+01 4.79513E+00-6.21985E+00
 -1        66 1.38347E+02-1.68143E+02 1.30146E+01-6.70523E+01-8.27110E+00 7.69905E+00
 -1        67 2.05241E+02-3.05741E+02 4.54357E+01-7.20091E-03 5.32873E+01-2.66788E+01
 -1        68 1.29314E+02-2.84444E+02 7.27295E+01 8.12090E+01-6.47819E+01-4.03499E+00
 -1        69 1.76565E+01-4.88018E+01 2.01521E+01 1.03143E+01-9.77466E+00 1.41099E+01
 -1        70 4.86304E+00-6.68592E+01 2.27297E+01-3.55418E+00 2.58450E+00 9.24066E+00
 -1        71-1.07058E+01-5.41263E+01 2.76912E+01-2.21274E+01-8.68390E+00-4.23674E+00
 -1        72 1.30883E+01-6.22505E+01 2.04014E+01-5.86299E+01-4.36247E+00-6.26117E+00
 -1        73 4.98023E+01-7.91973E+01 1.19746E+01-8.98850E+01 7.92488E-01-1.14996E+01
 -1        74 8.93030E+01-1.04640E+02 3.59288E+00-1.12175E+02-1.13812E+01 4.74072E+00
 -1        75 1.31653E+02-1.40659E+02 1.60136E+01-1.29603E+02-2.19573E+01 1.78749E+01
 -1        76 2.35801E+02-2.38278E+02-1.50503E+00-1.10977E+02 2.16290E+01-5.54453E+01
 -1        77 2.59470E+02-3.15073E+02 2.47226E+01-7.89040E+01 5.71768E+01-6.49256E+01
 -1        78 1.50373E+02-4.11781E+02 7.81314E+01-1.21874E+02-1.08292E+02 1.13582E+02
 -1        79 1.08659E+02-1.05456E+03 2.17529E+02-1.30775E+02 9.08899E+01 1.16363E+02
 -1        80-2.57095E+01 3.64802E+01-1.35702E+01 2.95926E+01-7.77042E+00-9.21497E+00
 -1        81-5.15821E+01-1.81427E+01 2.12391E+01-8.37341E+00 6.57417E+00 4.74718E+00
 -1        82 9.46792E+00-3.00192E+01 8.63102E+00-7.87710E+01-5.45986E-01-3.17931E+00
 -1        83 1.51803E+02-9.86204E+01-4.21158E+01-1.27854E+02 9.16198E+00-4.26837E+01
 -1        84 2.92123E+02-1.59867E+02-3.63637E+01-2.48774E+01-1.27233E+02 1.11468E+02
 -1        85 4.28649E+02-1.85949E+03 7.25419E+02-1.75739E+02 7.68413E+00-1.03748E+02
 -1        86-1.28426E+02 9.19342E+01-1.19388E+00 4.23057E+01 2.08780E+01 7.26214E+01
 -1        87-1.42619E+02 2.01944E+01 5.94659E+01 3.27488E+01-6.56820E+00 2.34727E+00
 -1        88-1.07464E+02 1.35240E+01 2.73743E+01 2.68913E+00-2.37369E+00-1.45875E+01
 -1        89-2.51638E+01 1.15779E+01 4.25734E+00-3.56382E+01-8.30425E+00 7.00742E+00
 -1        90-6.50121E+00 1.24370E+00-1.76465E+01-5.50209E+01-2.29400E+00-2.82577E+01
 -1        91 8.12027E+01-1.97306E+01 8.87288E-02-7.90910E+01-4.62620E+00-2.22718E+01
 -1        92 1.36575E+02-5.35094E+01-4.16378E+01-1.08248E+02-1.44058E+01-8.98191E+01
 -1        93 1.72922E+02-9.61827E+01-4.30517E+01-1.34932E+02-7.15281E+00 4.14173E+01
 -1        94 8.73812E+02-7.70070E+01-1.61934E+02 2.14897E+01-1.49285E+02-1.13164E+02
 -1        95 1.71436E+03-4.34266E+02-6.64357E+02 1.66632E+01 1.21640E+02-4.30502E+01
 -1        96 1.93686E+03-1.99641E+03-1.58519E+00-8.11509E+01-8.87417E+02 7.94851E+02
 -1        97 6.32804E+00 3.38278E+00 1.10452E+00 1.05455E+01-9.22285E+00-1.57415E+01
 -1        98 2.99252E+01-6.46368E+00-8.89639E+00 7.53890E+00 1.57334E+00-8.38119E+00
 -1        99 5.13165E+01-1.25817E+01-1.54680E+01 6.27245E+00 1.83210E+00-9.23360E+00
 -1       100 6.55725E+01-1.64201E+01-1.92014E+01 8.23924E+00 4.18969E+00-8.15315E+00
 -1       101 8.73616E+01-1.28286E+01-2.36372E+01-5.56404E+00 3.22531E+00-1.65624E+01
 -1       102 1.20076E+02-9.65904E+01 1.73797E+00-2.40095E+01 3.34440E+01 8.98557E+01
 -1       103 3.95423E+00-1.49612E+01 3.70582E+00 5.28924E-01 6.99317E+00-2.58252E+00
 -1       104 2.73386E+01-2.52301E+01-7.57619E-01 6.79824E+00 5.77873E+00-4.60751E+00
 -1       105 5.42308E+01-3.47700E+01-6.97279E+00 1.09856E+01 6.24536E+00-3.42833E+00
 -1       106 6.74660E+01-3.99020E+01-8.99376E+00 1.69369E+01 7.95548E+00 4.34931E-01
 -1       107 5.35244E+01-3.51333E+01-7.76901E+00 1.81647E+01 9.59364E+00 4.38407E+00
 -1       108 4.35500E+00-4.08980E+01 8.49639E+00 1.70694E+01 4.56153E+00 9.73317E+00
 -1       109 1.46845E+01-5.62611E+01 1.49001E+01-4.27949E+00 8.70465E+00-2.01181E+00
 -1       110 2.94694E+01-6.06337E+01 1.18319E+01-5.58549E+00 5.33172E+00-3.69387E+00
 -1       111 6.08715E+01-7.64178E+01 5.79245E+00-3.11672E+00 6.07916E+00-3.18646E+00
 -1       112 7.90188E+01-9.10763E+01 5.54130E+00 9.70194E+00 8.55588E+00 2.60500E+00
 -1       113 6.37701E+01-9.64972E+01 1.21403E+01 3.92712E+01 1.19375E+01 6.37595E+00
 -1       114 2.09269E+01-7.95097E+01 4.06895E+01 1.91318E+01 4.73693E+01-3.39718E-01
 -1       115 1.69708E+01-7.21364E+01 2.00812E+01-3.19847E+00 3.60747E+00 8.92062E-01
 -1       116 2.50422E+01-7.85670E+01 2.05864E+01-1.48096E+01 1.26657E+00-3.33535E+00
 -1       117 5.63883E+01-9.42685E+01 1.35785E+01-2.94304E+01-1.86497E+00-5.66272E+00
 -1       118 1.19223E+02-1.53807E+02 1.37253E+01-2.07167E+01 5.86736E+00-4.58635E+00
 -1       119 9.33088E+01-1.55376E+02 7.08681E+00 3.70235E+01-2.67404E+00 1.39239E+01
 -1       120 6.97821E+01-2.07406E+02 6.93291E+01 4.80218E+01 6.94695E+01 3.86155E+01
 -1       121 1.64108E+01-3.60012E+01 1.53559E+01 2.00651E+00-2.49734E+01 7.29502E+00
 -1       122-1.18524E+01-4.17616E+01 2.22979E+01-1.70718E+01-5.50542E+00-3.12129E+00
 -1       123 4.11133E+01-6.53541E+01 7.78111E+00-7.26771E+01-7.10440E+00-9.07260E+00
 -1       124 9.30885E+01-1.05167E+02 2.00699E+01-1.06289E+02-1.67343E+01 1.26915E+00
 -1       125 2.42995E+02-2.91236E+02 1.94848E+01-6.41763E+01-1.34101E+01 8.59335E+00
 -1       126 6.62123E+01-8.66323E+02 1.95093E+02-1.49208E+02 3.50981E+02 7.25238E+01
 -1       127-1.46213E+02 1.09935E+02-7.15831E+00 4.28983E+01 1.55817E+01 1.22990E+02
 -1       128-8.17667E+01 1.17024E+01 2.19963E+01 1.95628E+00-4.11686E+00-3.46316E+01
 -1       129 3.04264E+00 1.81057E+00-1.59524E+01-3.68394E+01 1.23089E+00-5.94822E+01
 -1       130 1.26575E+02-4.77014E+01-4.13370E+01-7.38034E+01-4.24216E+01-8.59674E+01
 -1       131 7.23976E+02-3.64114E+01-1.46309E+02 7.83345E+01-8.58636E+01-3.80725E+02
 -1       132 2.25555E+03-2.32991E+03-7.04350E+00-8.39476E+01-1.35908E+03 1.16305E+03
 -1       133 8.15596E+00 4.75107E+00 1.00283E+01 1.17462E+01-3.03805E+01-4.33027E+01
 -1       134 1.76689E+01 1.99793E-01-5.96401E+00 8.72582E+00 5.35058E-01-1.22939E+01
 -1       135 2.31333E+01-4.87698E+00-5.28386E+00 4.40319E+00 1.87613E+00-1.54289E+01
 -1       136 2.91315E+01-7.33211E+00-9.80801E+00 3.47549E+00 2.86151E+00-1.14035E+01
 -1       137 3.97664E+01-9.00331E+00-1.09555E+01 3.40043E+00 1.24199E+00-1.74521E+01
 -1       138 4.41904E+01-1.05935E+01-9.42106E+00 3.78244E+00 3.64983E+00-1.00448E+01
 -1       139 5.05377E+01-1.22969E+01-4.91231E+00 5.29935E+00 9.48493E+00-3.84140E+00
 -1       140 4.05228E+01-1.23528E+01-1.89442E+01 8.14382E+00-3.77682E+00-1.61941E+01
 -1       141 6.82119E+01-7.57656E+00-3.80382E+00-3.57569E+00 4.52519E+00-1.46881E+01
 -1       142 1.26632E+02-2.13545E+01-6.26954E+01-2.11565E+01 7.91783E+00 5.04080E+00
 -1       143 1.44804E+02-1.10853E+02 2.35611E+01-3.24390E+01 7.39310E+01 2.43787E+02
 -1       144 1.85745E+00-1.00844E+00-2.67389E-01 6.38606E+00-3.25392E+00-5.57733E+00
 -1       145 2.02184E+01-1.14002E+01-1.81726E+00 5.59131E+00 7.54997E-01-1.00798E+01
 -1       146 3.97149E+01-1.72142E+01-7.84581E+00 6.76453E+00 3.21810E+00-5.49402E+00
 -1       147 5.28676E+01-2.10941E+01-1.18223E+01 9.87153E+00 3.33958E+00-5.32455E+00
 -1       148 3.56107E+01-1.75639E+01 1.17035E+00 1.26358E+00 1.52112E+01 2.31196E+01
 -1       149 2.66139E+01-8.21192E+01 4.08955E+01-6.23133E+00-7.26447E+00 2.71780E+01
 -1       150 2.06533E+00-1.16628E+01 3.27522E+00-6.75701E-02 1.01362E+01-3.93902E+00
 -1       151 1.10122E+01-1.43019E+01 3.51304E+00 2.89366E+00 8.10088E+00-4.46351E+00
 -1       152 2.09647E+01-1.90095E+01-2.53486E+00 5.19742E+00 1.15760E+01-4.27672E+00
 -1       153 3.10729E+01-2.28020E+01-3.25507E+00 6.70910E+00 1.02646E+01-2.01245E+00
 -1       154 4.08331E+01-2.64432E+01-5.49649E+00 8.58108E+00 9.95102E+00-6.41587E+00
 -1       155 4.64096E+01-2.88170E+01-5.48411E+00 1.04941E+01 1.14116E+01-6.43231E-01
 -1       156 5.04219E+01-3.00141E+01-6.51275E+00 1.29302E+01 1.31213E+01 2.15015E+00
 -1       157 4.66616E+01-3.05332E+01-6.10522E+00 1.15118E+01 1.15007E+01-2.85966E+00
 -1       158 4.26556E+01-2.77359E+01-1.24239E+01 1.33102E+01 1.03419E+01-6.32855E+00
 -1       159 2.01632E+01-1.15153E+01 1.52037E+00 1.81842E+01 2.29589E+01 2.52177E+01
 -1       160-1.20906E+00-3.56426E+01-1.22201E+01 1.66505E+01-3.62558E-01 2.59430E+01
 -1       161 6.42140E+00-2.91513E+01 6.53962E+00-2.03692E+00 7.98612E+00-2.30919E+00
 -1       162 2.16113E+01-3.26749E+01 3.87423E+00-1.71861E-02 5.55659E+00-6.09280E+00
 -1       163 4.33324E+01-4.15414E+01-6.42979E-01 2.61692E+00 5.20045E+00-5.43172E+00
 -1       164 5.33225E+01-4.88650E+01-1.38261E+00 1.00873E+01 5.33103E+00 1.74304E+00
 -1       165 4.50524E+01-5.02694E+01 1.59812E+00 2.28949E+01 9.13572E+00 4.42773E+00
 -1       166 7.42950E+00-3.77421E+01 2.37119E+01 6.73160E+00 3.05626E+01-1.52542E+01
 -1       167 1.10668E+01-4.20419E+01 1.23861E+01-2.66766E+00 1.31271E+01-4.55704E+00
 -1       168 1.64640E+01-4.31429E+01 1.00822E+01-3.51610E+00 1.02385E+01 2.41341E-01
 -1       169 2.20874E+01-4.59794E+01 9.43225E+00-4.38863E+00 8.58598E+00-7.07666E+00
 -1       170 3.34582E+01-5.09477E+01 6.42218E+00-2.94955E+00 9.88529E+00-1.94514E+00
 -1       171 4.61021E+01-5.77681E+01 4.65980E+00-2.41564E+00 1.03135E+01-4.90751E+00
 -1       172 5.39418E+01-6.32843E+01 3.20888E+00 1.30711E+00 1.12292E+01 5.02538E-01
 -1       173 5.93335E+01-6.90906E+01 3.32698E+00 6.81655E+00 1.24293E+01 3.77471E+00
 -1       174 5.60144E+01-7.28005E+01 9.31107E+00 1.62488E+01 1.82883E+01 2.24913E-01
 -1       175 4.93948E+01-7.13970E+01 1.60979E+01 3.10470E+01 2.95597E+01 6.06421E+00
 -1       176 3.00448E+01-6.51958E+01 1.06716E+00 2.33991E+01 1.29644E+01 1.50901E+01
 -1       177 1.49087E+01-7.24532E+01 4.33417E+01 1.09834E+01 9.02297E+01-6.19985E+00
 -1       178 1.23142E+01-4.84419E+01 1.38839E+01-2.90967E+00 8.61685E+00 1.44910E+00
 -1       179 2.22454E+01-5.23573E+01 1.07025E+01-7.64207E+00 4.19842E+00-4.24480E+00
 -1       180 4.48152E+01-6.61538E+01 8.52967E+00-1.11959E+01 3.33898E+00-6.15624E+00
 -1       181 7.54154E+01-8.80750E+01 5.62338E+00-3.71198E+00 2.81519E+00-1.55763E+00
 -1       182 5.27794E+01-1.03713E+02 1.70822E+01 3.32506E+01-7.22889E+00 2.68234E+01
 -1       183 3.18721E+01-1.11083E+02-3.64380E-01 8.21731E+00 2.72507E+01 4.05682E+01
 -1       184 1.14904E+01-5.45672E+01 1.65198E+01-3.21004E+00 9.70918E+00 1.20027E+01
 -1       185 1.56456E+01-5.54275E+01 1.61279E+01-5.69728E+00 9.38081E-01-1.58030E+00
 -1       186 1.94617E+01-5.99852E+01 1.31999E+01-1.10008E+01 2.22257E+00-3.02267E+00
 -1       187 2.97173E+01-6.30993E+01 1.26907E+01-1.76457E+01 1.12838E+00-7.67991E-01
 -1       188 4.23465E+01-7.06661E+01 1.10349E+01-2.18153E+01-1.85124E+00-7.37933E+00
 -1       189 6.22695E+01-9.33092E+01 1.10443E+01-1.91623E+01 4.15415E+00 1.23744E+00
 -1       190 9.21441E+01-1.18774E+02 9.54810E+00-1.55167E+01 5.21435E+00-2.71613E+00
 -1       191 8.28363E+01-1.10896E+02 8.90993E+00-6.45648E+00 2.14904E+00 1.06361E+01
 -1       192 6.35158E+01-1.05582E+02 1.67282E+01 3.17336E+01-1.57262E+01 3.59633E+01
 -1       193 6.46154E+01-1.85606E+02 4.16313E+01 4.18493E+01 7.65088E+01 5.07365E+00
 -1       194 6.36954E+01-1.65987E+02-8.55891E+01 2.31448E+01-3.91370E+01 1.75689E+02
 -1       195 1.55252E+01-5.06311E+01 1.17546E+01 3.05059E+00-8.07278E+00-1.15715E+01
 -1       196 5.50311E+00-4.77525E+01 1.95212E+01-1.38246E+01-9.24576E-01-6.13914E+00
 -1       197 4.04135E+01-6.32219E+01 5.74097E+00-3.49351E+01 3.24422E+00-1.21330E+01
 -1       198 7.56306E+01-1.01762E+02 1.27051E+01-3.30013E+01-8.56390E+00 5.00768E-01
 -1       199 1.50274E+02-1.62976E+02-1.59734E+01-3.58389E+01 6.58675E+01-9.16262E+00
 -1       200 5.33607E+01-1.00327E+02 1.50982E+02 9.92010E+01 2.07170E+02-1.62235E+02
 -1       201 1.64303E+01-2.41309E+01 2.12660E+01-3.47573E+00-3.73050E+01 1.23275E+01
 -1       202 2.04090E+00-4.65495E+01 1.34725E+01-1.01944E+01-3.24317E+00 2.91913E+01
 -1       203-1.21876E+01-2.95506E+01 2.61396E+01-1.24053E+01-1.05542E+01-2.06026E+01
 -1       204 1.13487E+01-3.79978E+01 9.70091E+00-3.23998E+01-7.30736E+00-1.27279E+01
 -1       205 3.10781E+01-5.12234E+01 2.26501E+00-5.64072E+01-2.64431E+00-2.03168E+01
 -1       206 5.81028E+01-5.75319E+01-3.22227E-01-7.21978E+01-3.07160E+01 9.16879E+00
 -1       207 5.98419E+01-7.16288E+01 8.93206E-01-8.53757E+01-4.53151E+01 1.05276E+01
 -1       208 1.20609E+02-1.71722E+02 4.61050E+01-3.50234E+01 1.09721E+01-5.52802E+01
 -1       209 2.23193E+02-2.63023E+02 3.13509E+01-4.98153E+01 1.65930E+02-1.34290E+02
 -1       210 1.19794E+02-1.02664E+02-1.02649E+02-1.65989E+02-2.47151E+02 3.74325E+02
 -1       211 3.42033E+00-7.05044E+02-8.73101E+01-1.36354E+02 3.88856E+02 1.09671E+02
 -1       212-2.74260E+01 6.35344E+01-3.92254E+01 2.05774E+01-4.11075E+01 3.22309E+01
 -1       213-2.00240E+01-8.34538E+00-5.63922E+00-1.62138E+00 1.38115E+01 9.58655E+00
 -1       214 5.77067E+00-2.01694E+01 1.56030E+01-4.42833E+01-1.66780E+01-1.78700E+01
 -1       215 1.22281E+02-5.98586E+01-1.74686E+01-7.88678E+01-8.11387E-01-7.18578E+01
 -1       216 3.56015E+01-1.23697E+02 1.00562E+02 8.93477E+01-4.11835E+02 2.06237E+02
 -1       217 4.80583E+02-2.08003E+03 1.06997E+03-1.84158E+02 8.81571E+01 2.68497E+02
 -1       218-1.73102E+02 1.28681E+02-5.11891E+01 4.77404E+01 3.52053E+01 3.21583E+02
 -1       219-1.46384E+02 2.56024E+01 7.32498E+01 3.12241E+01-7.29607E+00 1.22326E+01
 -1       220-6.18896E+01 8.89338E+00 8.76497E+00 4.38569E-01-1.73670E+01-3.12827E+01
 -1       221-4.03908E+00 8.70544E+00 2.69919E+00-2.06345E+01-4.61098E+00-5.71690E+01
 -1       222 1.41809E+01 4.64327E+00-3.72924E+01-2.25315E+01 1.97400E+01-9.41995E+01
 -1       223 5.51356E+01-1.51572E+01 6.91677E+00-2.05273E+01-4.43910E+01-5.60026E+01
 -1       224 1.01989E+02-4.79396E+01 8.55772E+01-3.50502E+01-1.95969E+02-1.15276E+01
 -1       225 4.46871E+01-2.61704E+01-1.14186E+02-1.17586E+02 1.67429E+02-2.55325E+02
 -1       226 5.94988E+02 2.67408E+01 1.16296E+02 9.93009E+01-1.40925E+02-4.69147E+02
 -1       227 1.93880E+03-4.89935E+02-1.01346E+03 6.23057E+01-3.07318E+02-2.19720E+02
 -1       228 2.65084E+03-2.75332E+03-7.46107E+01-9.56114E+01-3.53729E+03 2.95999E+03
 -1       229 3.23486E+01 2.33614E+01 9.65071E+00 3.34168E+01-5.48995E+01-7.47523E+01
 -1       230 1.28096E+01-6.21175E+00-7.13225E-03-8.26664E-01 3.36768E+00-1.78542E+01
 -1       231 2.68142E+01-4.43820E+00-7.21338E+00 3.32555E+00 1.35658E+00-2.37124E+01
 -1       232 2.86518E+01-1.26454E+01 6.70901E+00-3.46153E+00 1.09390E+01 1.25620E+00
 -1       233 2.78868E+01 3.66252E+00 2.06653E+01 8.10757E+00 1.10157E+01-2.13843E+01
 -1       234 3.12756E+02-1.65634E+02 1.66205E+01-8.88620E+01 1.02216E+02 4.15201E+02
 -1       235-2.61849E+00-1.03927E+01 4.83260E+00-3.65823E+00 1.32294E+01-3.53270E+00
 -1       236 1.64593E+01-1.13461E+01-4.85633E+00 5.16094E+00 1.51389E+01-4.28283E+00
 -1       237 2.78766E+01-1.84607E+01-4.39772E+00 5.39487E+00 1.15583E+01-8.51948E+00
 -1       238 3.31507E+01-1.96505E+01-4.16811E+00 1.00571E+01 1.77945E+01 3.28617E+00
 -1       239 4.21363E+01-2.33432E+01-1.90514E+01 5.56063E+00 4.13124E+00-1.48029E+01
 -1       240-1.81774E+01-1.75586E+01-2.68488E+01 1.21949E+01-9.81958E-01 2.96363E+01
 -1       241 1.18049E+01-2.85571E+01 8.89415E+00-1.33697E+00 1.58993E+01-7.88509E+00
 -1       242 1.33956E+01-3.09412E+01 7.58419E+00-2.95940E+00 1.00716E+01-9.03418E+00
 -1       243 3.15490E+01-3.95055E+01 3.50117E+00-1.77944E+00 1.36947E+01-6.69608E+00
 -1       244 3.84519E+01-4.58827E+01 8.03048E-01 4.11719E+00 1.28272E+01 6.54719E+00
 -1       245 4.37193E+01-5.51519E+01 2.06178E+01 1.79504E+01 4.89649E+01-2.35781E+00
 -1       246-9.63777E+00-5.55653E+01 4.32715E+01 3.01552E+01 1.18469E+02 2.04083E+00
 -1       247-6.06885E+00-3.91826E+01 1.63672E+01-9.66791E+00 1.13706E+01 2.35287E+01
 -1       248 1.69840E+01-4.16427E+01 5.96402E+00-6.72820E+00 4.79879E+00-3.28580E+00
 -1       249 2.76966E+01-4.59410E+01 8.88674E+00-1.43568E+01-4.52968E+00-6.63035E+00
 -1       250 6.46098E+01-8.21249E+01 5.97816E+00-1.00512E+01 8.91524E+00-6.14574E+00
 -1       251 6.73978E+00-4.81565E+01 2.46645E+01 4.15178E+01-4.58535E+01 6.52746E+01
 -1       252 1.90385E+02-2.55453E+01-2.34210E+02-1.23048E+02-1.13042E+02 2.65242E+02
 -1       253 4.46861E+01-2.29614E+01 2.00353E+01-1.30113E+01-3.98931E+01 9.32621E+00
 -1       254-2.96243E+01-1.00294E+01 3.18905E+01-3.33861E+00-2.19032E+01-3.41001E+01
 -1       255 2.91972E+01-5.02615E+01-3.15885E+00-3.82147E+01 9.24703E+00-3.42789E+01
 -1       256 1.82619E+01-6.18334E+00-1.86822E+01-7.55838E+01-7.65728E+01 3.70641E+01
 -1       257 3.72546E+02-4.28756E+02 4.67277E+01-4.66171E+01 3.69696E+02-3.19919E+02
 -1       258-3.60847E+02-2.01584E+02-3.69171E+02-3.09051E+01 4.64415E+02 1.45014E+02
 -1       259-3.79267E+02 1.84402E+02-6.00200E+01 1.23196E+02 4.14923E+01 5.37245E+02
 -1       260-1.98463E+01-1.55317E+01-8.48527E+00-7.58174E+00-1.98075E+01-3.78681E+01
 -1       261 2.52471E+01 4.23659E+01-5.71235E+01-2.16609E+01 2.28439E+01-1.14084E+02
 -1       262-9.50814E+00-2.02538E+02 2.17927E+02 1.13664E+02-3.11158E+02 3.26296E+01
 -1       263 1.65560E+02 4.28759E+02 3.46417E+02 6.20487E+01-1.66107E+02-5.49140E+02
 -1       264 4.81446E+03-5.25808E+03-6.90912E+01-2.69715E+02-5.78790E+03 4.76371E+03
 -1       265-6.24019E-05 2.18070E+02-6.14932E-05-1.36133E+01 1.21311E+02-1.92488E-04
 -1       266-3.77282E-05 9.06809E+01 1.52916E-05-1.26901E+01 4.74688E+01 2.50186E-04
 -1       267 5.84553E-06-4.71918E+01-4.16209E-05-9.95222E+00 1.61298E+00-1.94278E-04
 -1       268-1.30713E-05-1.51654E+02-7.89477E-05-1.16272E+01-3.10234E+01 2.30829E-04
 -1       269 1.41846E-04-2.63176E+02-2.62047E-04-1.60833E+01-6.76379E+01-7.12421E-06
 -1       270 2.22209E-04-4.31739E+02-2.75938E-04-6.64323E+00-1.00819E+02-1.09609E-05
 -1       271-2.42423E-04-6.09543E+02-4.43137E-04-5.46747E+00-2.19851E+02 6.97076E-05
 -1       272-6.25666E-05-8.15479E+02-5.80990E-04-4.06167E+01-1.15056E+02 6.27017E-04
 -1       273-7.28619E-05-1.05017E+03-2.53893E-04-3.66315E+01-5.72998E+01-1.56734E-05
 -1       274-8.37156E-04-1.14664E+03-5.58313E-04-8.27930E+00-3.34773E+02 3.28431E-04
 -1       275-6.96096E-04-1.12592E+03-4.77715E-04 3.75417E+00-1.80699E+02 3.81944E-04
 -1       276-4.17124E-04-8.63945E+02-2.64248E-04 2.38278E+01-2.82486E+02-1.17444E-03
 -1       277-3.19403E-04-5.41993E+02-1.13736E-04 3.77265E+01-1.13353E+02 9.21300E-04
 -1       278-1.62207E-04-8.56905E+01-1.45581E-05 4.90213E+01 4.53927E+01-1.12103E-03
 -1       279-1.86700E-04 3.53516E+02-2.69616E-04 5.85150E+01 3.23926E+02 9.32679E-04
 -1       280 2.33512E+00 1.45395E+02-1.54275E+01-1.12345E+02 1.88233E+01-7.56340E+00
 -1       281 6.21562E+00-4.27342E+01 7.16172E+00-1.07406E+02 1.32397E+01 1.41392E+01
 -1       282-3.02530E+00-2.35840E+02 3.55127E+01-1.11561E+02-8.54947E+00 3.77270E+01
 -1       283-6.16566E+01-4.42659E+02 1.13643E+02-1.82743E+02 2.57006E+01-1.53708E+01
 -1       284 1.01291E+02-9.92156E+02 2.00407E+02-1.86065E+02 9.32581E+00-4.52355E+01
 -1       285 7.36698E+01-9.04469E+02 1.01385E+02 1.64366E+02 5.64184E+01 2.12919E+01
 -1       286 4.09481E+01-4.26738E+02 4.14521E+01 3.52581E+02 4.80841E+01-2.49433E+00
 -1       287 2.53099E+01 1.89877E+02-3.35830E+01 3.89956E+02 7.09710E+01 5.87447E+00
 -1       288 9.27723E+00-1.85837E+00-3.08549E+01-1.87130E+02 1.02842E+02-1.24157E+01
 -1       289 1.65359E+01-1.14211E+01-8.26580E+00-1.94347E+02 2.26962E+01 6.15222E+00
 -1       290 1.81406E+01-3.25512E+01 1.43235E+01-1.96380E+02-1.06156E+01 3.67083E+00
 -1       291 1.36135E+00-7.71248E+01 4.26746E+01-1.99305E+02-2.84880E+01-2.43682E+01
 -1       292-2.75522E+01-1.21144E+02 7.10258E+01-2.01111E+02-2.26196E+01-6.71340E+00
 -1       293-7.83985E+01-1.18225E+02 1.49156E+02-2.10176E+02-8.33334E+01 1.43429E+01
 -1       294-1.24671E+02-1.53177E+02 2.27286E+02-2.89642E+02-1.13856E+02-2.15665E+01
 -1       295 5.44415E+00-5.90586E+02 3.14050E+02-4.52871E+02-2.12136E+02-1.83267E+02
 -1       296 3.26048E+02-8.59927E+02 4.00814E+02-2.13480E+02-2.19992E+02-2.21921E+01
 -1       297 3.42804E+02-6.43963E+02 3.01792E+02 1.01676E+02-1.59810E+02 1.55296E+00
 -1       298 2.40607E+02-4.18480E+02 2.02770E+02 3.37681E+02-2.54654E+02-3.90066E+00
 -1       299 1.78982E+02-2.70888E+02 1.42838E+02 4.82159E+02-1.33691E+02 1.38408E+01
 -1       300 1.17780E+02-1.46401E+02 8.29045E+01 6.24568E+02-1.66377E+02 2.40086E+01
 -1       301 7.40736E+01-4.11197E+01 7.86937E+00 6.36794E+02-3.31064E+01-1.02267E+01
 -1       302 6.68678E+01 1.25304E+01-6.71654E+01 6.26445E+02 1.96484E+02 2.50890E+01
 -1       303 1.06653E+01-1.36976E+02 2.14970E+01-1.17076E+02 1.70282E+01 1.08693E+01
 -1       304-1.19650E+01 7.26187E+00 6.10687E+00-1.74404E+02 9.67252E+00-4.14474E+00
 -1       305-1.72646E+00-9.87147E+00 2.11156E+01-1.96801E+02 8.80323E+00 2.47274E+00
 -1       306-2.62436E+01 8.54091E+01 3.89751E+01-9.79565E+01 8.58917E+00 7.11020E+00
 -1       307 3.84218E+02-4.91861E+02 8.62726E+01 1.79640E+02-2.26222E+01-1.57155E+02
 -1       308 4.20031E+02-5.35353E+01-9.86325E+01 5.43034E+02 2.26265E+01 1.60233E+01
 -1       309 1.61847E+02 1.36944E+02-7.26981E+01 6.14992E+02 7.76023E+01 1.89611E+01
 -1       310 1.35979E+01-5.37273E+01-9.90007E+00 4.88466E+02 1.26734E+02 2.87502E+01
 -1       311-2.00441E+01-1.57889E+01 9.76366E+00 1.83291E+02-1.26428E+00-6.29556E+00
 -1       312-3.74281E+01-6.96569E+01 4.18062E+01 1.17170E+02 1.09778E+01-5.75430E+01
 -1       313-1.97306E+01-1.37391E+02 7.38489E+01 1.71524E+01 1.71284E+01-2.83787E+00
 -1       314-2.09363E+01-5.05211E+01 3.58697E+01-4.48110E+01 1.68832E+00 2.69811E+00
 -1       315-4.67677E+01 5.04954E+01-2.10970E+00-1.12523E+02 5.43318E+00-2.04495E+01
 -1       316-2.95416E+01 2.36117E+01-1.54521E+01-1.81475E+02-2.23145E+01-6.85392E+01
 -1       317 1.52628E+01 1.40412E+01-2.87948E+01-1.83203E+02-3.51571E+01-5.27785E+01
 -1       318 3.61019E+01 1.83705E+01-8.90655E+01-1.19809E+02 2.58831E+01 1.39883E+00
 -1       319 4.35323E+01 7.87967E+01-1.49336E+02-4.69849E+01-4.70075E+01-1.03318E+01
 -1       320 4.28397E+02-2.72230E+02-2.28269E+02 3.12560E+02-2.06233E+02-1.06367E+02
 -1       321 6.44870E+02-1.00707E+02-3.14153E+02 4.80133E+02-1.19915E+02 1.80017E+02
 -1       322 4.81728E+02 3.01467E+02-4.00035E+02 7.56779E+02-6.16905E+01-2.65560E+01
 -1       323 2.40516E+02 3.97872E+02-3.14168E+02 6.87653E+02-7.13762E+01 4.51613E+01
 -1       324 1.37084E+02 3.58830E+02-2.28301E+02 6.07272E+02-1.09401E+01 1.42138E+02
 -1       325 1.07054E+01 1.51640E+02-9.04678E+01 4.35071E+02-7.96810E+01-6.42753E+01
 -1       326-9.10004E+01 5.84465E+00 4.73650E+01 2.24322E+02 1.00963E+02 2.60611E+01
 -1       327-5.73839E+01-3.74581E+01 2.78452E+01-1.77236E+02 6.55006E+01 1.87523E+02
 -1       328 3.09408E+01-1.33717E+02 8.32607E+00-5.39496E+02-1.73492E+02 4.34512E+01
 -1       329-1.17110E+02-2.56141E+01 6.38696E+01 1.65408E+02-6.15370E+01 2.40526E+01
 -1       330-6.98154E+01-7.93395E+01 6.28002E+01 5.56968E+01-1.64442E+00-7.20063E+00
 -1       331-5.35115E+01 2.36243E+01 4.20004E+00 8.02539E+00 2.86020E+00 6.40002E+00
 -1       332 1.56819E+02 6.10515E+02-2.90562E+02 6.66959E+02-2.78052E+02 8.47129E+00
 -1       333-9.72703E+01 5.53108E+02-1.68403E+02 3.91389E+02-8.34881E+01-1.60746E+00
 -1       334-2.84887E+02 2.99201E+01 1.28264E+02 7.31987E+01-7.85575E+01 3.34618E+01
 -1       335-4.70030E+02-5.84111E+01 2.33440E+02-6.89654E+02-1.24992E+02-9.73148E+01
 -1       336 3.23994E+02-6.45007E-05 2.80533E-05-5.65045E+00-1.00718E-04 1.32071E+02
 -1       337 2.33728E+02 3.20950E-01-1.82868E+01-7.91987E+01-1.66578E+01-1.68509E-02
 -1       338-9.72763E+00 1.00543E+01-3.65737E+01-1.37004E+02-6.49292E+00 1.21773E+02
 -1       339-2.52913E+02 2.94453E+01 4.07010E+01-6.30027E+01 1.10646E+01 7.29648E+00
 -1       340-2.56969E+02 1.63100E+01 1.17976E+02 8.90974E+01-8.12239E+00 2.03253E+01
 -1       341-1.83233E+02-2.78086E+01 8.48635E+01 9.58944E+01-3.20907E+00-8.14193E+00
 -1       342-1.02820E+02-3.57449E+01 5.17516E+01 7.18039E+01-2.66755E+00-1.01804E+01
 -1       343-5.20352E+01-3.36578E+01 3.11307E+01 5.59936E+01-1.66647E+01 7.44787E-01
 -1       344-5.08962E+01 2.38189E+00 1.05098E+01 5.79503E+01 1.46176E+01-3.66865E+01
 -1       345-7.41738E+01 4.10375E+02-1.81089E+02 5.96618E+02 3.94686E+01 6.78977E+01
 -1       346-1.47739E+02 4.82127E+02-1.44797E+02 4.98051E+02 1.97485E+02 1.86505E+02
 -1       347-3.75963E+02 5.93917E+02-1.08506E+02-2.85488E+01 1.69380E+02 1.60487E+02
 -1       348-2.86992E+02 1.61618E+02 5.03281E+01-9.52444E+01 6.26255E+01 1.01238E+02
 -1       349-4.51560E+02-7.90290E+01 2.09162E+02-4.12482E+01-9.73493E+00-4.61760E+01
 -1       350-9.05451E+02 7.89006E+01 3.33858E+02-3.39153E+02-1.64505E+01 5.25171E+01
 -1       351-1.19291E+03 2.97023E+02 4.58555E+02-5.66900E+02-1.37430E+02-1.75197E+01
 -1       352-1.13729E+03 2.85974E+02 1.51950E+02 1.88336E+00 1.96884E+01-3.13153E+01
 -1       353-2.39976E+01 3.37831E+01-1.54656E+02 2.67740E+02-6.04328E+01-3.94224E+02
 -1       354 1.01183E+03 1.93384E+01-7.73275E+01 1.24825E+02-6.64601E+01 1.02709E+02
 -1       355 1.31885E+03-1.48075E-04 5.97003E-04 1.72228E+01 4.88814E-04-4.34858E+02
 -1       356 2.35013E+02-4.42198E-05 5.37019E-05-7.09723E+00 9.32411E-05 8.17819E+01
 -1       357-3.44125E+00 1.60207E+01-2.90283E+01-1.29490E+02 5.85796E+00 6.98721E+01
 -1       358-2.01633E+02 2.53141E+01 9.24549E+01 2.52761E+01-5.88414E-01 6.58459E+00
 -1       359-1.18955E+02-2.33671E+01 5.08067E+01 7.02954E+01-1.08272E+00-4.55463E+01
 -1       360 1.94997E+01 8.39216E+01-2.61578E+01 1.55098E+02 1.88007E+01-2.86821E+01
 -1       361 4.65344E+02-6.05196E+01-1.90352E+02-8.20646E+02 2.39046E+02 5.06013E+01
 -1       362-5.33414E+02-5.71456E+00 1.92195E+02 1.66076E+02 1.63518E+02 3.60865E+02
 -1       363-1.24512E+03 4.32416E+02 4.37500E+02-4.03456E+02 1.58286E+01-9.99784E+01
 -1       364 8.20551E+01 5.15301E+01-2.13883E+02 1.07234E+02 4.40009E+01-3.73366E+02
 -1       365 1.17745E+03-8.77501E-05 3.95681E-04 4.11148E+00-4.83279E-04-2.89345E+02
 -1       366 1.45312E+02-9.74347E-07 2.13269E-05-7.05243E+00-8.87829E-05 5.65591E+01
 -1       367 1.09246E+02 2.85375E+00-1.07413E+01-6.81172E+01 1.20556E+01-5.48417E-02
 -1       368-5.30270E+00 1.18924E+01-2.14827E+01-1.20817E+02 3.84648E+00 3.78330E+01
 -1       369-9.91888E+01 4.27490E+00 2.27256E+01-7.20151E+01-4.31294E+00 1.03946E-01
 -1       370-1.26629E+02-4.34520E+00 6.69340E+01-7.50956E+00 6.03584E+00 1.36260E+01
 -1       371-1.38289E+02-2.45306E+01 5.83979E+01 4.29794E+01 8.33599E+00 3.52107E+00
 -1       372-1.12043E+02-2.75588E+01 4.98618E+01 8.33030E+01-1.31840E+01-1.94773E+01
 -1       373 4.48097E+01 3.35349E+01-6.48178E+00 1.57147E+02-1.17377E+01 2.57913E+01
 -1       374 8.86897E+01 7.63212E+01-4.13699E+01 1.27537E+02-3.54889E+01-5.91953E+01
 -1       375 2.85279E+01 8.83274E+00-1.88308E+01 1.81144E+01 2.55327E+00-1.03371E+01
 -1       376 2.88761E+00-7.79211E+00 7.39326E+00-5.96427E+00 5.59143E+00-2.24934E+01
 -1       377 7.99718E+00-5.25720E+00-4.59613E-01-3.21672E-01 3.66992E+00-1.76106E+01
 -1       378 1.39012E+01 3.54934E-01-3.41837E+00 3.41689E+00 4.97009E+00-2.06171E+01
 -1       379 2.18944E+01-5.20510E+00-7.17640E+00-1.08232E+00 3.50616E+00-1.82259E+01
 -1       380 5.79485E+00-1.25653E+01-5.54679E+00-1.22941E+01-7.23882E-01-2.27319E+01
 -1       381 2.03171E+00 4.78442E+00 4.73602E-01 1.96033E+01 4.94405E+00-4.92607E+00
 -1       382-9.91424E+00 1.48402E+01 4.08969E+01 2.11269E+01 4.09308E+00-3.20285E+00
 -1       383 2.25515E+02-3.80237E+01-1.06487E+02-3.89989E+01 2.29662E+01-8.23365E+01
 -1       384 9.11905E+02-3.50951E+02-1.85216E+02-4.46096E+02 1.16856E+02 3.13783E+02
 -1       385 1.01650E+03-3.25637E+02-4.84839E+01-1.81828E+02 1.56865E+02-2.99840E+01
 -1       386-4.97712E+02 1.44563E+02 1.75228E+02 4.57909E+02-1.52356E+02 3.64763E+02
 -1       387-1.52391E+03 2.97547E+02 2.95836E+02 8.75072E+01-9.84578E+01 2.60968E+01
 -1       388-1.17887E+03 4.16291E+02 4.16446E+02-4.94943E+02 1.68843E+02-1.46809E+02
 -1       389-6.12172E+02 2.96041E+02 7.16681E+01-3.04144E+02-7.42763E+01 4.22489E+01
 -1       390 1.85414E+02 1.91152E+02-2.73110E+02-1.66863E+01-2.23758E+01-2.10145E+02
 -1       391 9.17038E+02 6.11508E+01-1.36554E+02 2.28655E+01-8.18137E+01 4.98363E+01
 -1       392 1.11817E+03-9.12197E-04 9.19925E-04-1.34356E+01-2.76494E-05-2.57849E+02
 -1       393 7.60369E+01 2.62973E-06 1.28028E-05-8.79370E+00 1.54714E-04 2.69489E+01
 -1       394-1.18701E+01-3.89800E+00-6.92050E+00-1.26553E+02-9.78765E+00 1.67840E+01
 -1       395-6.32551E+01-2.38024E+01 4.30882E+01-1.45560E+01-8.27876E+00 5.53567E-01
 -1       396-7.18076E+01-2.20810E+01 3.37833E+01 9.41237E+01 2.32659E+01-2.21173E+01
 -1       397 1.16109E+01 1.62819E+01-1.52014E+01 1.83155E+01 1.20687E+00-6.59608E+00
 -1       398 2.60782E+00-2.98404E+00 3.70448E+00 1.89894E-01 6.33366E+00-7.86655E+00
 -1       399 1.31227E+01-5.89798E+00-2.24366E+00 2.37504E+00 3.90542E+00-1.04815E+01
 -1       400 2.09617E+01-9.07549E+00-7.04264E+00 1.24338E+00 4.76769E+00-2.29925E-01
 -1       401-3.08188E+01-1.30676E+01 1.83764E+01-9.12701E+00-7.38198E-01-1.84897E+01
 -1       402 1.06366E+02-1.09394E+02-3.05810E+01-5.79849E+01-6.42770E+01 3.00051E+01
 -1       403-3.40058E+02 2.22686E+02 3.21408E+02-5.20313E+02-2.75194E+01 1.48143E+02
 -1       404 2.60477E+02 5.02955E+02-4.90333E+02-1.59020E+02-4.74866E+01-2.63813E+02
 -1       405 1.19171E+03-1.15137E-03 9.07111E-04-4.41368E+01 6.12343E-04-4.02438E+02
 -1       406 7.38391E-01 1.81599E-04-1.04200E-04-1.19587E+01-1.88713E-06-1.24673E+01
 -1       407-1.56546E+01-5.97899E+00 3.82083E+00-7.72747E+01 3.30713E+01-1.25262E+01
 -1       408-1.97357E+01-3.53699E+01 7.64177E+00-1.32219E+02-2.33364E+00 1.40427E+01
 -1       409 1.01451E+01-3.94850E+01 1.34421E+01-8.57559E+01 4.74596E+00 9.19396E+00
 -1       410 8.34886E+00-4.66596E+01 1.92424E+01-2.81467E+01-9.11456E+00-1.63155E+01
 -1       411-2.12067E+01-2.41002E+01 1.84735E+01 3.57251E+01-9.77469E+00 1.79373E+01
 -1       412-1.20319E+01-1.46740E+01 1.77046E+01 8.89138E+01 2.74440E-01 6.84529E+00
 -1       413-7.94871E+00-8.40395E+00 1.15023E+01-7.19408E+00 1.35291E+01-2.37962E+00
 -1       414 5.29296E+00-8.92248E+00 6.32696E+00-1.21370E+00 1.58532E+01-1.22793E-01
 -1       415 1.17600E+01-3.76044E+00-4.21800E+00 4.99690E+00 1.12497E+01-1.23022E+01
 -1       416 9.11594E+00-7.60651E+00-2.40423E+00 1.90744E+00 1.35946E+01-4.47485E+00
 -1       417 1.49674E+01-1.03692E+01-2.46926E+00 2.36491E+00 1.46773E+01-6.65801E+00
 -1       418 1.80407E+01-9.75989E+00 1.28495E-02 5.43060E+00 1.50913E+01-2.82907E+00
 -1       419 1.62929E+01-9.04062E+00 7.92398E-01 7.19921E+00 1.71314E+01-2.27289E+00
 -1       420 7.05900E+00-1.33087E+01-5.46529E+00-3.86921E+00 2.13240E+01 6.08448E+00
 -1       421 4.08929E+01-1.92334E+01-1.98495E+01-1.52536E+00 2.54554E+01 2.63321E+01
 -1       422 2.16438E+01 8.60576E+00 1.89767E+01 2.91516E+01 6.05232E+00-1.42483E+01
 -1       423-3.75843E+01 2.52490E+00 3.09098E+01 6.39228E+00 2.80835E+01-7.52863E+00
 -1       424-1.75579E+02 5.19899E+01 2.26368E+02-2.24887E+02 1.41120E+02-2.47771E+02
 -1       425-2.83724E+02 3.12264E+02-2.40594E+02-9.66806E+01 5.37484E+01 1.61191E+01
 -1       426 4.17705E+02 1.40687E+03-7.07556E+02-6.12712E+02 3.60148E+02 2.27801E+02
 -1       427 1.11101E+03 4.65340E+02-3.53776E+02-5.89534E+02-6.13432E+02-1.52107E+02
 -1       428 1.39952E+03-5.13888E-03 4.91807E-03-1.22313E+02-4.49179E-03-1.18542E+03
 -1       429-1.36315E+02 2.57093E-04-1.04560E-04-6.87188E+00 2.09454E-07-2.85116E+01
 -1       430 1.71498E+01-9.72829E+01 5.65191E+01-1.63047E+02 9.48420E+00-3.86920E+01
 -1       431 4.11471E+01-5.09486E+01-3.23982E+01-3.32990E+01 1.77170E+01 3.80002E+01
 -1       432 8.03301E-01-1.18313E+01 3.68043E+00-2.59059E+00 1.21112E+01-3.86244E+00
 -1       433 7.80324E+00-1.30077E+01 8.20263E-01-6.93479E-01 8.05920E+00-8.84014E+00
 -1       434 1.58393E+01-1.39826E+01-5.59371E-01 1.01593E+00 8.13144E+00-6.93076E+00
 -1       435 1.78400E+01-1.88096E+01 3.67741E-01 3.75399E+00 8.84868E+00-7.57544E-02
 -1       436 3.27626E+01-7.29354E+00-3.24048E+00 7.36071E+00 1.34689E+01 1.92161E+01
 -1       437-5.20339E+01 7.54773E+00 3.38945E+01 4.98788E+00 4.61300E+01 2.14523E+01
 -1       438 1.54101E+03 3.24766E+03-2.29989E+03-3.69339E+03 4.03093E+02-1.59993E+03
 -1       439 3.38128E+03-8.36878E-03 4.25478E-03-1.20738E+02 7.05336E-04-3.82140E+01
 -1       440-2.94538E+02-1.16222E-04-3.19162E-04-1.08190E+01 8.99603E-05-1.57204E+02
 -1       441-1.78251E+02-6.06286E+01 5.26980E+01-1.71222E+02-5.74321E+00 1.81575E+01
 -1       442 2.35836E+01-1.40272E+02 1.05396E+02-2.60754E+02-2.10663E+01-4.95574E+01
 -1       443 1.47537E+02-6.46628E+01 1.06788E+01-5.76388E+01-1.39374E+01 2.75771E+00
 -1       444 1.00394E+02-2.28602E+01-8.40386E+01-2.51990E+00-1.07529E+01 3.75502E+00
 -1       445 1.27600E+01-1.53587E+01-5.25454E-01-2.19932E-02 2.15607E+01-2.17193E+00
 -1       446 6.89074E+00-1.54515E+01 1.17321E+00-2.03969E+00 1.28933E+01-3.50148E+00
 -1       447 4.76279E+00-1.59146E+01 4.80408E+00-1.55328E+00 1.30165E+01-7.04333E+00
 -1       448 1.21810E+01-1.80689E+01 2.69514E+00-2.47963E-01 1.35871E+01-2.00034E+00
 -1       449 1.70543E+01-2.13133E+01 1.77559E+00-1.13880E+00 1.36013E+01-6.47110E+00
 -1       450 2.06027E+01-2.14357E+01 3.24480E-01-9.17315E-01 1.72440E+01-1.30913E+00
 -1       451 1.77842E+01-2.29191E+01-4.82960E-01 1.41696E+00 1.85412E+01 1.35519E+00
 -1       452 1.36216E+01-2.85542E+01 7.75827E+00 1.16049E+01 1.91483E+01 1.07793E+01
 -1       453 3.82697E+01-3.82508E+01 1.59863E+01 5.00267E+00 2.29245E+01 1.76574E+01
 -1       454 1.39893E+01-5.99548E+00-1.11859E+01 1.73876E+00 4.79307E+01-2.88093E+00
 -1       455-3.39438E+01-3.99614E+01 1.16652E+01 5.11004E+01 6.24184E+01 1.96193E+01
 -1       456 3.22461E+03 2.83634E+03-3.89222E+03-7.02113E+03 1.14031E+03-1.21531E+03
 -1       457 4.77636E+03 1.18554E+03-1.94611E+03-3.65224E+03 3.84436E+02 4.13139E+02
 -1       458 6.32811E+03 1.39452E-03 5.13460E-03-2.22365E+02 4.60475E-04-2.45617E+03
 -1       459-4.97602E+02 5.03120E-05-3.72936E-04-3.64268E+01 5.62133E-04-6.27690E+01
 -1       460-3.58003E+02-3.12970E+01 2.01588E+02-4.41958E+02-1.63881E+02-1.34379E+02
 -1       461-3.31440E+00-1.43331E+01 8.10222E+00 2.17665E+00 9.64213E+00-2.02423E+00
 -1       462 1.10099E+01-1.70634E+01 2.64132E+00-1.58846E+00 4.94029E+00-7.90053E+00
 -1       463 1.45356E+01-2.54146E+01 3.42545E+00-2.92439E+00 7.30400E+00-9.08117E+00
 -1       464 2.98586E+01-2.78258E+01 2.21224E+00-3.56143E+00 1.30217E+00 6.07167E+00
 -1       465-1.93520E+01-6.64972E+01 3.13602E+00 3.91647E+01 2.89782E+01 6.48721E+00
 -1       466 1.08109E+02-1.27441E+02-1.23500E+01-1.84980E+01 1.06619E+02-2.77820E+00
 -1       467 8.15050E+03-3.80188E+02-4.69739E+03-8.19759E+03 2.99347E+03-2.53927E+03
 -1       468 1.04786E+04 1.62244E-03 8.69014E-03-7.22995E+02-1.04593E-02-1.38126E+03
 -1       469-7.28723E+02 7.74240E-05-1.52385E-04-3.13654E+01-7.73114E-05-3.43908E+01
 -1       470-7.05410E+02 6.41370E+01 1.48889E+02-2.06853E+02-2.27213E+01 2.27513E+00
 -1       471-6.30302E+02 1.95281E+02 2.97779E+02-2.91257E+02-2.27430E+01-1.18707E+02
 -1       472-3.90169E+02 2.35759E+02 8.62614E+01 8.44086E+01-9.16248E+01-3.33893E+01
 -1       473-2.53629E+02 2.58983E+02-1.25257E+02 3.03119E+02-2.36082E+01-1.63665E+02
 -1       474-2.43976E+01-2.41546E+01 1.94374E+01-1.65012E+01 2.26658E+00-8.22041E+00
 -1       475-9.22323E-01-1.94188E+01 1.16451E+01-2.94888E+00 3.07876E+00 2.17687E+00
 -1       476 1.42131E+01-2.33764E+01 1.07832E+00-2.23758E+00 1.08872E+00-8.61073E+00
 -1       477 1.02830E+01-2.18021E+01 4.05689E+00-7.68732E+00 2.38177E+00-3.75636E+00
 -1       478 1.32654E+01-2.15996E+01 5.09197E+00-6.95768E+00 3.01032E+00-1.01214E+01
 -1       479 1.86966E+01-3.55674E+01 4.45487E+00-4.13613E+00-1.73602E+00 4.94154E+00
 -1       480 3.67792E+01-4.50646E+01 3.95134E+00-4.44503E+00-1.65714E+00 5.89814E+00
 -1       481 4.38488E+01-3.64207E+01-3.07990E+00-1.52849E+01 2.19549E+01-1.84561E+00
 -1       482-4.99128E+01 4.47926E+00 1.56415E+00 5.26765E+01 6.04623E+01 1.59263E+01
 -1       483 8.93300E+01-9.44361E+01 2.07660E+00-1.42006E+01 7.75770E+00 2.96878E+01
 -1       484 3.18164E+02 1.29864E+02-1.16503E+02-2.73340E+02 2.39024E+02-1.13089E+02
 -1       485 4.52585E+03-5.92409E+03 2.85917E+03 5.24250E+03 1.16575E+03-3.16398E+03
 -1       486 7.61202E+03-5.43473E+03-1.32170E+03 2.30079E+03 2.16074E+03-4.98707E+02
 -1       487 1.26382E+04-4.84193E+03-5.50256E+03-4.42270E+03 4.24587E+02-2.97946E+03
 -1       488 1.43846E+04-1.56044E+03-2.75128E+03-3.53200E+03 4.72955E+02 2.82072E+02
 -1       489 1.51609E+04 7.57442E-04 5.25311E-03-6.25550E+02 1.45699E-04-6.06127E+02
 -1       490-9.02182E+02-4.83723E-04-4.47949E-04-1.44394E+01 3.94747E-04-2.48349E+02
 -1       491-4.62915E+02 1.96851E+02 2.42136E+02-9.29411E+01 6.25824E+00-1.49939E+02
 -1       492 2.76959E+01 3.66403E+02-2.38454E+02 4.18624E+02 1.30492E+02-8.48106E+01
 -1       493 4.27392E+01-2.15872E+01-1.41523E+01 5.05431E+00-7.71211E-01 8.91988E+00
 -1       494-8.60953E+00-2.24426E+01 1.32244E+01-1.23399E+01 7.97366E+00-3.35957E-01
 -1       495 1.73297E+01-1.35924E+01-2.07640E+00-1.66661E+01-8.01626E+00-1.23007E+01
 -1       496 2.27939E+01-5.23273E+01 8.84881E+00-1.21253E+00 6.52872E+00-1.82740E+01
 -1       497 1.66595E+02 1.07318E+02-3.33823E+01-1.58031E+02-1.11226E+02 1.06740E+02
 -1       498-3.77479E+02 1.40409E+02 1.69140E+02 2.73021E+02-5.74486E+00 8.80760E+01
 -1       499 7.37553E+02-8.78554E+03 4.61958E+03 7.62377E+03-2.68354E+03-1.75626E+03
 -1       500 9.41349E+03-4.79881E+03-4.43064E+03 1.00978E+02-4.64135E+01-2.63277E+03
 -1       501 1.74177E+04 1.16883E-02 8.19664E-03-1.98200E+02-6.09003E-03-4.99846E+03
 -1       502-1.01143E+03-3.09848E-04-4.71869E-04-1.01079E+01 5.34611E-05-2.16085E+02
 -1       503-8.03655E+02 3.55163E+01 9.32457E+01-5.95206E+00 3.99906E+01 4.60660E+01
 -1       504-2.83680E+02 1.15405E+02 1.86492E+02 3.64643E+01 1.04983E+01-2.43245E+02
 -1       505 1.74411E+02 1.68515E+02-8.25794E+01 3.03694E+02-9.30528E-01 3.54061E+01
 -1       506 5.80026E+02 1.25239E+02-3.51651E+02 5.50428E+02 3.38430E+00-3.10902E+01
 -1       507 8.08464E+02-5.94715E+01-2.75767E+02 5.56386E+02 7.21447E+01-2.65131E+02
 -1       508 5.17455E+02-2.06379E+02-1.99883E+02 6.77506E+02 1.49449E+02 8.73402E+01
 -1       509 7.56168E+01-2.32621E+01-3.27632E+01-2.07649E+01-3.53288E+01-1.05146E+01
 -1       510-1.20394E+01-3.12755E+01-1.35345E+01-3.31505E+01-2.42654E+01-2.55587E+01
 -1       511-4.61308E+01 9.78634E+00 2.49630E+01 4.92327E+00-5.07422E+00 1.46861E+01
 -1       512 1.16804E+01-1.94206E+01 4.79511E+00 4.54311E+00-1.21388E+01 2.29470E+00
 -1       513 2.64431E+01-4.93990E+01-5.80165E+00-2.02209E+01-2.11992E+01-2.25079E+01
 -1       514 4.39132E+01 1.81053E+01-2.02445E+00-5.54167E+01-8.30494E+00-2.61152E+01
 -1       515-1.92553E+01 5.83282E+01-4.84557E+00-6.81446E+01-1.53950E+01-5.22256E+01
 -1       516-1.00715E+02-1.87012E+02 5.64074E+01 1.35321E+02-1.17136E+02 1.09351E+02
 -1       517 5.18653E+02-5.88604E+02 3.58210E+01-4.22940E+01-2.79310E+02 2.35553E+02
 -1       518 2.04375E+02 6.01239E+02-8.26239E+01-3.99663E+02 4.32049E+02-2.48595E+02
 -1       519-7.40651E+02 2.80506E+02-9.47235E+01 1.01700E+02 2.01244E+02-5.41918E+01
 -1       520-7.72460E+03 2.25451E+03 3.38449E+03 1.08814E+04-1.67928E+03 1.10541E+03
 -1       521-1.18481E+04-1.02740E+03 4.88223E+03 1.04439E+04-6.55794E+02-4.57291E+03
 -1       522-7.24822E+03-5.39944E+03 6.37998E+03 1.11475E+04 2.27281E+02-7.55198E+02
 -1       523-8.87146E+02-5.16648E+03 1.51064E+03 7.25493E+03-1.67846E+02 4.47515E+02
 -1       524 5.96810E+03-3.08862E+03-3.35871E+03 3.28353E+03-5.62280E+01-4.17802E+03
 -1       525 1.44615E+04-9.42134E+02-1.67935E+03 1.42820E+03-5.23953E+02 8.75129E+02
 -1       526 1.80990E+04 9.11618E-03 7.35355E-03-4.02975E+01-3.73468E-03-3.35377E+03
 -1       527-9.98021E+02-1.00216E-04-3.31488E-04 2.05429E-01-5.07849E-04-3.00080E+02
 -1       528-1.53306E+02 4.44773E+01 1.79184E+02 6.16043E+01-1.03676E+01-2.02217E+02
 -1       529 7.67169E+02-4.72284E+01-3.78522E+02 4.48388E+02 4.79466E+01-7.77091E+01
 -1       530 7.90513E+02-4.04447E+02-1.58802E+02 6.16589E+02 1.77037E+02 2.88403E+02
 -1       531-1.22847E+02 1.00955E+02 2.76678E+01 8.14983E+01-1.14884E+02 3.84612E+01
 -1       532 4.59869E+01-1.33204E+00-2.17010E+01 1.15958E+01-1.25670E+01-4.25338E+01
 -1       533-1.61641E+01-3.35999E+00 9.95210E+00-4.47276E+00 7.01054E+00-4.18198E+01
 -1       534 6.96477E+01-9.71383E+01 2.13920E+01 8.99383E-01-3.80636E+01-1.84155E+01
 -1       535-5.54515E+02-2.27713E+02 1.57994E+01 4.06428E+02 2.83835E+02-4.04002E+02
 -1       536 1.39641E+03-3.56785E+03 8.98715E+02 7.39494E+01 1.67207E+03 4.42704E+02
 -1       537-1.06437E+04 4.40154E+03 2.53465E+03 9.46832E+03-3.14961E+03 4.02761E+03
 -1       538-9.65381E+03-1.75383E+03 5.87338E+03 9.76129E+03-8.04521E+02-1.27855E+03
 -1       539 3.64061E+03-1.96384E+03-2.72113E+03 4.80389E+03-5.48969E+01-2.80613E+03
 -1       540 1.56365E+04 4.55416E-03 5.03406E-03 2.14931E+02 1.43890E-02-4.91430E+03
 -1       541-9.71702E+02-1.02971E-04-2.30659E-04 5.54606E-01 4.33045E-04-3.05844E+02
 -1       542-7.39415E+02-1.03057E+01 8.59373E+01 4.22546E+01 2.67744E+01 5.47045E+01
 -1       543-5.54646E+01-3.56154E+01 1.71875E+02 8.24865E+01 1.03525E+01-2.63525E+02
 -1       544 5.43648E+02-4.66122E+01-1.16759E+02 2.01616E+02-6.85236E+00 4.51756E+01
 -1       545 8.53818E+02-8.06473E+01-4.05393E+02 3.61104E+02 9.48979E+01-6.49080E+01
 -1       546 1.10841E+03-2.81528E+02-2.61557E+02 2.96750E+02-7.72859E+00-4.75984E+01
 -1       547 9.33326E+02-5.74303E+02-1.17721E+02-1.77847E+01 3.29010E+00 2.64358E+02
 -1       548-7.17871E+02 1.37882E+02 7.01116E+01-1.28983E+02 1.64190E+02 1.30617E+02
 -1       549-1.00869E+03 3.78500E+02 1.61700E+02 3.35504E+02 4.06312E+01 4.60107E+02
 -1       550-2.66856E+02 3.83035E+01 1.13825E+02 5.35538E+01 4.21340E+00-9.08643E+01
 -1       551 1.78760E+01-3.93282E+01-2.84756E+01-1.69804E+01-2.45609E-01-3.74004E+01
 -1       552-2.06873E+00 2.06333E+01-1.15019E+01-3.22542E+01-1.71207E+01-5.13913E+01
 -1       553 3.79368E+01 8.05257E+01-2.90605E+01-2.24634E+01-3.71676E+01-1.00821E+02
 -1       554 9.06558E+01-1.05803E+02 2.32455E+01 4.63799E+00-5.80110E+00-1.53252E+02
 -1       555-1.33725E+02-3.60375E+02 1.39733E+02 2.66181E+02 1.08840E+02-2.89988E+02
 -1       556-1.39473E+02 4.41340E+02-1.87351E+02-2.46743E+02-1.06471E+02-8.04340E+01
 -1       557-2.51378E+02 8.53927E+02-2.54568E+01-3.76408E+00 7.63238E+01-3.18552E+02
 -1       558 3.20593E+03-1.56322E+03-6.51862E+02-3.70094E+02-4.70715E+02-1.74812E+03
 -1       559 1.17814E+04-1.30363E+04 2.77471E+02-1.30991E+03-4.96803E+03 4.20158E+03
 -1       560 6.61633E+03-6.13367E+03 1.05088E+03-7.71489E+03-3.38539E+03 2.28524E+03
 -1       561-1.29563E+04 8.80638E+03 1.68482E+03-1.72134E+02-9.48031E+02 3.83586E+03
 -1       562-1.37974E+04 3.29072E+03 3.52579E+03 6.02095E+03 3.24084E+02-9.81112E+02
 -1       563-1.00301E+04-7.14415E+02 5.36677E+03 8.33985E+03-2.19646E+03-7.33063E+02
 -1       564-5.57954E+03-1.18119E+03 1.64161E+03 7.08591E+03-1.50941E+02 1.06457E+03
 -1       565 1.76654E+03-8.07966E+02-2.08354E+03 6.26266E+03-2.68139E+02-3.59701E+03
 -1       566 9.67765E+03-2.96567E+02-1.04177E+03 3.50621E+03-1.64436E+02 8.67810E+02
 -1       567 1.25377E+04 3.74844E-03 2.87625E-03 3.47076E+02-1.17303E-02-3.41420E+03
 -1       568-9.33847E+02 1.43074E-04-2.42906E-04 6.55127E+00-3.53892E-04-2.61389E+02
 -1       569-8.10387E+00-4.25144E+01 1.31301E+02 1.46672E+01 1.58250E+01-2.87030E+02
 -1       570 8.99308E+02-2.22981E+02-3.76160E+02 3.23723E+02-5.22059E+01-8.75592E+01
 -1       571 5.44285E+02-3.08520E+02-8.80107E+01-1.22919E+02 1.42728E+02 2.96722E+02
 -1       572-5.58967E+02 7.85804E+01 1.80860E+02 5.26062E+02 7.92246E+01 1.82279E+02
 -1       573 6.32802E+03-7.44143E+03-1.05094E+03 3.95540E+03-1.44338E+03 2.91172E+03
 -1       574-6.17993E+03 5.31213E+03 4.01502E+02-1.72649E+03-3.08816E+03 2.74541E+03
 -1       575-8.52854E+03 1.55092E+03 3.77271E+03 6.37292E+03 1.10935E+03-1.32835E+03
 -1       576 4.37311E+02-3.83973E+02-1.07322E+03 5.90525E+03-6.34648E+01-2.55660E+03
 -1       577 8.11975E+03 4.54903E-04 1.98544E-03 4.95570E+02 1.28590E-02-1.65817E+03
 -1       578-9.28036E+02 2.56386E-04-3.80824E-04 2.08816E+01 1.83459E-04-2.67675E+02
 -1       579-7.23146E+02 1.62026E+01 4.53632E+01-9.01511E+00-7.90547E+01 5.29639E+01
 -1       580 2.39737E+01-9.17951E+00 9.07271E+01-6.41133E+01-1.07665E+01-2.90005E+02
 -1       581 8.61417E+02-1.73175E+02-1.28100E+02 4.98988E+01 4.47669E+01 4.27918E+01
 -1       582 9.36000E+02-2.42118E+02-3.46927E+02 3.83891E+02-1.52144E+01 1.59953E+01
 -1       583 6.59091E+02-1.20493E+02-2.02613E+02 2.10906E+02-3.78283E+01-3.84792E+01
 -1       584 2.11960E+02-7.14017E+01-5.83005E+01-3.63510E+01-2.51760E+01-3.76600E+01
 -1       585 2.01941E+02-2.43372E+02 2.27373E+01-2.75547E+01 3.69695E+01 2.12992E+02
 -1       586 3.81845E+02-5.65039E+02 1.03775E+02-7.89621E+01 1.49539E+02 8.84404E+01
 -1       587 9.83433E+01-3.87405E+02 1.36120E+02-4.43676E+02 1.70666E+02 1.28588E+02
 -1       588-3.93011E+00-3.26062E+02 1.68465E+02-4.03080E+02-1.75134E+01 7.61493E+01
 -1       589-1.32842E+03 7.24684E+03-3.09004E+03-9.22892E+03-2.87914E+02 2.07887E+03
 -1       590-4.26433E+03 1.07193E+04-2.80442E+03-9.93768E+03-4.14495E+03 2.63924E+03
 -1       591-8.13874E+03 1.42325E+04-2.51881E+03-1.51333E+03-3.76802E+03 6.71112E+02
 -1       592-3.87555E+03 8.21285E+03-1.70031E+03-1.51027E+02-3.33672E+03 3.26758E+03
 -1       593-1.50194E+03 3.73799E+03-8.81812E+02-1.17569E+03 4.43160E+02-6.31155E+02
 -1       594-5.46440E+03 3.20743E+03 6.48416E+02 2.07767E+03 1.83423E+02-9.93175E+02
 -1       595-7.37510E+03 2.87586E+03 2.17865E+03 5.05910E+03-3.44684E+02 9.43048E+02
 -1       596-6.21535E+03 1.24622E+03 1.05787E+03 4.81076E+03-7.20966E+02 1.48194E+03
 -1       597-3.16797E+02-6.23481E+02-6.29017E+01 5.21654E+03-9.34650E+01-4.75438E+02
 -1       598 3.94990E+03-3.94185E+02-3.14451E+01 3.48581E+03 5.80273E+02 1.06522E+03
 -1       599 4.09191E+03-3.59238E-04 5.41971E-03 7.03944E+02-1.00443E-02 8.43006E+02
 -1       600 3.47916E+02 1.42143E+01-1.63409E+02 4.64589E+02-6.49024E+01-2.69518E+01
 -1       601 1.53775E+02-1.25761E+02-1.98118E+01-1.43673E+02-5.79272E+01 5.95761E+00
 -1       602 9.94103E+01-5.03105E+02 1.41347E+02-3.70810E+02-3.37342E+01-6.25185E+01
 -1       603-2.44782E+01-4.79411E+02 1.73981E+02-4.43303E+02-1.72694E+02-4.68603E+00
 -1       604-1.00869E+03 1.10034E+04-3.54887E+03-7.83195E+03 3.56122E+03 5.50443E+02
 -1       605-3.30020E+03 1.54760E+04-3.94737E+03-6.19675E+03 6.06162E+02-8.26735E+02
 -1       606-1.75250E+03 8.91774E+03-2.73151E+03-4.41789E+03 7.26906E+02-3.73676E+02
 -1       607-2.29252E+03 3.12220E+02 9.59334E+02 2.13372E+03-1.26487E+03 3.26868E+02
 -1       608-1.01644E+02 9.46420E+01 2.01086E+01 3.28800E+02-1.40612E+02-2.63663E+01
 -1       609-1.05353E+01-3.76060E+01 1.93931E+01 1.63114E+01 3.18265E+01 1.20203E+02
 -1       610 8.59881E+01-1.44766E+02 1.86770E+01-2.57225E+02 4.11662E+01 3.27362E+01
 -1       611-1.09174E+01-1.89760E+02 9.87980E+01-3.71652E+02-5.81333E+01-6.59055E+01
 -1       612-1.11661E+02-2.58967E+02 1.78919E+02-4.81025E+02-1.57073E+00 6.39271E+01
 -1       613-2.77896E+01-3.32276E+02 1.79208E+02-5.18295E+02-1.06816E+02 9.37430E+01
 -1       614 5.72122E+01-4.21944E+02 1.79497E+02-5.80785E+02-1.33683E+02-7.75947E+01
 -1       615-2.97423E+03 1.10573E+04-4.00770E+03-8.56368E+03 2.12501E+03-1.04971E+03
 -1       616-1.44484E+03 1.04055E+04-4.69182E+03-7.55984E+03 1.98111E+03 1.52283E+03
 -1       617-5.55629E+01 1.04529E+04-5.37593E+03-6.94800E+03 5.61032E+02 9.50559E+02
 -1       618-2.18145E+03 1.14675E+04-4.97858E+03-6.29415E+03 1.29017E+03-1.02110E+03
 -1       619-2.98798E+03 1.23887E+04-4.58122E+03-6.70969E+03-7.90981E+01-1.81453E+01
 -1       620 7.48125E+02 4.76306E+03-2.42061E+03-6.06449E+03 2.66634E+02-2.89145E+02
 -1       621 2.12575E+03-1.40577E+03-2.59989E+02-2.46493E+03 1.41171E+03-1.56733E+03
 -1       622 7.38917E-01-6.09841E+01 2.19279E+01-3.33528E+02 1.13792E+02 3.58395E+01
 -1       623-1.07631E+02-8.76940E+01 5.79840E+01-4.39440E+02-1.95239E+01 3.60571E+01
 -1       624-1.50881E+02 1.07699E+02 1.58024E+01-5.58115E+02-1.15770E+02-3.45321E+01
 -1       625 5.78300E+02 8.45899E+02 9.67439E+00-7.55120E+03 9.38387E+02-8.44888E+02
 -1       626 5.29722E+01 6.15142E+03-1.70313E+03-4.58261E+03 3.65550E+02 2.66284E+02
 -1       627-1.90034E+03 1.07327E+04-1.66469E+03-2.27206E+03-1.36744E+03 8.33794E+02
 -1       628-6.72078E+01 3.15120E+01 2.51790E+01-4.04567E+02 7.24112E+01 1.89763E+01
 -1       629-5.49506E+01 3.65541E+01-1.88861E+01-4.09062E+02-4.47085E+01-1.49924E+00
 -1       630-1.07388E+02 7.56892E+01-6.29514E+01-4.10794E+02-1.43581E+02 4.99320E+00
 -1       631-2.79321E+02 3.01576E+02-1.05422E+02-3.30623E+02-9.54826E+01 1.98253E+01
 -1       632-6.04112E+02 5.92728E+02-1.47892E+02-7.58809E+01-2.81846E+02-8.21285E+01
 -1       633-1.02876E+03 2.53393E+02 2.00714E+02 1.03101E+03 2.63982E+00-1.88440E+02
 -1       634-1.56437E+03-4.73541E+02 5.49322E+02 1.98525E+03-5.36463E+02-6.87379E+02
 -1       635-2.54250E+03-1.39626E+03 2.01868E+03 4.16728E+03 1.37738E+03-6.18392E+02
 -1       636-1.94550E+03-3.12700E+03 3.48804E+03 6.69274E+03 1.39782E+03-1.06216E+03
 -1       637 1.91807E+03-7.29228E+03 3.75754E+03 6.59245E+03 2.23939E+03-2.65207E+03
 -1       638 4.75744E+03-9.67374E+03 4.02705E+03 6.00873E+02 4.62901E+03-7.59080E+02
 -1       639 3.18710E+03-4.51108E+03 2.99837E+03-2.18330E+03 2.94999E+03 4.36567E+01
 -1       640 5.13100E+02-7.94225E+02 1.96968E+03-2.62717E+03 3.60810E+03 5.17384E+00
 -1       641-7.37051E+01-4.06611E+02 1.61076E+03-1.87946E+03 3.54639E+03 2.35533E+02
 -1       642 4.40706E+02-3.21115E+02 1.25184E+03-1.04185E+03 3.50023E+03-4.56712E+01
 -1       643-3.66645E+01-2.53462E+01 1.25897E+01-2.74049E+02 3.55923E+01-1.66931E+01
 -1       644-3.43750E+01 3.70659E+02-3.14756E+01-2.28971E+02 6.45544E+01 2.58685E+01
 -1       645-2.39158E+02 6.77392E+02-7.39464E+01 7.69064E+01 1.65914E+01 1.29094E+02
 -1       646-3.90045E+02-4.64829E+02 2.74659E+02 1.16997E+03 1.66996E+02 4.79268E+02
 -1       647-9.93591E+02-4.63604E+03 1.74402E+03 3.53238E+03-5.32165E+02-5.81962E+02
 -1       648 1.81665E+03-1.26121E+04 2.01352E+03 1.96439E+03-6.47448E+02-5.28816E+01
 -1       649 1.47452E+02-1.07321E+04 9.84838E+02-1.37918E+03-1.16792E+03 6.47258E+02
 -1       650 4.92020E+02-8.85922E+03 6.25913E+02-1.28845E+03-6.71592E+02-1.06960E+03
 -1       651 5.05107E-05-1.32511E+02 1.84725E-04-5.26169E+01 1.99272E+02 5.28924E-04
 -1       652 9.21755E-05 1.93337E+02 3.49391E-05-3.42865E+01-1.35045E+01-6.85669E-04
 -1       653 5.72151E-04 5.22290E+02 1.12274E-04-1.90208E+01-1.27523E+02 5.62261E-04
 -1       654 6.45939E-04 6.34181E+02 1.95030E-04-4.29334E+00-2.06436E+02-6.09552E-04
 -1       655 1.37334E-03 6.78953E+02-7.52815E-04 3.72414E+01 6.55917E+01 1.30077E-03
 -1       656 2.50080E-03 2.63668E+02-3.71320E-04 1.02865E+02-1.37887E+02 3.16618E-04
 -1       657 5.27052E-03-4.56117E+02-3.95775E-03 1.65870E+02 8.45194E+02 2.76777E-03
 -1       658 6.53600E-03-2.89658E+03-3.73455E-03 1.56085E+02-1.69515E+01 6.90868E-04
 -1       659-5.03880E-03-6.14507E+03-3.30372E-03 2.54324E+02 1.91178E+03-4.63043E-04
 -1       660-5.50992E-03-9.73423E+03-6.95143E-03 7.62186E+02 2.12218E+03 8.12005E-03
 -1       661 1.02868E-03-1.35450E+04-4.04281E-03 5.61442E+02 9.72698E+02 9.62461E-03
 -1       662-7.41384E-03-1.43737E+04-5.54695E-03 5.79261E+01 4.57886E+03-5.68124E-03
 -1       663-6.76526E-03-1.46029E+04-5.40173E-03-5.24041E+01 4.23506E+03 6.81926E-03
 -1       664 9.78079E-04-1.24983E+04-2.97989E-03-2.41337E+02 3.29962E+03-7.07879E-03
 -1       665 2.72667E-03-1.06801E+04-4.19994E-03-5.58875E+02 2.23866E+03 4.32951E-03
 -1       666 7.68274E-14 1.23976E-09 3.09452E-12 2.42364E-10 1.20648E+02 2.11940E-04
 -1       667-1.52656E-14 4.62617E-10-3.06533E-13-3.31202E-12 1.92214E+00 2.30357E-04
 -1       668-4.29656E-14 5.28004E-11 1.38556E-12 3.15605E-11-6.61082E+01 4.16085E-04
 -1       669-4.39648E-14-1.98607E-10-7.99361E-13 1.03267E-10-2.14954E+02-3.24975E-04
 -1       670 2.66454E-14-5.24309E-11 1.07843E-11 1.16353E-10-4.86629E+01 1.47989E-05
 -1       671-4.70735E-14 1.03521E-10-2.24238E-11 5.53531E-11-1.76333E+02 9.85612E-05
 -1       672 5.28466E-14 1.50358E-10-2.03886E-11 8.97060E-12-1.11568E+02-9.89159E-04
 -1       673 2.63789E-13 2.17269E-10 1.58162E-11-2.31779E-11 3.22480E+02-1.06959E-03
 -1       674-3.60494E-10 1.31579E-09-8.35901E-11-8.64313E-11 1.03639E+02-1.14415E+01
 -1       675-1.55447E-10 4.97093E-10-1.26811E-10 6.92499E-11-1.06381E+01 4.76916E+00
 -1       676-3.65790E-11 4.34991E-11 2.86215E-12 1.97248E-10-2.29312E+01-4.41740E+00
 -1       677-1.76408E-10-1.98350E-10 1.47145E-10 2.18858E-10-1.13299E+02-1.80733E+01
 -1       678-3.36501E-11 4.63676E-11 1.48527E-10 4.10706E-11-2.18758E+02-2.37925E+01
 -1       679-4.05027E-11 1.91635E-10-1.46088E-11 6.79261E-11-2.58972E+02-7.32833E+00
 -1       680-7.58220E-11 2.23339E-10 1.87917E-11-7.19034E-11-1.68840E+02 2.10983E+01
 -1       681-8.83884E-11 1.76328E-10-3.65584E-11 1.39835E-11 1.96996E+02 2.18530E+01
 -1       682-2.32198E-10-1.30459E-10 6.58467E-10 9.89484E-11 1.06873E+00-4.91419E+00
 -1       683-7.34369E-10 5.57437E-10 1.65906E-10 3.16692E-10 1.75636E+01-3.46950E+00
 -1       684-5.88190E-10 9.80198E-10-5.55602E-11-5.54460E-12 5.28787E+00-2.17336E+01
 -1       685-3.38595E-10-3.64400E-11 1.77994E-10 1.87139E-10-3.73101E+01-5.43661E+01
 -1       686 7.97451E-11-1.31397E-11-3.51843E-10-4.44160E-11-5.51292E+01-1.29309E+01
 -1       687 4.65405E-11-6.34643E-11-2.96225E-10-9.68754E-11-2.19803E+02-1.10073E+02
 -1       688 1.69877E-10 2.50216E-10-2.77525E-10 2.26353E-10-6.87854E+01-2.53207E+01
 -1       689-2.36792E-10 3.81433E-10 3.58384E-11 6.92690E-11-1.30045E+01 1.46964E+02
 -1       690-1.06600E-10 5.03501E-12-1.72756E-10-1.93056E-10 1.04112E+02 2.97451E+01
 -1       691-4.48637E-11 4.77995E-11-3.45331E-10-1.70388E-11-1.63785E+02 4.26114E+01
 -1       692 1.16806E-09 1.35447E-14 5.79536E-13 2.68050E-10 2.95415E-05 1.31285E+02
 -1       693 1.21192E-09-3.18080E-10-3.22455E-10-7.73678E-11-6.16755E+00 1.23047E+02
 -1       694 6.37456E-10-7.57226E-10 2.54048E-10 1.67083E-10-8.07852E+00 2.04844E+01
 -1       695 5.42609E-10 4.83787E-10-4.87276E-10 5.33925E-10-2.92636E+00-1.13397E+01
 -1       696-7.79266E-10 1.89855E-09-3.18601E-10-4.88622E-10 1.39627E+01-3.75767E+01
 -1       697 3.42784E-11-2.68635E-10 6.17227E-10-2.00586E-10 4.41894E+01 6.94666E+01
 -1       698 1.32353E-10 1.53701E-09-4.65058E-10 1.65833E-10 1.69927E+02 1.65579E+02
 -1       699 3.29551E-10-3.12145E-10-1.45731E-10-1.12717E-10-8.35497E+00-4.00578E+01
 -1       700 2.59159E-11 7.52493E-11-2.54759E-11 2.12788E-10-1.34800E+02-1.83423E+01
 -1       701-3.55207E-10 1.19960E-10 1.39548E-10 3.25528E-11-6.29881E+01-3.99177E+02
 -1       702-3.54490E-10 1.79523E-13-2.57988E-10 5.93749E-11-4.11794E-04-4.31533E+02
 -1       703 4.67497E-10 2.40363E-14-2.34421E-12-7.08056E-12 1.28310E-04 5.60974E+01
 -1       704 5.65757E-10-1.75501E-10-1.02642E-10 1.07019E-10 4.32325E+00 3.85560E+01
 -1       705 6.99686E-10-3.84306E-10 5.60083E-11 4.78223E-11 4.97126E+00 1.43955E+01
 -1       706 1.30880E-09-4.75787E-10-3.05694E-10-5.17196E-10-1.34426E+01-2.05333E+01
 -1       707 2.33002E-09 2.13189E-09-1.06941E-09 2.89372E-09-2.11575E+01-4.61724E+01
 -1       708 2.58143E-10-1.99214E-10 1.68233E-10-1.70743E-10 4.75237E+00-2.78896E+01
 -1       709-8.54092E-11 5.51281E-11 5.29755E-11-1.54909E-11 8.22098E+00-1.41785E+01
 -1       710-9.95278E-11 2.39347E-11-7.55287E-11 3.73085E-11-9.06314E+00-4.58950E+01
 -1       711-3.71179E-10 2.37593E-12 8.48082E-11 1.06127E-10-8.19798E+00 3.45307E+01
 -1       712-2.35274E-09 2.57111E-09-3.41746E-10-1.48751E-10 1.27714E+02 2.39227E+02
 -1       713-1.70811E-09 3.04016E-10 2.45223E-10 5.65622E-10-1.53084E+02 3.72194E+02
 -1       714-6.75480E-10 1.75196E-10 7.63323E-10-1.26091E-10 1.66872E+02-1.54989E+02
 -1       715-2.28685E-10 1.28522E-10-5.66447E-11 3.09858E-11-2.83378E+01-2.14643E+02
 -1       716-1.61535E-10 1.38334E-13-1.85361E-10-2.92626E-11-1.03864E-03-2.51970E+02
 -1       717 9.24163E-11-4.49640E-15-5.60080E-13-1.56799E-11 3.63676E-04-1.23027E+01
 -1       718 1.38979E-11-3.38048E-11 1.05682E-11 1.09717E-10-9.65568E-01 1.42502E+01
 -1       719-5.71208E-11-2.61790E-10-5.58951E-11 1.75598E-10-1.05426E+01-1.61596E+01
 -1       720-2.51160E-10 2.75744E-11-2.28892E-10 1.14401E-10-4.19224E-01 6.81207E+00
 -1       721-1.80543E-10 2.16107E-10-4.77694E-11-1.57415E-10 1.00772E+01-4.57706E+00
 -1       722 1.25138E-10 1.37789E-10-2.36308E-11 2.58982E-10 6.68080E+00-1.84351E+01
 -1       723 3.86523E-11-1.29619E-11-1.11826E-10 1.03287E-10 1.63007E+01-4.78120E+00
 -1       724-3.33239E-12-1.02394E-11-6.60201E-11 6.81870E-11 1.43073E+01-7.23632E+00
 -1       725 3.18535E-11-7.48454E-12 2.89542E-11 3.78877E-12 4.52142E+01 6.18902E+01
 -1       726-3.20290E-11 3.86365E-10 1.45500E-10-9.35869E-11 6.06296E+01-2.79597E+01
 -1       727 1.62046E-10-9.95470E-12 4.43471E-10 8.56586E-11 1.37020E+02-2.67913E+02
 -1       728-1.72330E-11 3.45451E-11-1.02284E-10-5.39420E-13 3.31012E+02 2.31250E+02
 -1       729-4.57590E-11 1.29141E-12-4.11545E-10-5.74794E-11-6.00392E-03-1.17018E+03
 -1       730-1.83304E-10 6.75016E-14-1.41931E-12 8.18989E-11-1.34865E-04-1.54933E+02
 -1       731-2.38614E-10-1.30130E-10 7.81171E-11 2.25212E-10-1.82785E+01-4.94051E+01
 -1       732 1.75611E-11 2.17106E-11-2.15953E-10-6.71889E-11-1.29800E+01-3.29400E-01
 -1       733 9.69073E-11-5.80314E-11 1.60759E-10-7.55269E-12 2.52397E+01 5.59790E+00
 -1       734-4.79459E-11 3.81134E-11 6.36794E-11 1.08177E-10 1.46525E+01-4.82737E+00
 -1       735 1.63988E-11 5.57387E-12 1.26782E-10 8.74055E-11 1.19082E+01-5.47739E+00
 -1       736 3.81817E-11-4.26846E-11 1.21505E-10 1.48349E-11 2.19671E+01-4.76854E+00
 -1       737 9.39493E-12 1.10800E-11 2.18090E-11-6.19865E-11-2.50037E+00 3.86882E+01
 -1       738-5.40497E-11 9.49355E-11-2.36182E-10-3.57328E-11-1.03252E+01 2.45196E+01
 -1       739-1.26249E-10 3.34627E-10 1.03255E-09 1.28786E-10 1.08862E+03-1.13142E+03
 -1       740 3.65503E-10-4.16556E-12-1.44374E-09-3.33316E-10 8.26259E-03-2.37228E+03
 -1       741-2.39098E-11 5.15143E-14-6.75904E-13 1.27983E-10 1.07062E-04-2.79739E+01
 -1       742 1.92510E-11-4.27326E-11 7.80602E-11 5.60781E-12-2.29604E+01-1.17472E+02
 -1       743-6.61764E-11 1.77636E-11 6.33484E-11-2.93596E-11-2.84912E+01-1.72791E+02
 -1       744 5.47449E-11-1.00343E-10-4.92618E-11 2.94920E-11-6.81180E+00-4.35055E+01
 -1       745-3.54000E-11-8.79058E-12-1.28541E-10 7.91963E-11-3.54818E+00-1.20707E+01
 -1       746-4.94774E-11 2.42140E-11-1.14932E-10 1.38268E-11 1.03641E+01-1.27472E+01
 -1       747 1.26906E-11 1.95386E-11 2.90909E-11-4.66731E-11-1.17598E+01 1.74998E+01
 -1       748 8.45679E-12-2.50617E-11-8.81689E-11-8.94624E-11 1.62751E+02-3.46441E+01
 -1       749-2.41087E-11 6.36629E-11 1.20832E-10 2.01741E-11 5.80676E+02-4.65209E+02
 -1       750-8.14083E-10 5.21368E-10-1.80592E-09-2.81489E-10 1.24170E+03-3.34437E+03
 -1       751 4.58366E-10 7.01973E-10-2.51809E-10-7.41663E-10 4.43840E+02-2.96054E+03
 -1       752 2.81716E-10-1.84519E-12-2.34191E-09-1.95860E-10-2.15183E-03-4.87555E+02
 -1       753 1.16582E-10 6.52811E-14-3.42748E-12 3.97906E-11 4.06119E-04-2.12071E+02
 -1       754 1.90129E-10-5.63084E-11-6.68074E-11 3.74580E-11 9.14103E+00-2.47042E+02
 -1       755 2.12680E-10 1.21525E-10-1.29591E-11 1.82036E-10 9.85792E-01-3.77377E+01
 -1       756-3.21975E-10 7.80602E-11 5.32541E-10-2.01226E-10 1.51225E+02 9.06147E+01
 -1       757 2.24554E-11-4.70250E-10 3.36455E-10 8.17100E-11-2.34487E+01-1.37637E+01
 -1       758-3.10485E-11 2.07380E-11 9.07350E-11-1.48028E-11 1.45326E+01 5.89515E+01
 -1       759 3.70978E-11 3.13514E-11 3.77549E-11-5.00358E-11-5.15145E+01-1.09533E+01
 -1       760-3.09723E-11 2.98925E-11-2.24785E-11-6.50019E-11 4.35348E+01-1.41889E+02
 -1       761-8.68816E-11-7.75771E-11 8.66951E-12-1.76971E-10-8.86585E+02 7.63377E+02
 -1       762 1.54671E-10-1.99275E-10-5.43334E-11 1.04379E-10-3.56620E+02-2.02528E+02
 -1       763 7.20775E-11 4.55060E-10-4.44408E-09 7.03722E-11-1.71600E+03 1.17002E+03
 -1       764 4.93894E-10 1.18277E-10 3.69056E-11-2.14110E-10 2.38001E+02-8.73711E+02
 -1       765-7.40627E-10-2.01910E-10 6.74153E-09-2.88018E-10-1.93661E+01-4.24690E+03
 -1       766 6.11635E-11 4.09273E-12-2.05372E-09-2.45491E-10-4.42572E-03-3.28146E+03
 -1       767 1.75191E-10-4.67959E-14 5.87574E-12-1.35911E-11-3.04313E-04-3.02146E+02
 -1       768 2.49601E-10-8.35411E-11-1.40455E-10-3.55902E-11 9.31992E+00-2.67902E+02
 -1       769 4.44832E-10-2.13611E-10-2.53042E-11 5.95726E-11 9.49504E+01-6.80319E+01
 -1       770 1.50086E-09 1.62424E-10-1.71891E-10 3.47963E-11 4.73777E+00 2.71199E+02
 -1       771 2.83569E-09-2.86876E-09-1.47724E-11 1.91137E-11 5.06442E+01 3.89419E+02
 -1       772 4.08567E-10-8.60911E-12 1.93062E-10-1.14441E-10 9.17044E+00-9.42518E+00
 -1       773 1.50327E-10-5.71596E-11 3.18690E-11-5.86122E-11-8.58170E+01-7.05637E+01
 -1       774 9.21112E-11-8.21210E-11-1.59259E-10 1.16733E-11 5.19641E+02-5.90132E+02
 -1       775-1.74499E-10 1.42137E-10-9.57847E-11 1.21652E-10 2.16456E+02 1.73933E+02
 -1       776-1.77965E-09-1.63367E-09-5.75238E-10-2.28955E-09-4.31756E+03 3.75410E+03
 -1       777-1.55562E-09-2.73085E-11-4.61541E-09 8.44144E-10-9.97229E+02 3.89796E+03
 -1       778-5.73522E-10 9.89724E-11-2.38631E-09-1.26334E-10-2.24179E+03-7.73711E+02
 -1       779-1.21396E-09 3.18991E-10 1.83860E-09-4.12935E-10-2.32606E+02-3.65493E+03
 -1       780-8.03226E-10 2.55440E-12-1.26775E-09-2.78476E-10 1.14645E-02-3.36936E+03
 -1       781 3.06301E-10 2.50910E-14-4.27391E-12-7.12328E-11-7.50972E-04-2.65726E+02
 -1       782 2.63867E-10-9.34927E-11-5.65468E-11 5.67546E-12-1.25167E+01-2.93752E+02
 -1       783 6.02327E-11-1.45501E-10 7.81109E-11-1.47778E-10-1.17358E+01 1.69978E+01
 -1       784-3.81809E-10 3.87182E-10 2.84162E-10 5.23491E-11-2.37044E+01-3.27964E+01
 -1       785-3.10966E-12-1.47923E-09 4.54618E-10 5.71276E-11 1.49512E+02 9.12410E+01
 -1       786 5.87892E-11 2.09951E-10-5.37334E-10 1.38321E-10-1.72762E+01 7.75465E+01
 -1       787-3.83892E-10-7.78300E-10 4.00064E-10-2.80579E-10-3.07709E+02 2.09123E+03
 -1       788 6.08026E-10-5.99120E-10-7.25242E-09 9.29115E-10-3.83025E+03 6.98822E+02
 -1       789-4.37701E-10-6.32855E-10-2.92770E-09-2.98407E-10 3.75548E+02-5.80466E+02
 -1       790-6.22274E-10 6.41103E-10-5.98785E-10-1.43738E-10-4.08060E+02 9.70923E+02
 -1       791-1.43640E-09 7.00255E-10 6.54349E-10 8.36593E-11-4.98901E+01-4.98962E+02
 -1       792-2.18597E-09-5.48539E-12-6.23608E-10-6.54893E-10 1.56251E-02 8.44321E+02
 -1       793 2.49045E-11 7.95630E-12-3.33729E-10-3.55662E-11-1.32699E+02-2.63960E+01
 -1       794 1.14795E-10-5.11774E-11 4.93860E-11 1.54299E-10 4.23191E+01 3.50309E+01
 -1       795 2.33648E-10-4.06236E-10-1.06320E-10-9.99627E-11-3.37002E+00 6.56624E+01
 -1       796-1.55087E-11-2.84929E-10 3.85038E-10-9.73053E-11-1.37097E+02-7.75809E+01
 -1       797-1.65247E-10-7.44137E-10 3.42868E-09-4.23739E-10 2.20180E+03-1.07919E+03
 -1       798 5.09051E-10-1.40373E-09-5.45677E-10-1.80275E-10 6.09466E+02 9.44396E+02
 -1       799 9.65853E-10-3.25240E-10-1.81295E-10-1.72562E-10-9.03370E+01 2.43469E+01
 -1       800 1.65443E-10-9.86802E-11 4.08701E-09-2.75122E-11 1.35912E+03-1.47416E+03
 -1       801 9.04632E-11-2.11390E-10 2.78557E-11-1.59472E-11 7.22098E+01 1.70758E+01
 -1       802 5.84298E-11-2.59965E-10 1.69750E-11 6.41955E-11-1.45513E+02 3.12730E+00
 -1       803 3.53733E-11-2.67839E-10-2.93071E-11-7.82946E-11-2.82077E+02-7.83383E+01
 -1       804 8.33089E-12-8.20144E-12 4.05526E-10 5.94564E-11-5.48304E+02-6.48177E+02
 -1       805 9.10085E-11-4.01030E-11-1.12509E-10-1.08855E-11 1.32265E+03-1.02468E+03
 -1       806 3.30745E-10-4.25662E-10 1.65209E-09-1.53531E-10 4.62897E+03-7.84786E+02
 -1       807 2.85559E-10-1.11774E-09 1.16896E-09-4.79798E-10 3.66616E+03-2.47476E+01
 -1       808 4.24524E-10-1.72429E-09 4.45448E-10 6.86526E-11 3.54971E+03-6.11565E+01
 -1       809 4.16667E-13-2.42167E-10-7.61295E-11 6.91767E-11 1.98730E+02-8.50741E-04
 -1       810-1.55431E-14-1.48212E-10-8.83360E-12 1.18707E-11-1.26167E+02-8.39691E-05
 -1       811-6.49036E-13-1.51436E-10 9.38860E-11-6.89924E-11 6.87781E+01 1.25666E-03
 -1       812-1.29186E-12-1.92273E-11 2.55318E-10-7.03153E-11 8.33353E+02 4.55561E-03
 -1       813-1.94156E-12 1.04819E-10 8.57117E-10-9.88791E-11 1.83660E+03-1.11638E-02
 -1       814 1.42397E-12-1.01977E-10-2.49095E-10 1.30905E-10 8.85945E+02 8.81768E-05
 -1       815-8.61533E-14-1.09219E-09-1.71994E-10 4.90630E-12 4.19268E+03 1.21224E-03
 -1       816 7.81597E-14-2.09684E-09-1.13983E-09-5.34015E-10 2.21176E+03-1.29643E-02
 -1       817 6.24019E-05-2.18070E+02 6.14932E-05 1.36133E+01 1.21311E+02-1.92488E-04
 -1       818 3.77282E-05-9.06809E+01-1.52916E-05 1.26901E+01 4.74688E+01 2.50186E-04
 -1       819-5.84553E-06 4.71918E+01 4.16209E-05 9.95222E+00 1.61298E+00-1.94278E-04
 -1       820 1.30713E-05 1.51654E+02 7.89477E-05 1.16272E+01-3.10234E+01 2.30829E-04
 -1       821-1.41846E-04 2.63176E+02 2.62047E-04 1.60833E+01-6.76379E+01-7.12421E-06
 -1       822-2.22209E-04 4.31739E+02 2.75938E-04 6.64323E+00-1.00819E+02-1.09609E-05
 -1       823 2.42423E-04 6.09543E+02 4.43137E-04 5.46747E+00-2.19851E+02 6.97076E-05
 -1       824 6.25666E-05 8.15479E+02 5.80990E-04 4.06167E+01-1.15056E+02 6.27017E-04
 -1       825 7.28619E-05 1.05017E+03 2.53893E-04 3.66315E+01-5.72998E+01-1.56734E-05
 -1       826 8.37156E-04 1.14664E+03 5.58313E-04 8.27930E+00-3.34773E+02 3.28431E-04
 -1       827 6.96096E-04 1.12592E+03 4.77715E-04-3.75417E+00-1.80699E+02 3.81944E-04
 -1       828 4.17124E-04 8.63945E+02 2.64248E-04-2.38278E+01-2.82486E+02-1.17444E-03
 -1       829 3.19403E-04 5.41993E+02 1.13736E-04-3.77265E+01-1.13353E+02 9.21300E-04
 -1       830 1.62207E-04 8.56905E+01 1.45581E-05-4.90213E+01 4.53927E+01-1.12103E-03
 -1       831 1.86700E-04-3.53516E+02 2.69616E-04-5.85150E+01 3.23926E+02 9.32679E-04
 -1       832-2.33512E+00-1.45395E+02 1.54275E+01 1.12345E+02 1.88233E+01-7.56340E+00
 -1       833-6.21562E+00 4.27342E+01-7.16172E+00 1.07406E+02 1.32397E+01 1.41392E+01
 -1       834 3.02530E+00 2.35840E+02-3.55127E+01 1.11561E+02-8.54947E+00 3.77270E+01
 -1       835 6.16566E+01 4.42659E+02-1.13643E+02 1.82743E+02 2.57006E+01-1.53708E+01
 -1       836-1.01291E+02 9.92156E+02-2.00407E+02 1.86065E+02 9.32581E+00-4.52355E+01
 -1       837-7.36698E+01 9.04469E+02-1.01385E+02-1.64366E+02 5.64184E+01 2.12919E+01
 -1       838-4.09481E+01 4.26738E+02-4.14521E+01-3.52581E+02 4.80841E+01-2.49433E+00
 -1       839-2.53099E+01-1.89877E+02 3.35830E+01-3.89956E+02 7.09710E+01 5.87447E+00
 -1       840-9.27723E+00 1.85837E+00 3.08549E+01 1.87130E+02 1.02842E+02-1.24157E+01
 -1       841-1.65359E+01 1.14211E+01 8.26580E+00 1.94347E+02 2.26962E+01 6.15222E+00
 -1       842-1.81406E+01 3.25512E+01-1.43235E+01 1.96380E+02-1.06156E+01 3.67083E+00
 -1       843-1.36135E+00 7.71248E+01-4.26746E+01 1.99305E+02-2.84880E+01-2.43682E+01
 -1       844 2.75522E+01 1.21144E+02-7.10258E+01 2.01111E+02-2.26196E+01-6.71340E+00
 -1       845 7.83985E+01 1.18225E+02-1.49156E+02 2.10176E+02-8.33334E+01 1.43429E+01
 -1       846 1.24671E+02 1.53177E+02-2.27286E+02 2.89642E+02-1.13856E+02-2.15665E+01
 -1       847-5.44415E+00 5.90586E+02-3.14050E+02 4.52871E+02-2.12136E+02-1.83267E+02
 -1       848-3.26048E+02 8.59927E+02-4.00814E+02 2.13480E+02-2.19992E+02-2.21921E+01
 -1       849-3.42804E+02 6.43963E+02-3.01792E+02-1.01676E+02-1.59810E+02 1.55296E+00
 -1       850-2.40607E+02 4.18480E+02-2.02770E+02-3.37681E+02-2.54654E+02-3.90066E+00
 -1       851-1.78982E+02 2.70888E+02-1.42838E+02-4.82159E+02-1.33691E+02 1.38408E+01
 -1       852-1.17780E+02 1.46401E+02-8.29045E+01-6.24568E+02-1.66377E+02 2.40086E+01
 -1       853-7.40736E+01 4.11197E+01-7.86937E+00-6.36794E+02-3.31064E+01-1.02267E+01
 -1       854-6.68678E+01-1.25304E+01 6.71654E+01-6.26445E+02 1.96484E+02 2.50890E+01
 -1       855-1.06653E+01 1.36976E+02-2.14970E+01 1.17076E+02 1.70282E+01 1.08693E+01
 -1       856 1.19650E+01-7.26187E+00-6.10687E+00 1.74404E+02 9.67252E+00-4.14474E+00
 -1       857 1.72646E+00 9.87147E+00-2.11156E+01 1.96801E+02 8.80323E+00 2.47274E+00
 -1       858 2.62436E+01-8.54091E+01-3.89751E+01 9.79565E+01 8.58917E+00 7.11020E+00
 -1       859-3.84218E+02 4.91861E+02-8.62726E+01-1.79640E+02-2.26222E+01-1.57155E+02
 -1       860-4.20031E+02 5.35353E+01 9.86325E+01-5.43034E+02 2.26265E+01 1.60233E+01
 -1       861-1.61847E+02-1.36944E+02 7.26981E+01-6.14992E+02 7.76023E+01 1.89611E+01
 -1       862-1.35979E+01 5.37273E+01 9.90007E+00-4.88466E+02 1.26734E+02 2.87502E+01
 -1       863 2.00441E+01 1.57889E+01-9.76366E+00-1.83291E+02-1.26428E+00-6.29556E+00
 -1       864 3.74281E+01 6.96569E+01-4.18062E+01-1.17170E+02 1.09778E+01-5.75430E+01
 -1       865 1.97306E+01 1.37391E+02-7.38489E+01-1.71524E+01 1.71284E+01-2.83787E+00
 -1       866 2.09363E+01 5.05211E+01-3.58697E+01 4.48110E+01 1.68832E+00 2.69811E+00
 -1       867 4.67677E+01-5.04954E+01 2.10970E+00 1.12523E+02 5.43318E+00-2.04495E+01
 -1       868 2.95416E+01-2.36117E+01 1.54521E+01 1.81475E+02-2.23145E+01-6.85392E+01
 -1       869-1.52628E+01-1.40412E+01 2.87948E+01 1.83203E+02-3.51571E+01-5.27785E+01
 -1       870-3.61019E+01-1.83705E+01 8.90655E+01 1.19809E+02 2.58831E+01 1.39883E+00
 -1       871-4.35323E+01-7.87967E+01 1.49336E+02 4.69849E+01-4.70075E+01-1.03318E+01
 -1       872-4.28397E+02 2.72230E+02 2.28269E+02-3.12560E+02-2.06233E+02-1.06367E+02
 -1       873-6.44870E+02 1.00707E+02 3.14153E+02-4.80133E+02-1.19915E+02 1.80017E+02
 -1       874-4.81728E+02-3.01467E+02 4.00035E+02-7.56779E+02-6.16905E+01-2.65560E+01
 -1       875-2.40516E+02-3.97872E+02 3.14168E+02-6.87653E+02-7.13762E+01 4.51613E+01
 -1       876-1.37084E+02-3.58830E+02 2.28301E+02-6.07272E+02-1.09401E+01 1.42138E+02
 -1       877-1.07054E+01-1.51640E+02 9.04678E+01-4.35071E+02-7.96810E+01-6.42753E+01
 -1       878 9.10004E+01-5.84465E+00-4.73650E+01-2.24322E+02 1.00963E+02 2.60611E+01
 -1       879 5.73839E+01 3.74581E+01-2.78452E+01 1.77236E+02 6.55006E+01 1.87523E+02
 -1       880-3.09408E+01 1.33717E+02-8.32607E+00 5.39496E+02-1.73492E+02 4.34512E+01
 -1       881 1.17110E+02 2.56141E+01-6.38696E+01-1.65408E+02-6.15370E+01 2.40526E+01
 -1       882 6.98154E+01 7.93395E+01-6.28002E+01-5.56968E+01-1.64442E+00-7.20063E+00
 -1       883 5.35115E+01-2.36243E+01-4.20004E+00-8.02539E+00 2.86020E+00 6.40002E+00
 -1       884-1.56819E+02-6.10515E+02 2.90562E+02-6.66959E+02-2.78052E+02 8.47129E+00
 -1       885 9.72703E+01-5.53108E+02 1.68403E+02-3.91389E+02-8.34881E+01-1.60746E+00
 -1       886 2.84887E+02-2.99201E+01-1.28264E+02-7.31987E+01-7.85575E+01 3.34618E+01
 -1       887 4.70030E+02 5.84111E+01-2.33440E+02 6.89654E+02-1.24992E+02-9.73148E+01
 -1       888-3.23994E+02 6.45007E-05-2.80533E-05 5.65045E+00-1.00718E-04 1.32071E+02
 -1       889-2.33728E+02-3.20950E-01 1.82868E+01 7.91987E+01-1.66578E+01-1.68509E-02
 -1       890 9.72763E+00-1.00543E+01 3.65737E+01 1.37004E+02-6.49292E+00 1.21773E+02
 -1       891 2.52913E+02-2.94453E+01-4.07010E+01 6.30027E+01 1.10646E+01 7.29648E+00
 -1       892 2.56969E+02-1.63100E+01-1.17976E+02-8.90974E+01-8.12239E+00 2.03253E+01
 -1       893 1.83233E+02 2.78086E+01-8.48635E+01-9.58944E+01-3.20907E+00-8.14193E+00
 -1       894 1.02820E+02 3.57449E+01-5.17516E+01-7.18039E+01-2.66755E+00-1.01804E+01
 -1       895 5.20352E+01 3.36578E+01-3.11307E+01-5.59936E+01-1.66647E+01 7.44787E-01
 -1       896 5.08962E+01-2.38189E+00-1.05098E+01-5.79503E+01 1.46176E+01-3.66865E+01
 -1       897 7.41738E+01-4.10375E+02 1.81089E+02-5.96618E+02 3.94686E+01 6.78977E+01
 -1       898 1.47739E+02-4.82127E+02 1.44797E+02-4.98051E+02 1.97485E+02 1.86505E+02
 -1       899 3.75963E+02-5.93917E+02 1.08506E+02 2.85488E+01 1.69380E+02 1.60487E+02
 -1       900 2.86992E+02-1.61618E+02-5.03281E+01 9.52444E+01 6.26255E+01 1.01238E+02
 -1       901 4.51560E+02 7.90290E+01-2.09162E+02 4.12482E+01-9.73493E+00-4.61760E+01
 -1       902 9.05451E+02-7.89006E+01-3.33858E+02 3.39153E+02-1.64505E+01 5.25171E+01
 -1       903 1.19291E+03-2.97023E+02-4.58555E+02 5.66900E+02-1.37430E+02-1.75197E+01
 -1       904 1.13729E+03-2.85974E+02-1.51950E+02-1.88336E+00 1.96884E+01-3.13153E+01
 -1       905 2.39976E+01-3.37831E+01 1.54656E+02-2.67740E+02-6.04328E+01-3.94224E+02
 -1       906-1.01183E+03-1.93384E+01 7.73275E+01-1.24825E+02-6.64601E+01 1.02709E+02
 -1       907-1.31885E+03 1.48075E-04-5.97003E-04-1.72228E+01 4.88814E-04-4.34858E+02
 -1       908-2.35013E+02 4.42198E-05-5.37019E-05 7.09723E+00 9.32411E-05 8.17819E+01
 -1       909 3.44125E+00-1.60207E+01 2.90283E+01 1.29490E+02 5.85796E+00 6.98721E+01
 -1       910 2.01633E+02-2.53141E+01-9.24549E+01-2.52761E+01-5.88414E-01 6.58459E+00
 -1       911 1.18955E+02 2.33671E+01-5.08067E+01-7.02954E+01-1.08272E+00-4.55463E+01
 -1       912-1.94997E+01-8.39216E+01 2.61578E+01-1.55098E+02 1.88007E+01-2.86821E+01
 -1       913-4.65344E+02 6.05196E+01 1.90352E+02 8.20646E+02 2.39046E+02 5.06013E+01
 -1       914 5.33414E+02 5.71456E+00-1.92195E+02-1.66076E+02 1.63518E+02 3.60865E+02
 -1       915 1.24512E+03-4.32416E+02-4.37500E+02 4.03456E+02 1.58286E+01-9.99784E+01
 -1       916-8.20551E+01-5.15301E+01 2.13883E+02-1.07234E+02 4.40009E+01-3.73366E+02
 -1       917-1.17745E+03 8.77501E-05-3.95681E-04-4.11148E+00-4.83279E-04-2.89345E+02
 -1       918-1.45312E+02 9.74347E-07-2.13269E-05 7.05243E+00-8.87829E-05 5.65591E+01
 -1       919-1.09246E+02-2.85375E+00 1.07413E+01 6.81172E+01 1.20556E+01-5.48417E-02
 -1       920 5.30270E+00-1.18924E+01 2.14827E+01 1.20817E+02 3.84648E+00 3.78330E+01
 -1       921 9.91888E+01-4.27490E+00-2.27256E+01 7.20151E+01-4.31294E+00 1.03946E-01
 -1       922 1.26629E+02 4.34520E+00-6.69340E+01 7.50956E+00 6.03584E+00 1.36260E+01
 -1       923 1.38289E+02 2.45306E+01-5.83979E+01-4.29794E+01 8.33599E+00 3.52107E+00
 -1       924 1.12043E+02 2.75588E+01-4.98618E+01-8.33030E+01-1.31840E+01-1.94773E+01
 -1       925-4.48097E+01-3.35349E+01 6.48178E+00-1.57147E+02-1.17377E+01 2.57913E+01
 -1       926-8.86897E+01-7.63212E+01 4.13699E+01-1.27537E+02-3.54889E+01-5.91953E+01
 -1       927-2.85279E+01-8.83274E+00 1.88308E+01-1.81144E+01 2.55327E+00-1.03371E+01
 -1       928-2.88761E+00 7.79211E+00-7.39326E+00 5.96427E+00 5.59143E+00-2.24934E+01
 -1       929-7.99718E+00 5.25720E+00 4.59613E-01 3.21672E-01 3.66992E+00-1.76106E+01
 -1       930-1.39012E+01-3.54934E-01 3.41837E+00-3.41689E+00 4.97009E+00-2.06171E+01
 -1       931-2.18944E+01 5.20510E+00 7.17640E+00 1.08232E+00 3.50616E+00-1.82259E+01
 -1       932-5.79485E+00 1.25653E+01 5.54679E+00 1.22941E+01-7.23882E-01-2.27319E+01
 -1       933-2.03171E+00-4.78442E+00-4.73602E-01-1.96033E+01 4.94405E+00-4.92607E+00
 -1       934 9.91424E+00-1.48402E+01-4.08969E+01-2.11269E+01 4.09308E+00-3.20285E+00
 -1       935-2.25515E+02 3.80237E+01 1.06487E+02 3.89989E+01 2.29662E+01-8.23365E+01
 -1       936-9.11905E+02 3.50951E+02 1.85216E+02 4.46096E+02 1.16856E+02 3.13783E+02
 -1       937-1.01650E+03 3.25637E+02 4.84839E+01 1.81828E+02 1.56865E+02-2.99840E+01
 -1       938 4.97712E+02-1.44563E+02-1.75228E+02-4.57909E+02-1.52356E+02 3.64763E+02
 -1       939 1.52391E+03-2.97547E+02-2.95836E+02-8.75072E+01-9.84578E+01 2.60968E+01
 -1       940 1.17887E+03-4.16291E+02-4.16446E+02 4.94943E+02 1.68843E+02-1.46809E+02
 -1       941 6.12172E+02-2.96041E+02-7.16681E+01 3.04144E+02-7.42763E+01 4.22489E+01
 -1       942-1.85414E+02-1.91152E+02 2.73110E+02 1.66863E+01-2.23758E+01-2.10145E+02
 -1       943-9.17038E+02-6.11508E+01 1.36554E+02-2.28655E+01-8.18137E+01 4.98363E+01
 -1       944-1.11817E+03 9.12197E-04-9.19925E-04 1.34356E+01-2.76494E-05-2.57849E+02
 -1       945-7.60369E+01-2.62973E-06-1.28028E-05 8.79370E+00 1.54714E-04 2.69489E+01
 -1       946 1.18701E+01 3.89800E+00 6.92050E+00 1.26553E+02-9.78765E+00 1.67840E+01
 -1       947 6.32551E+01 2.38024E+01-4.30882E+01 1.45560E+01-8.27876E+00 5.53567E-01
 -1       948 7.18076E+01 2.20810E+01-3.37833E+01-9.41237E+01 2.32659E+01-2.21173E+01
 -1       949-1.16109E+01-1.62819E+01 1.52014E+01-1.83155E+01 1.20687E+00-6.59608E+00
 -1       950-2.60782E+00 2.98404E+00-3.70448E+00-1.89894E-01 6.33366E+00-7.86655E+00
 -1       951-1.31227E+01 5.89798E+00 2.24366E+00-2.37504E+00 3.90542E+00-1.04815E+01
 -1       952-2.09617E+01 9.07549E+00 7.04264E+00-1.24338E+00 4.76769E+00-2.29925E-01
 -1       953 3.08188E+01 1.30676E+01-1.83764E+01 9.12701E+00-7.38198E-01-1.84897E+01
 -1       954-1.06366E+02 1.09394E+02 3.05810E+01 5.79849E+01-6.42770E+01 3.00051E+01
 -1       955 3.40058E+02-2.22686E+02-3.21408E+02 5.20313E+02-2.75194E+01 1.48143E+02
 -1       956-2.60477E+02-5.02955E+02 4.90333E+02 1.59020E+02-4.74866E+01-2.63813E+02
 -1       957-1.19171E+03 1.15137E-03-9.07111E-04 4.41368E+01 6.12343E-04-4.02438E+02
 -1       958-7.38391E-01-1.81599E-04 1.04200E-04 1.19587E+01-1.88713E-06-1.24673E+01
 -1       959 1.56546E+01 5.97899E+00-3.82083E+00 7.72747E+01 3.30713E+01-1.25262E+01
 -1       960 1.97357E+01 3.53699E+01-7.64177E+00 1.32219E+02-2.33364E+00 1.40427E+01
 -1       961-1.01451E+01 3.94850E+01-1.34421E+01 8.57559E+01 4.74596E+00 9.19396E+00
 -1       962-8.34886E+00 4.66596E+01-1.92424E+01 2.81467E+01-9.11456E+00-1.63155E+01
 -1       963 2.12067E+01 2.41002E+01-1.84735E+01-3.57251E+01-9.77469E+00 1.79373E+01
 -1       964 1.20319E+01 1.46740E+01-1.77046E+01-8.89138E+01 2.74440E-01 6.84529E+00
 -1       965 7.94871E+00 8.40395E+00-1.15023E+01 7.19408E+00 1.35291E+01-2.37962E+00
 -1       966-5.29296E+00 8.92248E+00-6.32696E+00 1.21370E+00 1.58532E+01-1.22793E-01
 -1       967-1.17600E+01 3.76044E+00 4.21800E+00-4.99690E+00 1.12497E+01-1.23022E+01
 -1       968-9.11594E+00 7.60651E+00 2.40423E+00-1.90744E+00 1.35946E+01-4.47485E+00
 -1       969-1.49674E+01 1.03692E+01 2.46926E+00-2.36491E+00 1.46773E+01-6.65801E+00
 -1       970-1.80407E+01 9.75989E+00-1.28495E-02-5.43060E+00 1.50913E+01-2.82907E+00
 -1       971-1.62929E+01 9.04062E+00-7.92398E-01-7.19921E+00 1.71314E+01-2.27289E+00
 -1       972-7.05900E+00 1.33087E+01 5.46529E+00 3.86921E+00 2.13240E+01 6.08448E+00
 -1       973-4.08929E+01 1.92334E+01 1.98495E+01 1.52536E+00 2.54554E+01 2.63321E+01
 -1       974-2.16438E+01-8.60576E+00-1.89767E+01-2.91516E+01 6.05232E+00-1.42483E+01
 -1       975 3.75843E+01-2.52490E+00-3.09098E+01-6.39228E+00 2.80835E+01-7.52863E+00
 -1       976 1.75579E+02-5.19899E+01-2.26368E+02 2.24887E+02 1.41120E+02-2.47771E+02
 -1       977 2.83724E+02-3.12264E+02 2.40594E+02 9.66806E+01 5.37484E+01 1.61191E+01
 -1       978-4.17705E+02-1.40687E+03 7.07556E+02 6.12712E+02 3.60148E+02 2.27801E+02
 -1       979-1.11101E+03-4.65340E+02 3.53776E+02 5.89534E+02-6.13432E+02-1.52107E+02
 -1       980-1.39952E+03 5.13888E-03-4.91807E-03 1.22313E+02-4.49179E-03-1.18542E+03
 -1       981 1.36315E+02-2.57093E-04 1.04560E-04 6.87188E+00 2.09452E-07-2.85116E+01
 -1       982-1.71498E+01 9.72829E+01-5.65191E+01 1.63047E+02 9.48420E+00-3.86920E+01
 -1       983-4.11471E+01 5.09486E+01 3.23982E+01 3.32990E+01 1.77170E+01 3.80002E+01
 -1       984-8.03301E-01 1.18313E+01-3.68043E+00 2.59059E+00 1.21112E+01-3.86244E+00
 -1       985-7.80324E+00 1.30077E+01-8.20263E-01 6.93479E-01 8.05920E+00-8.84014E+00
 -1       986-1.58393E+01 1.39826E+01 5.59371E-01-1.01593E+00 8.13144E+00-6.93076E+00
 -1       987-1.78400E+01 1.88096E+01-3.67741E-01-3.75399E+00 8.84868E+00-7.57544E-02
 -1       988-3.27626E+01 7.29354E+00 3.24048E+00-7.36071E+00 1.34689E+01 1.92161E+01
 -1       989 5.20339E+01-7.54773E+00-3.38945E+01-4.98788E+00 4.61300E+01 2.14523E+01
 -1       990-1.54101E+03-3.24766E+03 2.29989E+03 3.69339E+03 4.03093E+02-1.59993E+03
 -1       991-3.38128E+03 8.36878E-03-4.25478E-03 1.20738E+02 7.05336E-04-3.82140E+01
 -1       992 2.94538E+02 1.16222E-04 3.19162E-04 1.08190E+01 8.99603E-05-1.57204E+02
 -1       993 1.78251E+02 6.06286E+01-5.26980E+01 1.71222E+02-5.74321E+00 1.81575E+01
 -1       994-2.35836E+01 1.40272E+02-1.05396E+02 2.60754E+02-2.10663E+01-4.95574E+01
 -1       995-1.47537E+02 6.46628E+01-1.06788E+01 5.76388E+01-1.39374E+01 2.75771E+00
 -1       996-1.00394E+02 2.28602E+01 8.40386E+01 2.51990E+00-1.07529E+01 3.75502E+00
 -1       997-1.27600E+01 1.53587E+01 5.25454E-01 2.19932E-02 2.15607E+01-2.17193E+00
 -1       998-6.89074E+00 1.54515E+01-1.17321E+00 2.03969E+00 1.28933E+01-3.50148E+00
 -1       999-4.76279E+00 1.59146E+01-4.80408E+00 1.55328E+00 1.30165E+01-7.04333E+00
 -1      1000-1.21810E+01 1.80689E+01-2.69514E+00 2.47963E-01 1.35871E+01-2.00034E+00
 -1      1001-1.70543E+01 2.13133E+01-1.77559E+00 1.13880E+00 1.36013E+01-6.47110E+00
 -1      1002-2.06027E+01 2.14357E+01-3.24480E-01 9.17315E-01 1.72440E+01-1.30913E+00
 -1      1003-1.77842E+01 2.29191E+01 4.82960E-01-1.41696E+00 1.85412E+01 1.35519E+00
 -1      1004-1.36216E+01 2.85542E+01-7.75827E+00-1.16049E+01 1.91483E+01 1.07793E+01
 -1      1005-3.82697E+01 3.82508E+01-1.59863E+01-5.00267E+00 2.29245E+01 1.76574E+01
 -1      1006-1.39893E+01 5.99548E+00 1.11859E+01-1.73876E+00 4.79307E+01-2.88093E+00
 -1      1007 3.39438E+01 3.99614E+01-1.16652E+01-5.11004E+01 6.24184E+01 1.96193E+01
 -1      1008-3.22461E+03-2.83634E+03 3.89222E+03 7.02113E+03 1.14031E+03-1.21531E+03
 -1      1009-4.77636E+03-1.18554E+03 1.94611E+03 3.65224E+03 3.84436E+02 4.13139E+02
 -1      1010-6.32811E+03-1.39452E-03-5.13460E-03 2.22365E+02 4.60475E-04-2.45617E+03
 -1      1011 4.97602E+02-5.03120E-05 3.72936E-04 3.64268E+01 5.62133E-04-6.27690E+01
 -1      1012 3.58003E+02 3.12970E+01-2.01588E+02 4.41958E+02-1.63881E+02-1.34379E+02
 -1      1013 3.31440E+00 1.43331E+01-8.10222E+00-2.17665E+00 9.64213E+00-2.02423E+00
 -1      1014-1.10099E+01 1.70634E+01-2.64132E+00 1.58846E+00 4.94029E+00-7.90053E+00
 -1      1015-1.45356E+01 2.54146E+01-3.42545E+00 2.92439E+00 7.30400E+00-9.08117E+00
 -1      1016-2.98586E+01 2.78258E+01-2.21224E+00 3.56143E+00 1.30217E+00 6.07167E+00
 -1      1017 1.93520E+01 6.64972E+01-3.13602E+00-3.91647E+01 2.89782E+01 6.48721E+00
 -1      1018-1.08109E+02 1.27441E+02 1.23500E+01 1.84980E+01 1.06619E+02-2.77820E+00
 -1      1019-8.15050E+03 3.80188E+02 4.69739E+03 8.19759E+03 2.99347E+03-2.53927E+03
 -1      1020-1.04786E+04-1.62244E-03-8.69014E-03 7.22995E+02-1.04593E-02-1.38126E+03
 -1      1021 7.28723E+02-7.74240E-05 1.52385E-04 3.13654E+01-7.73114E-05-3.43908E+01
 -1      1022 7.05410E+02-6.41370E+01-1.48889E+02 2.06853E+02-2.27213E+01 2.27513E+00
 -1      1023 6.30302E+02-1.95281E+02-2.97779E+02 2.91257E+02-2.27430E+01-1.18707E+02
 -1      1024 3.90169E+02-2.35759E+02-8.62614E+01-8.44086E+01-9.16248E+01-3.33893E+01
 -1      1025 2.53629E+02-2.58983E+02 1.25257E+02-3.03119E+02-2.36082E+01-1.63665E+02
 -1      1026 2.43976E+01 2.41546E+01-1.94374E+01 1.65012E+01 2.26658E+00-8.22041E+00
 -1      1027 9.22323E-01 1.94188E+01-1.16451E+01 2.94888E+00 3.07876E+00 2.17687E+00
 -1      1028-1.42131E+01 2.33764E+01-1.07832E+00 2.23758E+00 1.08872E+00-8.61073E+00
 -1      1029-1.02830E+01 2.18021E+01-4.05689E+00 7.68732E+00 2.38177E+00-3.75636E+00
 -1      1030-1.32654E+01 2.15996E+01-5.09197E+00 6.95768E+00 3.01032E+00-1.01214E+01
 -1      1031-1.86966E+01 3.55674E+01-4.45487E+00 4.13613E+00-1.73602E+00 4.94154E+00
 -1      1032-3.67792E+01 4.50646E+01-3.95134E+00 4.44503E+00-1.65714E+00 5.89814E+00
 -1      1033-4.38488E+01 3.64207E+01 3.07990E+00 1.52849E+01 2.19549E+01-1.84561E+00
 -1      1034 4.99128E+01-4.47926E+00-1.56415E+00-5.26765E+01 6.04623E+01 1.59263E+01
 -1      1035-8.93300E+01 9.44361E+01-2.07660E+00 1.42006E+01 7.75770E+00 2.96878E+01
 -1      1036-3.18164E+02-1.29864E+02 1.16503E+02 2.73340E+02 2.39024E+02-1.13089E+02
 -1      1037-4.52585E+03 5.92409E+03-2.85917E+03-5.24250E+03 1.16575E+03-3.16398E+03
 -1      1038-7.61202E+03 5.43473E+03 1.32170E+03-2.30079E+03 2.16074E+03-4.98707E+02
 -1      1039-1.26382E+04 4.84193E+03 5.50256E+03 4.42270E+03 4.24587E+02-2.97946E+03
 -1      1040-1.43846E+04 1.56044E+03 2.75128E+03 3.53200E+03 4.72955E+02 2.82072E+02
 -1      1041-1.51609E+04-7.57442E-04-5.25311E-03 6.25550E+02 1.45699E-04-6.06127E+02
 -1      1042 9.02182E+02 4.83723E-04 4.47949E-04 1.44394E+01 3.94747E-04-2.48349E+02
 -1      1043 4.62915E+02-1.96851E+02-2.42136E+02 9.29411E+01 6.25824E+00-1.49939E+02
 -1      1044-2.76959E+01-3.66403E+02 2.38454E+02-4.18624E+02 1.30492E+02-8.48106E+01
 -1      1045-4.27392E+01 2.15872E+01 1.41523E+01-5.05431E+00-7.71211E-01 8.91988E+00
 -1      1046 8.60953E+00 2.24426E+01-1.32244E+01 1.23399E+01 7.97366E+00-3.35957E-01
 -1      1047-1.73297E+01 1.35924E+01 2.07640E+00 1.66661E+01-8.01626E+00-1.23007E+01
 -1      1048-2.27939E+01 5.23273E+01-8.84881E+00 1.21253E+00 6.52872E+00-1.82740E+01
 -1      1049-1.66595E+02-1.07318E+02 3.33823E+01 1.58031E+02-1.11226E+02 1.06740E+02
 -1      1050 3.77479E+02-1.40409E+02-1.69140E+02-2.73021E+02-5.74486E+00 8.80760E+01
 -1      1051-7.37553E+02 8.78554E+03-4.61958E+03-7.62377E+03-2.68354E+03-1.75626E+03
 -1      1052-9.41349E+03 4.79881E+03 4.43064E+03-1.00978E+02-4.64135E+01-2.63277E+03
 -1      1053-1.74177E+04-1.16883E-02-8.19664E-03 1.98200E+02-6.09003E-03-4.99846E+03
 -1      1054 1.01143E+03 3.09848E-04 4.71869E-04 1.01079E+01 5.34611E-05-2.16085E+02
 -1      1055 8.03655E+02-3.55163E+01-9.32457E+01 5.95206E+00 3.99906E+01 4.60660E+01
 -1      1056 2.83680E+02-1.15405E+02-1.86492E+02-3.64643E+01 1.04983E+01-2.43245E+02
 -1      1057-1.74411E+02-1.68515E+02 8.25794E+01-3.03694E+02-9.30528E-01 3.54061E+01
 -1      1058-5.80026E+02-1.25239E+02 3.51651E+02-5.50428E+02 3.38430E+00-3.10902E+01
 -1      1059-8.08464E+02 5.94715E+01 2.75767E+02-5.56386E+02 7.21447E+01-2.65131E+02
 -1      1060-5.17455E+02 2.06379E+02 1.99883E+02-6.77506E+02 1.49449E+02 8.73402E+01
 -1      1061-7.56168E+01 2.32621E+01 3.27632E+01 2.07649E+01-3.53288E+01-1.05146E+01
 -1      1062 1.20394E+01 3.12755E+01 1.35345E+01 3.31505E+01-2.42654E+01-2.55587E+01
 -1      1063 4.61308E+01-9.78634E+00-2.49630E+01-4.92327E+00-5.07422E+00 1.46861E+01
 -1      1064-1.16804E+01 1.94206E+01-4.79511E+00-4.54311E+00-1.21388E+01 2.29470E+00
 -1      1065-2.64431E+01 4.93990E+01 5.80165E+00 2.02209E+01-2.11992E+01-2.25079E+01
 -1      1066-4.39132E+01-1.81053E+01 2.02445E+00 5.54167E+01-8.30494E+00-2.61152E+01
 -1      1067 1.92553E+01-5.83282E+01 4.84557E+00 6.81446E+01-1.53950E+01-5.22256E+01
 -1      1068 1.00715E+02 1.87012E+02-5.64074E+01-1.35321E+02-1.17136E+02 1.09351E+02
 -1      1069-5.18653E+02 5.88604E+02-3.58210E+01 4.22940E+01-2.79310E+02 2.35553E+02
 -1      1070-2.04375E+02-6.01239E+02 8.26239E+01 3.99663E+02 4.32049E+02-2.48595E+02
 -1      1071 7.40651E+02-2.80506E+02 9.47235E+01-1.01700E+02 2.01244E+02-5.41918E+01
 -1      1072 7.72460E+03-2.25451E+03-3.38449E+03-1.08814E+04-1.67928E+03 1.10541E+03
 -1      1073 1.18481E+04 1.02740E+03-4.88223E+03-1.04439E+04-6.55794E+02-4.57291E+03
 -1      1074 7.24822E+03 5.39944E+03-6.37998E+03-1.11475E+04 2.27281E+02-7.55198E+02
 -1      1075 8.87146E+02 5.16648E+03-1.51064E+03-7.25493E+03-1.67846E+02 4.47515E+02
 -1      1076-5.96810E+03 3.08862E+03 3.35871E+03-3.28353E+03-5.62280E+01-4.17802E+03
 -1      1077-1.44615E+04 9.42134E+02 1.67935E+03-1.42820E+03-5.23953E+02 8.75129E+02
 -1      1078-1.80990E+04-9.11618E-03-7.35355E-03 4.02975E+01-3.73468E-03-3.35377E+03
 -1      1079 9.98021E+02 1.00216E-04 3.31488E-04-2.05429E-01-5.07849E-04-3.00080E+02
 -1      1080 1.53306E+02-4.44773E+01-1.79184E+02-6.16043E+01-1.03676E+01-2.02217E+02
 -1      1081-7.67169E+02 4.72284E+01 3.78522E+02-4.48388E+02 4.79466E+01-7.77091E+01
 -1      1082-7.90513E+02 4.04447E+02 1.58802E+02-6.16589E+02 1.77037E+02 2.88403E+02
 -1      1083 1.22847E+02-1.00955E+02-2.76678E+01-8.14983E+01-1.14884E+02 3.84612E+01
 -1      1084-4.59869E+01 1.33204E+00 2.17010E+01-1.15958E+01-1.25670E+01-4.25338E+01
 -1      1085 1.61641E+01 3.35999E+00-9.95210E+00 4.47276E+00 7.01054E+00-4.18198E+01
 -1      1086-6.96477E+01 9.71383E+01-2.13920E+01-8.99383E-01-3.80636E+01-1.84155E+01
 -1      1087 5.54515E+02 2.27713E+02-1.57994E+01-4.06428E+02 2.83835E+02-4.04002E+02
 -1      1088-1.39641E+03 3.56785E+03-8.98715E+02-7.39494E+01 1.67207E+03 4.42704E+02
 -1      1089 1.06437E+04-4.40154E+03-2.53465E+03-9.46832E+03-3.14961E+03 4.02761E+03
 -1      1090 9.65381E+03 1.75383E+03-5.87338E+03-9.76129E+03-8.04521E+02-1.27855E+03
 -1      1091-3.64061E+03 1.96384E+03 2.72113E+03-4.80389E+03-5.48969E+01-2.80613E+03
 -1      1092-1.56365E+04-4.55416E-03-5.03406E-03-2.14931E+02 1.43890E-02-4.91430E+03
 -1      1093 9.71702E+02 1.02971E-04 2.30659E-04-5.54606E-01 4.33045E-04-3.05844E+02
 -1      1094 7.39415E+02 1.03057E+01-8.59373E+01-4.22546E+01 2.67744E+01 5.47045E+01
 -1      1095 5.54646E+01 3.56154E+01-1.71875E+02-8.24865E+01 1.03525E+01-2.63525E+02
 -1      1096-5.43648E+02 4.66122E+01 1.16759E+02-2.01616E+02-6.85236E+00 4.51756E+01
 -1      1097-8.53818E+02 8.06473E+01 4.05393E+02-3.61104E+02 9.48979E+01-6.49080E+01
 -1      1098-1.10841E+03 2.81528E+02 2.61557E+02-2.96750E+02-7.72859E+00-4.75984E+01
 -1      1099-9.33326E+02 5.74303E+02 1.17721E+02 1.77847E+01 3.29010E+00 2.64358E+02
 -1      1100 7.17871E+02-1.37882E+02-7.01116E+01 1.28983E+02 1.64190E+02 1.30617E+02
 -1      1101 1.00869E+03-3.78500E+02-1.61700E+02-3.35504E+02 4.06312E+01 4.60107E+02
 -1      1102 2.66856E+02-3.83035E+01-1.13825E+02-5.35538E+01 4.21340E+00-9.08643E+01
 -1      1103-1.78760E+01 3.93282E+01 2.84756E+01 1.69804E+01-2.45609E-01-3.74004E+01
 -1      1104 2.06873E+00-2.06333E+01 1.15019E+01 3.22542E+01-1.71207E+01-5.13913E+01
 -1      1105-3.79368E+01-8.05257E+01 2.90605E+01 2.24634E+01-3.71676E+01-1.00821E+02
 -1      1106-9.06558E+01 1.05803E+02-2.32455E+01-4.63799E+00-5.80110E+00-1.53252E+02
 -1      1107 1.33725E+02 3.60375E+02-1.39733E+02-2.66181E+02 1.08840E+02-2.89988E+02
 -1      1108 1.39473E+02-4.41340E+02 1.87351E+02 2.46743E+02-1.06471E+02-8.04340E+01
 -1      1109 2.51378E+02-8.53927E+02 2.54568E+01 3.76408E+00 7.63238E+01-3.18552E+02
 -1      1110-3.20593E+03 1.56322E+03 6.51862E+02 3.70094E+02-4.70715E+02-1.74812E+03
 -1      1111-1.17814E+04 1.30363E+04-2.77471E+02 1.30991E+03-4.96803E+03 4.20158E+03
 -1      1112-6.61633E+03 6.13367E+03-1.05088E+03 7.71489E+03-3.38539E+03 2.28524E+03
 -1      1113 1.29563E+04-8.80638E+03-1.68482E+03 1.72134E+02-9.48031E+02 3.83586E+03
 -1      1114 1.37974E+04-3.29072E+03-3.52579E+03-6.02095E+03 3.24084E+02-9.81112E+02
 -1      1115 1.00301E+04 7.14415E+02-5.36677E+03-8.33985E+03-2.19646E+03-7.33063E+02
 -1      1116 5.57954E+03 1.18119E+03-1.64161E+03-7.08591E+03-1.50941E+02 1.06457E+03
 -1      1117-1.76654E+03 8.07966E+02 2.08354E+03-6.26266E+03-2.68139E+02-3.59701E+03
 -1      1118-9.67765E+03 2.96567E+02 1.04177E+03-3.50621E+03-1.64436E+02 8.67810E+02
 -1      1119-1.25377E+04-3.74844E-03-2.87625E-03-3.47076E+02-1.17303E-02-3.41420E+03
 -1      1120 9.33847E+02-1.43074E-04 2.42906E-04-6.55127E+00-3.53892E-04-2.61389E+02
 -1      1121 8.10387E+00 4.25144E+01-1.31301E+02-1.46672E+01 1.58250E+01-2.87030E+02
 -1      1122-8.99308E+02 2.22981E+02 3.76160E+02-3.23723E+02-5.22059E+01-8.75592E+01
 -1      1123-5.44285E+02 3.08520E+02 8.80107E+01 1.22919E+02 1.42728E+02 2.96722E+02
 -1      1124 5.58967E+02-7.85804E+01-1.80860E+02-5.26062E+02 7.92246E+01 1.82279E+02
 -1      1125-6.32802E+03 7.44143E+03 1.05094E+03-3.95540E+03-1.44338E+03 2.91172E+03
 -1      1126 6.17993E+03-5.31213E+03-4.01502E+02 1.72649E+03-3.08816E+03 2.74541E+03
 -1      1127 8.52854E+03-1.55092E+03-3.77271E+03-6.37292E+03 1.10935E+03-1.32835E+03
 -1      1128-4.37311E+02 3.83973E+02 1.07322E+03-5.90525E+03-6.34648E+01-2.55660E+03
 -1      1129-8.11975E+03-4.54903E-04-1.98544E-03-4.95570E+02 1.28590E-02-1.65817E+03
 -1      1130 9.28036E+02-2.56386E-04 3.80824E-04-2.08816E+01 1.83459E-04-2.67675E+02
 -1      1131 7.23146E+02-1.62026E+01-4.53632E+01 9.01511E+00-7.90547E+01 5.29639E+01
 -1      1132-2.39737E+01 9.17951E+00-9.07271E+01 6.41133E+01-1.07665E+01-2.90005E+02
 -1      1133-8.61417E+02 1.73175E+02 1.28100E+02-4.98988E+01 4.47669E+01 4.27918E+01
 -1      1134-9.36000E+02 2.42118E+02 3.46927E+02-3.83891E+02-1.52144E+01 1.59953E+01
 -1      1135-6.59091E+02 1.20493E+02 2.02613E+02-2.10906E+02-3.78283E+01-3.84792E+01
 -1      1136-2.11960E+02 7.14017E+01 5.83005E+01 3.63510E+01-2.51760E+01-3.76600E+01
 -1      1137-2.01941E+02 2.43372E+02-2.27373E+01 2.75547E+01 3.69695E+01 2.12992E+02
 -1      1138-3.81845E+02 5.65039E+02-1.03775E+02 7.89621E+01 1.49539E+02 8.84404E+01
 -1      1139-9.83433E+01 3.87405E+02-1.36120E+02 4.43676E+02 1.70666E+02 1.28588E+02
 -1      1140 3.93011E+00 3.26062E+02-1.68465E+02 4.03080E+02-1.75134E+01 7.61493E+01
 -1      1141 1.32842E+03-7.24684E+03 3.09004E+03 9.22892E+03-2.87914E+02 2.07887E+03
 -1      1142 4.26433E+03-1.07193E+04 2.80442E+03 9.93768E+03-4.14495E+03 2.63924E+03
 -1      1143 8.13874E+03-1.42325E+04 2.51881E+03 1.51333E+03-3.76802E+03 6.71112E+02
 -1      1144 3.87555E+03-8.21285E+03 1.70031E+03 1.51027E+02-3.33672E+03 3.26758E+03
 -1      1145 1.50194E+03-3.73799E+03 8.81812E+02 1.17569E+03 4.43160E+02-6.31155E+02
 -1      1146 5.46440E+03-3.20743E+03-6.48416E+02-2.07767E+03 1.83423E+02-9.93175E+02
 -1      1147 7.37510E+03-2.87586E+03-2.17865E+03-5.05910E+03-3.44684E+02 9.43048E+02
 -1      1148 6.21535E+03-1.24622E+03-1.05787E+03-4.81076E+03-7.20966E+02 1.48194E+03
 -1      1149 3.16797E+02 6.23481E+02 6.29017E+01-5.21654E+03-9.34650E+01-4.75438E+02
 -1      1150-3.94990E+03 3.94185E+02 3.14451E+01-3.48581E+03 5.80273E+02 1.06522E+03
 -1      1151-4.09191E+03 3.59238E-04-5.41971E-03-7.03944E+02-1.00443E-02 8.43006E+02
 -1      1152-3.47916E+02-1.42143E+01 1.63409E+02-4.64589E+02-6.49024E+01-2.69518E+01
 -1      1153-1.53775E+02 1.25761E+02 1.98118E+01 1.43673E+02-5.79272E+01 5.95761E+00
 -1      1154-9.94103E+01 5.03105E+02-1.41347E+02 3.70810E+02-3.37342E+01-6.25185E+01
 -1      1155 2.44782E+01 4.79411E+02-1.73981E+02 4.43303E+02-1.72694E+02-4.68603E+00
 -1      1156 1.00869E+03-1.10034E+04 3.54887E+03 7.83195E+03 3.56122E+03 5.50443E+02
 -1      1157 3.30020E+03-1.54760E+04 3.94737E+03 6.19675E+03 6.06162E+02-8.26735E+02
 -1      1158 1.75250E+03-8.91774E+03 2.73151E+03 4.41789E+03 7.26906E+02-3.73676E+02
 -1      1159 2.29252E+03-3.12220E+02-9.59334E+02-2.13372E+03-1.26487E+03 3.26868E+02
 -1      1160 1.01644E+02-9.46420E+01-2.01086E+01-3.28800E+02-1.40612E+02-2.63663E+01
 -1      1161 1.05353E+01 3.76060E+01-1.93931E+01-1.63114E+01 3.18265E+01 1.20203E+02
 -1      1162-8.59881E+01 1.44766E+02-1.86770E+01 2.57225E+02 4.11662E+01 3.27362E+01
 -1      1163 1.09174E+01 1.89760E+02-9.87980E+01 3.71652E+02-5.81333E+01-6.59055E+01
 -1      1164 1.11661E+02 2.58967E+02-1.78919E+02 4.81025E+02-1.57073E+00 6.39271E+01
 -1      1165 2.77896E+01 3.32276E+02-1.79208E+02 5.18295E+02-1.06816E+02 9.37430E+01
 -1      1166-5.72122E+01 4.21944E+02-1.79497E+02 5.80785E+02-1.33683E+02-7.75947E+01
 -1      1167 2.97423E+03-1.10573E+04 4.00770E+03 8.56368E+03 2.12501E+03-1.04971E+03
 -1      1168 1.44484E+03-1.04055E+04 4.69182E+03 7.55984E+03 1.98111E+03 1.52283E+03
 -1      1169 5.55629E+01-1.04529E+04 5.37593E+03 6.94800E+03 5.61032E+02 9.50559E+02
 -1      1170 2.18145E+03-1.14675E+04 4.97858E+03 6.29415E+03 1.29017E+03-1.02110E+03
 -1      1171 2.98798E+03-1.23887E+04 4.58122E+03 6.70969E+03-7.90981E+01-1.81453E+01
 -1      1172-7.48125E+02-4.76306E+03 2.42061E+03 6.06449E+03 2.66634E+02-2.89145E+02
 -1      1173-2.12575E+03 1.40577E+03 2.59989E+02 2.46493E+03 1.41171E+03-1.56733E+03
 -1      1174-7.38917E-01 6.09841E+01-2.19279E+01 3.33528E+02 1.13792E+02 3.58395E+01
 -1      1175 1.07631E+02 8.76940E+01-5.79840E+01 4.39440E+02-1.95239E+01 3.60571E+01
 -1      1176 1.50881E+02-1.07699E+02-1.58024E+01 5.58115E+02-1.15770E+02-3.45321E+01
 -1      1177-5.78300E+02-8.45899E+02-9.67439E+00 7.55120E+03 9.38387E+02-8.44888E+02
 -1      1178-5.29722E+01-6.15142E+03 1.70313E+03 4.58261E+03 3.65550E+02 2.66284E+02
 -1      1179 1.90034E+03-1.07327E+04 1.66469E+03 2.27206E+03-1.36744E+03 8.33794E+02
 -1      1180 6.72078E+01-3.15120E+01-2.51790E+01 4.04567E+02 7.24112E+01 1.89763E+01
 -1      1181 5.49506E+01-3.65541E+01 1.88861E+01 4.09062E+02-4.47085E+01-1.49924E+00
 -1      1182 1.07388E+02-7.56892E+01 6.29514E+01 4.10794E+02-1.43581E+02 4.99320E+00
 -1      1183 2.79321E+02-3.01576E+02 1.05422E+02 3.30623E+02-9.54826E+01 1.98253E+01
 -1      1184 6.04112E+02-5.92728E+02 1.47892E+02 7.58809E+01-2.81846E+02-8.21285E+01
 -1      1185 1.02876E+03-2.53393E+02-2.00714E+02-1.03101E+03 2.63982E+00-1.88440E+02
 -1      1186 1.56437E+03 4.73541E+02-5.49322E+02-1.98525E+03-5.36463E+02-6.87379E+02
 -1      1187 2.54250E+03 1.39626E+03-2.01868E+03-4.16728E+03 1.37738E+03-6.18392E+02
 -1      1188 1.94550E+03 3.12700E+03-3.48804E+03-6.69274E+03 1.39782E+03-1.06216E+03
 -1      1189-1.91807E+03 7.29228E+03-3.75754E+03-6.59245E+03 2.23939E+03-2.65207E+03
 -1      1190-4.75744E+03 9.67374E+03-4.02705E+03-6.00873E+02 4.62901E+03-7.59080E+02
 -1      1191-3.18710E+03 4.51108E+03-2.99837E+03 2.18330E+03 2.94999E+03 4.36567E+01
 -1      1192-5.13100E+02 7.94225E+02-1.96968E+03 2.62717E+03 3.60810E+03 5.17384E+00
 -1      1193 7.37051E+01 4.06611E+02-1.61076E+03 1.87946E+03 3.54639E+03 2.35533E+02
 -1      1194-4.40706E+02 3.21115E+02-1.25184E+03 1.04185E+03 3.50023E+03-4.56712E+01
 -1      1195 3.66645E+01 2.53462E+01-1.25897E+01 2.74049E+02 3.55923E+01-1.66931E+01
 -1      1196 3.43750E+01-3.70659E+02 3.14756E+01 2.28971E+02 6.45544E+01 2.58685E+01
 -1      1197 2.39158E+02-6.77392E+02 7.39464E+01-7.69064E+01 1.65914E+01 1.29094E+02
 -1      1198 3.90045E+02 4.64829E+02-2.74659E+02-1.16997E+03 1.66996E+02 4.79268E+02
 -1      1199 9.93591E+02 4.63604E+03-1.74402E+03-3.53238E+03-5.32165E+02-5.81962E+02
 -1      1200-1.81665E+03 1.26121E+04-2.01352E+03-1.96439E+03-6.47448E+02-5.28816E+01
 -1      1201-1.47452E+02 1.07321E+04-9.84838E+02 1.37918E+03-1.16792E+03 6.47258E+02
 -1      1202-4.92020E+02 8.85922E+03-6.25913E+02 1.28845E+03-6.71592E+02-1.06960E+03
 -1      1203-5.05107E-05 1.32511E+02-1.84725E-04 5.26169E+01 1.99272E+02 5.28924E-04
 -1      1204-9.21755E-05-1.93337E+02-3.49390E-05 3.42865E+01-1.35045E+01-6.85669E-04
 -1      1205-5.72151E-04-5.22290E+02-1.12274E-04 1.90208E+01-1.27523E+02 5.62261E-04
 -1      1206-6.45939E-04-6.34181E+02-1.95030E-04 4.29334E+00-2.06436E+02-6.09552E-04
 -1      1207-1.37334E-03-6.78953E+02 7.52815E-04-3.72414E+01 6.55917E+01 1.30077E-03
 -1      1208-2.50080E-03-2.63668E+02 3.71320E-04-1.02865E+02-1.37887E+02 3.16618E-04
 -1      1209-5.27052E-03 4.56117E+02 3.95775E-03-1.65870E+02 8.45194E+02 2.76777E-03
 -1      1210-6.53600E-03 2.89658E+03 3.73454E-03-1.56085E+02-1.69515E+01 6.90868E-04
 -1      1211 5.03880E-03 6.14507E+03 3.30373E-03-2.54324E+02 1.91178E+03-4.63043E-04
 -1      1212 5.50992E-03 9.73423E+03 6.95143E-03-7.62186E+02 2.12218E+03 8.12005E-03
 -1      1213-1.02868E-03 1.35450E+04 4.04281E-03-5.61442E+02 9.72698E+02 9.62461E-03
 -1      1214 7.41384E-03 1.43737E+04 5.54695E-03-5.79261E+01 4.57886E+03-5.68124E-03
 -1      1215 6.76526E-03 1.46029E+04 5.40173E-03 5.24041E+01 4.23506E+03 6.81926E-03
 -1      1216-9.78079E-04 1.24983E+04 2.97989E-03 2.41337E+02 3.29962E+03-7.07879E-03
 -1      1217-2.72667E-03 1.06801E+04 4.19994E-03 5.58875E+02 2.23866E+03 4.32951E-03
 -1      1218-3.23486E+01-2.33614E+01-9.65071E+00-3.34168E+01-5.48995E+01-7.47523E+01
 -1      1219-1.28096E+01 6.21175E+00 7.13225E-03 8.26664E-01 3.36768E+00-1.78542E+01
 -1      1220-2.68142E+01 4.43820E+00 7.21338E+00-3.32555E+00 1.35658E+00-2.37124E+01
 -1      1221-2.86518E+01 1.26454E+01-6.70901E+00 3.46153E+00 1.09390E+01 1.25620E+00
 -1      1222-2.78868E+01-3.66252E+00-2.06653E+01-8.10757E+00 1.10157E+01-2.13843E+01
 -1      1223-3.12756E+02 1.65634E+02-1.66205E+01 8.88620E+01 1.02216E+02 4.15201E+02
 -1      1224 2.61849E+00 1.03927E+01-4.83260E+00 3.65823E+00 1.32294E+01-3.53270E+00
 -1      1225-1.64593E+01 1.13461E+01 4.85633E+00-5.16094E+00 1.51389E+01-4.28283E+00
 -1      1226-2.78766E+01 1.84607E+01 4.39772E+00-5.39487E+00 1.15583E+01-8.51948E+00
 -1      1227-3.31507E+01 1.96505E+01 4.16811E+00-1.00571E+01 1.77945E+01 3.28617E+00
 -1      1228-4.21363E+01 2.33432E+01 1.90514E+01-5.56063E+00 4.13124E+00-1.48029E+01
 -1      1229 1.81774E+01 1.75586E+01 2.68488E+01-1.21949E+01-9.81958E-01 2.96363E+01
 -1      1230-1.18049E+01 2.85571E+01-8.89415E+00 1.33697E+00 1.58993E+01-7.88509E+00
 -1      1231-1.33956E+01 3.09412E+01-7.58419E+00 2.95940E+00 1.00716E+01-9.03418E+00
 -1      1232-3.15490E+01 3.95055E+01-3.50117E+00 1.77944E+00 1.36947E+01-6.69608E+00
 -1      1233-3.84519E+01 4.58827E+01-8.03048E-01-4.11719E+00 1.28272E+01 6.54719E+00
 -1      1234-4.37193E+01 5.51519E+01-2.06178E+01-1.79504E+01 4.89649E+01-2.35781E+00
 -1      1235 9.63777E+00 5.55653E+01-4.32715E+01-3.01552E+01 1.18469E+02 2.04083E+00
 -1      1236 6.06885E+00 3.91826E+01-1.63672E+01 9.66791E+00 1.13706E+01 2.35287E+01
 -1      1237-1.69840E+01 4.16427E+01-5.96402E+00 6.72820E+00 4.79879E+00-3.28580E+00
 -1      1238-2.76966E+01 4.59410E+01-8.88674E+00 1.43568E+01-4.52968E+00-6.63035E+00
 -1      1239-6.46098E+01 8.21249E+01-5.97816E+00 1.00512E+01 8.91524E+00-6.14574E+00
 -1      1240-6.73978E+00 4.81565E+01-2.46645E+01-4.15178E+01-4.58535E+01 6.52746E+01
 -1      1241-1.90385E+02 2.55453E+01 2.34210E+02 1.23048E+02-1.13042E+02 2.65242E+02
 -1      1242-4.46861E+01 2.29614E+01-2.00353E+01 1.30113E+01-3.98931E+01 9.32621E+00
 -1      1243 2.96243E+01 1.00294E+01-3.18905E+01 3.33861E+00-2.19032E+01-3.41001E+01
 -1      1244-2.91972E+01 5.02615E+01 3.15885E+00 3.82147E+01 9.24703E+00-3.42789E+01
 -1      1245-1.82619E+01 6.18334E+00 1.86822E+01 7.55838E+01-7.65728E+01 3.70641E+01
 -1      1246-3.72546E+02 4.28756E+02-4.67277E+01 4.66171E+01 3.69696E+02-3.19919E+02
 -1      1247 3.60847E+02 2.01584E+02 3.69171E+02 3.09051E+01 4.64415E+02 1.45014E+02
 -1      1248 3.79267E+02-1.84402E+02 6.00200E+01-1.23196E+02 4.14923E+01 5.37245E+02
 -1      1249 1.98463E+01 1.55317E+01 8.48527E+00 7.58174E+00-1.98075E+01-3.78681E+01
 -1      1250-2.52471E+01-4.23659E+01 5.71235E+01 2.16609E+01 2.28439E+01-1.14084E+02
 -1      1251 9.50814E+00 2.02538E+02-2.17927E+02-1.13664E+02-3.11158E+02 3.26296E+01
 -1      1252-1.65560E+02-4.28759E+02-3.46417E+02-6.20487E+01-1.66107E+02-5.49140E+02
 -1      1253-4.81446E+03 5.25808E+03 6.90912E+01 2.69715E+02-5.78790E+03 4.76371E+03
 -1      1254-8.15596E+00-4.75107E+00-1.00283E+01-1.17462E+01-3.03805E+01-4.33027E+01
 -1      1255-1.76689E+01-1.99793E-01 5.96401E+00-8.72582E+00 5.35058E-01-1.22939E+01
 -1      1256-2.31333E+01 4.87698E+00 5.28386E+00-4.40319E+00 1.87613E+00-1.54289E+01
 -1      1257-2.91315E+01 7.33211E+00 9.80801E+00-3.47549E+00 2.86151E+00-1.14035E+01
 -1      1258-3.97664E+01 9.00331E+00 1.09555E+01-3.40043E+00 1.24199E+00-1.74521E+01
 -1      1259-4.41904E+01 1.05935E+01 9.42106E+00-3.78244E+00 3.64983E+00-1.00448E+01
 -1      1260-5.05377E+01 1.22969E+01 4.91231E+00-5.29935E+00 9.48493E+00-3.84140E+00
 -1      1261-4.05228E+01 1.23528E+01 1.89442E+01-8.14382E+00-3.77682E+00-1.61941E+01
 -1      1262-6.82119E+01 7.57656E+00 3.80382E+00 3.57569E+00 4.52519E+00-1.46881E+01
 -1      1263-1.26632E+02 2.13545E+01 6.26954E+01 2.11565E+01 7.91783E+00 5.04080E+00
 -1      1264-1.44804E+02 1.10853E+02-2.35611E+01 3.24390E+01 7.39310E+01 2.43787E+02
 -1      1265-1.85745E+00 1.00844E+00 2.67389E-01-6.38606E+00-3.25392E+00-5.57733E+00
 -1      1266-2.02184E+01 1.14002E+01 1.81726E+00-5.59131E+00 7.54997E-01-1.00798E+01
 -1      1267-3.97149E+01 1.72142E+01 7.84581E+00-6.76453E+00 3.21810E+00-5.49402E+00
 -1      1268-5.28676E+01 2.10941E+01 1.18223E+01-9.87153E+00 3.33958E+00-5.32455E+00
 -1      1269-3.56107E+01 1.75639E+01-1.17035E+00-1.26358E+00 1.52112E+01 2.31196E+01
 -1      1270-2.66139E+01 8.21192E+01-4.08955E+01 6.23133E+00-7.26447E+00 2.71780E+01
 -1      1271-2.06533E+00 1.16628E+01-3.27522E+00 6.75701E-02 1.01362E+01-3.93902E+00
 -1      1272-1.10122E+01 1.43019E+01-3.51304E+00-2.89366E+00 8.10088E+00-4.46351E+00
 -1      1273-2.09647E+01 1.90095E+01 2.53486E+00-5.19742E+00 1.15760E+01-4.27672E+00
 -1      1274-3.10729E+01 2.28020E+01 3.25507E+00-6.70910E+00 1.02646E+01-2.01245E+00
 -1      1275-4.08331E+01 2.64432E+01 5.49649E+00-8.58108E+00 9.95102E+00-6.41587E+00
 -1      1276-4.64096E+01 2.88170E+01 5.48411E+00-1.04941E+01 1.14116E+01-6.43231E-01
 -1      1277-5.04219E+01 3.00141E+01 6.51275E+00-1.29302E+01 1.31213E+01 2.15015E+00
 -1      1278-4.66616E+01 3.05332E+01 6.10522E+00-1.15118E+01 1.15007E+01-2.85966E+00
 -1      1279-4.26556E+01 2.77359E+01 1.24239E+01-1.33102E+01 1.03419E+01-6.32855E+00
 -1      1280-2.01632E+01 1.15153E+01-1.52037E+00-1.81842E+01 2.29589E+01 2.52177E+01
 -1      1281 1.20906E+00 3.56426E+01 1.22201E+01-1.66505E+01-3.62558E-01 2.59430E+01
 -1      1282-6.42140E+00 2.91513E+01-6.53962E+00 2.03692E+00 7.98612E+00-2.30919E+00
 -1      1283-2.16113E+01 3.26749E+01-3.87423E+00 1.71861E-02 5.55659E+00-6.09280E+00
 -1      1284-4.33324E+01 4.15414E+01 6.42979E-01-2.61692E+00 5.20045E+00-5.43172E+00
 -1      1285-5.33225E+01 4.88650E+01 1.38261E+00-1.00873E+01 5.33103E+00 1.74304E+00
 -1      1286-4.50524E+01 5.02694E+01-1.59812E+00-2.28949E+01 9.13572E+00 4.42773E+00
 -1      1287-7.42950E+00 3.77421E+01-2.37119E+01-6.73160E+00 3.05626E+01-1.52542E+01
 -1      1288-1.10668E+01 4.20419E+01-1.23861E+01 2.66766E+00 1.31271E+01-4.55704E+00
 -1      1289-1.64640E+01 4.31429E+01-1.00822E+01 3.51610E+00 1.02385E+01 2.41341E-01
 -1      1290-2.20874E+01 4.59794E+01-9.43225E+00 4.38863E+00 8.58598E+00-7.07666E+00
 -1      1291-3.34582E+01 5.09477E+01-6.42218E+00 2.94955E+00 9.88529E+00-1.94514E+00
 -1      1292-4.61021E+01 5.77681E+01-4.65980E+00 2.41564E+00 1.03135E+01-4.90751E+00
 -1      1293-5.39418E+01 6.32843E+01-3.20888E+00-1.30711E+00 1.12292E+01 5.02538E-01
 -1      1294-5.93335E+01 6.90906E+01-3.32698E+00-6.81655E+00 1.24293E+01 3.77471E+00
 -1      1295-5.60144E+01 7.28005E+01-9.31107E+00-1.62488E+01 1.82883E+01 2.24913E-01
 -1      1296-4.93948E+01 7.13970E+01-1.60979E+01-3.10470E+01 2.95597E+01 6.06421E+00
 -1      1297-3.00448E+01 6.51958E+01-1.06716E+00-2.33991E+01 1.29644E+01 1.50901E+01
 -1      1298-1.49087E+01 7.24532E+01-4.33417E+01-1.09834E+01 9.02297E+01-6.19985E+00
 -1      1299-1.23142E+01 4.84419E+01-1.38839E+01 2.90967E+00 8.61685E+00 1.44910E+00
 -1      1300-2.22454E+01 5.23573E+01-1.07025E+01 7.64207E+00 4.19842E+00-4.24480E+00
 -1      1301-4.48152E+01 6.61538E+01-8.52967E+00 1.11959E+01 3.33898E+00-6.15624E+00
 -1      1302-7.54154E+01 8.80750E+01-5.62338E+00 3.71198E+00 2.81519E+00-1.55763E+00
 -1      1303-5.27794E+01 1.03713E+02-1.70822E+01-3.32506E+01-7.22889E+00 2.68234E+01
 -1      1304-3.18721E+01 1.11083E+02 3.64380E-01-8.21731E+00 2.72507E+01 4.05682E+01
 -1      1305-1.14904E+01 5.45672E+01-1.65198E+01 3.21004E+00 9.70918E+00 1.20027E+01
 -1      1306-1.56456E+01 5.54275E+01-1.61279E+01 5.69728E+00 9.38081E-01-1.58030E+00
 -1      1307-1.94617E+01 5.99852E+01-1.31999E+01 1.10008E+01 2.22257E+00-3.02267E+00
 -1      1308-2.97173E+01 6.30993E+01-1.26907E+01 1.76457E+01 1.12838E+00-7.67991E-01
 -1      1309-4.23465E+01 7.06661E+01-1.10349E+01 2.18153E+01-1.85124E+00-7.37933E+00
 -1      1310-6.22695E+01 9.33092E+01-1.10443E+01 1.91623E+01 4.15415E+00 1.23744E+00
 -1      1311-9.21441E+01 1.18774E+02-9.54810E+00 1.55167E+01 5.21435E+00-2.71613E+00
 -1      1312-8.28363E+01 1.10896E+02-8.90993E+00 6.45648E+00 2.14904E+00 1.06361E+01
 -1      1313-6.35158E+01 1.05582E+02-1.67282E+01-3.17336E+01-1.57262E+01 3.59633E+01
 -1      1314-6.46154E+01 1.85606E+02-4.16313E+01-4.18493E+01 7.65088E+01 5.07365E+00
 -1      1315-6.36954E+01 1.65987E+02 8.55891E+01-2.31448E+01-3.91370E+01 1.75689E+02
 -1      1316-1.55252E+01 5.06311E+01-1.17546E+01-3.05059E+00-8.07278E+00-1.15715E+01
 -1      1317-5.50311E+00 4.77525E+01-1.95212E+01 1.38246E+01-9.24576E-01-6.13914E+00
 -1      1318-4.04135E+01 6.32219E+01-5.74097E+00 3.49351E+01 3.24422E+00-1.21330E+01
 -1      1319-7.56306E+01 1.01762E+02-1.27051E+01 3.30013E+01-8.56390E+00 5.00768E-01
 -1      1320-1.50274E+02 1.62976E+02 1.59734E+01 3.58389E+01 6.58675E+01-9.16262E+00
 -1      1321-5.33607E+01 1.00327E+02-1.50982E+02-9.92010E+01 2.07170E+02-1.62235E+02
 -1      1322-1.64303E+01 2.41309E+01-2.12660E+01 3.47573E+00-3.73050E+01 1.23275E+01
 -1      1323-2.04090E+00 4.65495E+01-1.34725E+01 1.01944E+01-3.24317E+00 2.91913E+01
 -1      1324 1.21876E+01 2.95506E+01-2.61396E+01 1.24053E+01-1.05542E+01-2.06026E+01
 -1      1325-1.13487E+01 3.79978E+01-9.70091E+00 3.23998E+01-7.30736E+00-1.27279E+01
 -1      1326-3.10781E+01 5.12234E+01-2.26501E+00 5.64072E+01-2.64431E+00-2.03168E+01
 -1      1327-5.81028E+01 5.75319E+01 3.22227E-01 7.21978E+01-3.07160E+01 9.16879E+00
 -1      1328-5.98419E+01 7.16288E+01-8.93206E-01 8.53757E+01-4.53151E+01 1.05276E+01
 -1      1329-1.20609E+02 1.71722E+02-4.61050E+01 3.50234E+01 1.09721E+01-5.52802E+01
 -1      1330-2.23193E+02 2.63023E+02-3.13509E+01 4.98153E+01 1.65930E+02-1.34290E+02
 -1      1331-1.19794E+02 1.02664E+02 1.02649E+02 1.65989E+02-2.47151E+02 3.74325E+02
 -1      1332-3.42033E+00 7.05044E+02 8.73101E+01 1.36354E+02 3.88856E+02 1.09671E+02
 -1      1333 2.74260E+01-6.35344E+01 3.92254E+01-2.05774E+01-4.11075E+01 3.22309E+01
 -1      1334 2.00240E+01 8.34538E+00 5.63922E+00 1.62138E+00 1.38115E+01 9.58655E+00
 -1      1335-5.77067E+00 2.01694E+01-1.56030E+01 4.42833E+01-1.66780E+01-1.78700E+01
 -1      1336-1.22281E+02 5.98586E+01 1.74686E+01 7.88678E+01-8.11387E-01-7.18578E+01
 -1      1337-3.56015E+01 1.23697E+02-1.00562E+02-8.93477E+01-4.11835E+02 2.06237E+02
 -1      1338-4.80583E+02 2.08003E+03-1.06997E+03 1.84158E+02 8.81571E+01 2.68497E+02
 -1      1339 1.73102E+02-1.28681E+02 5.11891E+01-4.77404E+01 3.52053E+01 3.21583E+02
 -1      1340 1.46384E+02-2.56024E+01-7.32498E+01-3.12241E+01-7.29607E+00 1.22326E+01
 -1      1341 6.18896E+01-8.89338E+00-8.76497E+00-4.38569E-01-1.73670E+01-3.12827E+01
 -1      1342 4.03908E+00-8.70544E+00-2.69919E+00 2.06345E+01-4.61098E+00-5.71690E+01
 -1      1343-1.41809E+01-4.64327E+00 3.72924E+01 2.25315E+01 1.97400E+01-9.41995E+01
 -1      1344-5.51356E+01 1.51572E+01-6.91677E+00 2.05273E+01-4.43910E+01-5.60026E+01
 -1      1345-1.01989E+02 4.79396E+01-8.55772E+01 3.50502E+01-1.95969E+02-1.15276E+01
 -1      1346-4.46871E+01 2.61704E+01 1.14186E+02 1.17586E+02 1.67429E+02-2.55325E+02
 -1      1347-5.94988E+02-2.67408E+01-1.16296E+02-9.93009E+01-1.40925E+02-4.69147E+02
 -1      1348-1.93880E+03 4.89935E+02 1.01346E+03-6.23057E+01-3.07318E+02-2.19720E+02
 -1      1349-2.65084E+03 2.75332E+03 7.46107E+01 9.56114E+01-3.53729E+03 2.95999E+03
 -1      1350-6.32804E+00-3.38278E+00-1.10452E+00-1.05455E+01-9.22285E+00-1.57415E+01
 -1      1351-2.99252E+01 6.46368E+00 8.89639E+00-7.53890E+00 1.57334E+00-8.38119E+00
 -1      1352-5.13165E+01 1.25817E+01 1.54680E+01-6.27245E+00 1.83210E+00-9.23360E+00
 -1      1353-6.55725E+01 1.64201E+01 1.92014E+01-8.23924E+00 4.18969E+00-8.15315E+00
 -1      1354-8.73616E+01 1.28286E+01 2.36372E+01 5.56404E+00 3.22531E+00-1.65624E+01
 -1      1355-1.20076E+02 9.65904E+01-1.73797E+00 2.40095E+01 3.34440E+01 8.98557E+01
 -1      1356-3.95423E+00 1.49612E+01-3.70582E+00-5.28924E-01 6.99317E+00-2.58252E+00
 -1      1357-2.73386E+01 2.52301E+01 7.57619E-01-6.79824E+00 5.77873E+00-4.60751E+00
 -1      1358-5.42308E+01 3.47700E+01 6.97279E+00-1.09856E+01 6.24536E+00-3.42833E+00
 -1      1359-6.74660E+01 3.99020E+01 8.99376E+00-1.69369E+01 7.95548E+00 4.34931E-01
 -1      1360-5.35244E+01 3.51333E+01 7.76901E+00-1.81647E+01 9.59364E+00 4.38407E+00
 -1      1361-4.35500E+00 4.08980E+01-8.49639E+00-1.70694E+01 4.56153E+00 9.73317E+00
 -1      1362-1.46845E+01 5.62611E+01-1.49001E+01 4.27949E+00 8.70465E+00-2.01181E+00
 -1      1363-2.94694E+01 6.06337E+01-1.18319E+01 5.58549E+00 5.33172E+00-3.69387E+00
 -1      1364-6.08715E+01 7.64178E+01-5.79245E+00 3.11672E+00 6.07916E+00-3.18646E+00
 -1      1365-7.90188E+01 9.10763E+01-5.54130E+00-9.70194E+00 8.55588E+00 2.60500E+00
 -1      1366-6.37701E+01 9.64972E+01-1.21403E+01-3.92712E+01 1.19375E+01 6.37595E+00
 -1      1367-2.09269E+01 7.95097E+01-4.06895E+01-1.91318E+01 4.73693E+01-3.39718E-01
 -1      1368-1.69708E+01 7.21364E+01-2.00812E+01 3.19847E+00 3.60747E+00 8.92062E-01
 -1      1369-2.50422E+01 7.85670E+01-2.05864E+01 1.48096E+01 1.26657E+00-3.33535E+00
 -1      1370-5.63883E+01 9.42685E+01-1.35785E+01 2.94304E+01-1.86497E+00-5.66272E+00
 -1      1371-1.19223E+02 1.53807E+02-1.37253E+01 2.07167E+01 5.86736E+00-4.58635E+00
 -1      1372-9.33088E+01 1.55376E+02-7.08681E+00-3.70235E+01-2.67404E+00 1.39239E+01
 -1      1373-6.97821E+01 2.07406E+02-6.93291E+01-4.80218E+01 6.94695E+01 3.86155E+01
 -1      1374-1.64108E+01 3.60012E+01-1.53559E+01-2.00651E+00-2.49734E+01 7.29502E+00
 -1      1375 1.18524E+01 4.17616E+01-2.22979E+01 1.70718E+01-5.50542E+00-3.12129E+00
 -1      1376-4.11133E+01 6.53541E+01-7.78111E+00 7.26771E+01-7.10440E+00-9.07260E+00
 -1      1377-9.30885E+01 1.05167E+02-2.00699E+01 1.06289E+02-1.67343E+01 1.26915E+00
 -1      1378-2.42995E+02 2.91236E+02-1.94848E+01 6.41763E+01-1.34101E+01 8.59335E+00
 -1      1379-6.62123E+01 8.66323E+02-1.95093E+02 1.49208E+02 3.50981E+02 7.25238E+01
 -1      1380 1.46213E+02-1.09935E+02 7.15831E+00-4.28983E+01 1.55817E+01 1.22990E+02
 -1      1381 8.17667E+01-1.17024E+01-2.19963E+01-1.95628E+00-4.11686E+00-3.46316E+01
 -1      1382-3.04264E+00-1.81057E+00 1.59524E+01 3.68394E+01 1.23089E+00-5.94822E+01
 -1      1383-1.26575E+02 4.77014E+01 4.13370E+01 7.38034E+01-4.24216E+01-8.59674E+01
 -1      1384-7.23976E+02 3.64114E+01 1.46309E+02-7.83345E+01-8.58636E+01-3.80725E+02
 -1      1385-2.25555E+03 2.32991E+03 7.04350E+00 8.39476E+01-1.35908E+03 1.16305E+03
 -1      1386-5.07988E+00-3.52321E+00 8.62630E-02-1.05605E+01-3.22141E+00-7.80827E+00
 -1      1387-2.11270E+01 6.74583E-01 7.75312E+00-1.25363E+01 2.58516E+00-2.21248E+00
 -1      1388-3.68423E+01 7.85941E+00 1.09002E+01-1.10347E+01-1.95587E-01-4.86294E+00
 -1      1389-4.87889E+01 1.21225E+01 1.38588E+01-8.80211E+00 9.58352E-01-1.45125E+00
 -1      1390-6.30334E+01 1.55643E+01 1.98525E+01-9.50343E+00 1.99009E+00-3.55714E+00
 -1      1391-7.45218E+01 1.84049E+01 1.96411E+01-1.02980E+01 1.62892E+00-2.39328E+00
 -1      1392-8.02077E+01 2.03480E+01 2.42564E+01-1.12053E+01 3.13485E+00-6.97878E+00
 -1      1393-7.65921E+01 2.16308E+01 2.14360E+01-1.02960E+01 1.65056E-01 1.93073E+00
 -1      1394-1.08817E+02 1.65483E+01 2.90772E+01 6.31978E+00 4.04739E+00-3.53907E+00
 -1      1395-1.21142E+02 1.86592E+01 4.71149E+01 1.78634E+01-2.11843E+00 4.01290E-01
 -1      1396-1.01422E+02 8.35747E+01-8.53006E-01 1.75251E+01 2.55873E+01 5.52904E+01
 -1      1397-2.82540E+00 3.12046E+00 1.89057E-01-7.51647E+00-2.41814E+00-2.97312E-01
 -1      1398-3.36698E+01 1.72780E+01 6.10490E+00-1.09224E+01-1.28951E+00-1.57557E+00
 -1      1399-6.45842E+01 2.67044E+01 1.51160E+01-1.24945E+01-5.47048E-01-6.21023E-01
 -1      1400-8.31073E+01 3.31879E+01 2.11365E+01-1.65778E+01-8.06322E-01-2.27337E+00
 -1      1401-7.26938E+01 2.53203E+01 1.64805E+01-6.92376E+00 4.16795E+00 8.63428E+00
 -1      1402-2.54361E+01 7.43495E+01-2.49821E+01 1.49812E+00-6.11911E-01-4.70547E+00
 -1      1403-5.42030E+00 1.75313E+01-4.85888E+00-1.26646E+00 2.52520E+00-3.69273E+00
 -1      1404-1.75144E+01 2.25977E+01-2.74030E+00-5.48028E+00 2.51695E+00-6.08221E-01
 -1      1405-3.35576E+01 3.13308E+01 1.21065E+00-8.45574E+00 2.70248E+00-2.76201E+00
 -1      1406-5.11572E+01 3.71379E+01 5.51282E+00-1.07030E+01 2.57533E+00 5.39955E-01
 -1      1407-6.77297E+01 4.28855E+01 9.09971E+00-1.35676E+01 2.38387E+00-2.47573E+00
 -1      1408-7.71604E+01 4.72005E+01 1.13310E+01-1.69185E+01 3.64671E+00-3.31227E-01
 -1      1409-8.48413E+01 4.94168E+01 1.22393E+01-2.11371E+01 4.89531E+00 6.05906E-01
 -1      1410-7.89339E+01 4.89252E+01 1.23252E+01-2.25416E+01 1.40103E+00-2.99645E+00
 -1      1411-6.41730E+01 4.26056E+01 9.61025E+00-2.34714E+01 1.10177E+00 2.26322E-01
 -1      1412-3.27190E+01 2.55206E+01 2.53873E-01-1.99664E+01 8.09568E+00 5.21845E+00
 -1      1413-8.90534E+00 4.39862E+01-7.51871E+00-1.53345E+01 9.69554E+00 1.19954E+01
 -1      1414-1.19176E+01 4.60413E+01-1.29123E+01 4.10434E+00-6.32027E-01-1.68309E+00
 -1      1415-3.55135E+01 5.38403E+01-6.73796E+00-3.80348E-02-9.41168E-01-2.25837E+00
 -1      1416-7.14407E+01 6.84629E+01 9.61438E-01-4.47702E+00-1.21008E+00-2.58477E+00
 -1      1417-8.95401E+01 8.03963E+01 2.86126E+00-1.67818E+01-2.51205E+00 1.60609E+00
 -1      1418-6.91607E+01 8.05539E+01-4.44760E+00-3.68248E+01-1.03733E+00-2.49818E-01
 -1      1419-1.73422E+01 5.97118E+01-1.89301E+01-1.93458E+01-4.35770E+00 4.78480E+00
 -1      1420-1.82394E+01 7.04700E+01-1.88977E+01 5.87870E+00 4.80148E+00-8.28499E-01
 -1      1421-2.61417E+01 7.13653E+01-1.72737E+01 6.11632E+00 2.38572E+00 1.11600E+00
 -1      1422-3.68833E+01 7.55374E+01-1.50934E+01 6.82747E+00 1.99659E+00-1.99277E+00
 -1      1423-5.53129E+01 8.37946E+01-1.11010E+01 4.92030E+00 3.06956E+00 7.46765E-01
 -1      1424-7.56938E+01 9.50946E+01-7.22522E+00 3.81043E+00 3.33182E+00-2.35574E+00
 -1      1425-8.93711E+01 1.04324E+02-5.95112E+00-2.83656E+00 3.00180E+00 8.48683E-01
 -1      1426-9.92929E+01 1.13627E+02-6.52776E+00-1.26158E+01 2.51326E+00 3.13846E+00
 -1      1427-9.54961E+01 1.21301E+02-9.56080E+00-2.70246E+01 8.14225E+00-3.42184E+00
 -1      1428-7.78957E+01 1.20603E+02-1.42256E+01-4.80027E+01 1.37135E+01-9.23767E-01
 -1      1429-4.52103E+01 1.00900E+02-2.39131E+01-4.36324E+01 1.85543E+00 4.17815E-01
 -1      1430-2.52465E+01 8.79753E+01-4.81647E+01-3.10551E+01 1.65513E+01 1.01527E+00
 -1      1431-2.16876E+01 8.19356E+01-2.42736E+01 5.24344E+00 5.04446E-01-6.24057E-01
 -1      1432-3.58332E+01 8.81173E+01-1.97683E+01 1.24622E+01 8.05006E-01-1.65236E+00
 -1      1433-7.46633E+01 1.09759E+02-1.36705E+01 1.87501E+01-9.66906E-01-2.38114E+00
 -1      1434-1.21144E+02 1.48936E+02-9.31032E+00 4.17814E+00-2.55091E-01-5.25527E+00
 -1      1435-9.67494E+01 1.63882E+02-2.86800E+01-4.90114E+01-5.85241E+00 1.08112E+01
 -1      1436-4.67507E+01 1.83642E+02-2.40716E+01-4.80954E+01 1.47291E+01 3.95015E+00
 -1      1437-2.18167E+01 9.09719E+01-2.65105E+01 3.77125E+00-2.19838E-01-1.72722E+00
 -1      1438-2.52605E+01 9.26032E+01-2.58660E+01 1.01458E+01-1.73817E+00-6.36313E-01
 -1      1439-3.01424E+01 9.70827E+01-2.56981E+01 1.85547E+01 1.72120E+00-1.77521E+00
 -1      1440-4.87559E+01 1.04210E+02-2.07286E+01 2.79273E+01-8.23744E-01 2.98905E+00
 -1      1441-7.09859E+01 1.18657E+02-1.73530E+01 3.70564E+01-4.78671E+00-2.29949E+00
 -1      1442-1.05803E+02 1.50686E+02-1.89466E+01 3.38517E+01 4.50806E+00 2.65067E-01
 -1      1443-1.45809E+02 1.88612E+02-1.72617E+01 2.58293E+01 1.08246E+01-1.04995E+01
 -1      1444-1.35443E+02 1.97236E+02-2.08001E+01-2.22065E+00-9.38120E+00 9.77851E+00
 -1      1445-1.24494E+02 2.10233E+02-1.79005E+01-4.41830E+01-2.39987E+01 1.99307E+01
 -1      1446-1.07647E+02 2.49501E+02-8.05902E+01-5.89783E+01 5.11172E+01-4.87192E+00
 -1      1447-8.10781E+01 2.35028E+02-7.72168E+01-6.74714E+01 9.09391E+01 1.75872E+01
 -1      1448-2.08834E+01 8.54456E+01-2.40336E+01-2.10895E+00 2.47932E+00 2.26581E+00
 -1      1449-1.26425E+01 7.78854E+01-2.59901E+01 2.07495E+01-2.05051E+00-1.80545E+00
 -1      1450-6.63241E+01 1.08075E+02-1.62890E+01 5.88084E+01 4.79513E+00-6.21985E+00
 -1      1451-1.38347E+02 1.68143E+02-1.30146E+01 6.70523E+01-8.27110E+00 7.69905E+00
 -1      1452-2.05241E+02 3.05741E+02-4.54357E+01 7.20091E-03 5.32873E+01-2.66788E+01
 -1      1453-1.29314E+02 2.84444E+02-7.27295E+01-8.12090E+01-6.47819E+01-4.03499E+00
 -1      1454-1.76565E+01 4.88018E+01-2.01521E+01-1.03143E+01-9.77466E+00 1.41099E+01
 -1      1455-4.86304E+00 6.68592E+01-2.27297E+01 3.55418E+00 2.58450E+00 9.24066E+00
 -1      1456 1.07058E+01 5.41263E+01-2.76912E+01 2.21274E+01-8.68390E+00-4.23674E+00
 -1      1457-1.30883E+01 6.22505E+01-2.04014E+01 5.86299E+01-4.36247E+00-6.26117E+00
 -1      1458-4.98023E+01 7.91973E+01-1.19746E+01 8.98850E+01 7.92488E-01-1.14996E+01
 -1      1459-8.93030E+01 1.04640E+02-3.59288E+00 1.12175E+02-1.13812E+01 4.74072E+00
 -1      1460-1.31653E+02 1.40659E+02-1.60136E+01 1.29603E+02-2.19573E+01 1.78749E+01
 -1      1461-2.35801E+02 2.38278E+02 1.50503E+00 1.10977E+02 2.16290E+01-5.54453E+01
 -1      1462-2.59470E+02 3.15073E+02-2.47226E+01 7.89040E+01 5.71768E+01-6.49256E+01
 -1      1463-1.50373E+02 4.11781E+02-7.81314E+01 1.21874E+02-1.08292E+02 1.13582E+02
 -1      1464-1.08659E+02 1.05456E+03-2.17529E+02 1.30775E+02 9.08899E+01 1.16363E+02
 -1      1465 2.57095E+01-3.64802E+01 1.35702E+01-2.95926E+01-7.77042E+00-9.21497E+00
 -1      1466 5.15821E+01 1.81427E+01-2.12391E+01 8.37341E+00 6.57417E+00 4.74718E+00
 -1      1467-9.46792E+00 3.00192E+01-8.63102E+00 7.87710E+01-5.45986E-01-3.17931E+00
 -1      1468-1.51803E+02 9.86204E+01 4.21158E+01 1.27854E+02 9.16198E+00-4.26837E+01
 -1      1469-2.92123E+02 1.59867E+02 3.63637E+01 2.48774E+01-1.27233E+02 1.11468E+02
 -1      1470-4.28649E+02 1.85949E+03-7.25419E+02 1.75739E+02 7.68413E+00-1.03748E+02
 -1      1471 1.28426E+02-9.19342E+01 1.19388E+00-4.23057E+01 2.08780E+01 7.26214E+01
 -1      1472 1.42619E+02-2.01944E+01-5.94659E+01-3.27488E+01-6.56820E+00 2.34727E+00
 -1      1473 1.07464E+02-1.35240E+01-2.73743E+01-2.68913E+00-2.37369E+00-1.45875E+01
 -1      1474 2.51638E+01-1.15779E+01-4.25734E+00 3.56382E+01-8.30425E+00 7.00742E+00
 -1      1475 6.50121E+00-1.24370E+00 1.76465E+01 5.50209E+01-2.29400E+00-2.82577E+01
 -1      1476-8.12027E+01 1.97306E+01-8.87288E-02 7.90910E+01-4.62620E+00-2.22718E+01
 -1      1477-1.36575E+02 5.35094E+01 4.16378E+01 1.08248E+02-1.44058E+01-8.98191E+01
 -1      1478-1.72922E+02 9.61827E+01 4.30517E+01 1.34932E+02-7.15281E+00 4.14173E+01
 -1      1479-8.73812E+02 7.70070E+01 1.61934E+02-2.14897E+01-1.49285E+02-1.13164E+02
 -1      1480-1.71436E+03 4.34266E+02 6.64357E+02-1.66632E+01 1.21640E+02-4.30502E+01
 -1      1481-1.93686E+03 1.99641E+03 1.58519E+00 8.11509E+01-8.87417E+02 7.94851E+02
 -3
    1PSTEP                        36           1           1          
    1PGM                1.000000E+00                                  
    1PGK                2.003583E+12                                  
    1PHID                         -1                                  
    1PSUBC                         0                                  
    1PMODE                         9                                  
  100CL  109 225280.6251        1481                     2    9MODAL      1
 -4  ERROR       1    1
 -5  STR(%)      1    1    0    0
 -1         1 1.95198E+01
 -1         2 1.95198E+01
 -1         3 1.95198E+01
 -1         4 1.48773E+01
 -1         5 1.02348E+01
 -1         6 8.45154E+00
 -1         7 6.66825E+00
 -1         8 1.44844E+01
 -1         9 2.23005E+01
 -1        10 2.23005E+01
 -1        11 2.23005E+01
 -1        12 1.95198E+01
 -1        13 1.95198E+01
 -1        14 1.15658E+01
 -1        15 9.78253E+00
 -1        16 2.23005E+01
 -1        17 2.23005E+01
 -1        18 1.95198E+01
 -1        19 1.95198E+01
 -1        20 1.95198E+01
 -1        21 1.62083E+01
 -1        22 1.28968E+01
 -1        23 1.28968E+01
 -1        24 1.28968E+01
 -1        25 1.75987E+01
 -1        26 2.23005E+01
 -1        27 2.23005E+01
 -1        28 2.23005E+01
 -1        29 1.58431E+01
 -1        30 1.61532E+01
 -1        31 1.28968E+01
 -1        32 1.28968E+01
 -1        33 1.83204E+01
 -1        34 1.83204E+01
 -1        35 1.21664E+01
 -1        36 1.24765E+01
 -1        37 1.27866E+01
 -1        38 1.28417E+01
 -1        39 1.28968E+01
 -1        40 1.28968E+01
 -1        41 1.28968E+01
 -1        42 1.36185E+01
 -1        43 1.43402E+01
 -1        44 1.43402E+01
 -1        45 1.43402E+01
 -1        46 1.01790E+01
 -1        47 1.07785E+01
 -1        48 1.15237E+01
 -1        49 1.28060E+01
 -1        50 1.35898E+01
 -1        51 1.35898E+01
 -1        52 8.19168E+00
 -1        53 8.48108E+00
 -1        54 8.77047E+00
 -1        55 9.46049E+00
 -1        56 1.01505E+01
 -1        57 1.14328E+01
 -1        58 1.27152E+01
 -1        59 1.27773E+01
 -1        60 1.28394E+01
 -1        61 1.28394E+01
 -1        62 1.28394E+01
 -1        63 1.30176E+01
 -1        64 1.33070E+01
 -1        65 1.25523E+01
 -1        66 1.38347E+01
 -1        67 1.84782E+01
 -1        68 1.84782E+01
 -1        69 1.78436E+01
 -1        70 1.78436E+01
 -1        71 1.78436E+01
 -1        72 1.63989E+01
 -1        73 1.49542E+01
 -1        74 1.49542E+01
 -1        75 1.49542E+01
 -1        76 1.95356E+01
 -1        77 2.41170E+01
 -1        78 2.41170E+01
 -1        79 2.41170E+01
 -1        80 1.78436E+01
 -1        81 1.78436E+01
 -1        82 1.49542E+01
 -1        83 1.49542E+01
 -1        84 2.41170E+01
 -1        85 2.41170E+01
 -1        86 1.78436E+01
 -1        87 1.78436E+01
 -1        88 1.78436E+01
 -1        89 1.63989E+01
 -1        90 1.49542E+01
 -1        91 1.49542E+01
 -1        92 1.49542E+01
 -1        93 1.95356E+01
 -1        94 2.41170E+01
 -1        95 2.41170E+01
 -1        96 2.41170E+01
 -1        97 2.02615E+01
 -1        98 2.02615E+01
 -1        99 1.17421E+01
 -1       100 1.21578E+01
 -1       101 2.25217E+01
 -1       102 2.25217E+01
 -1       103 2.02615E+01
 -1       104 2.02615E+01
 -1       105 1.32967E+01
 -1       106 1.52721E+01
 -1       107 2.25217E+01
 -1       108 2.25217E+01
 -1       109 1.39848E+01
 -1       110 1.42949E+01
 -1       111 1.32967E+01
 -1       112 1.44251E+01
 -1       113 1.74337E+01
 -1       114 1.74337E+01
 -1       115 1.40449E+01
 -1       116 1.43343E+01
 -1       117 1.24144E+01
 -1       118 1.71338E+01
 -1       119 1.80244E+01
 -1       120 1.80244E+01
 -1       121 1.98483E+01
 -1       122 2.27754E+01
 -1       123 2.13307E+01
 -1       124 2.01475E+01
 -1       125 2.47290E+01
 -1       126 2.41170E+01
 -1       127 1.98483E+01
 -1       128 2.27754E+01
 -1       129 2.13307E+01
 -1       130 2.01475E+01
 -1       131 2.47290E+01
 -1       132 2.41170E+01
 -1       133 2.10031E+01
 -1       134 2.10031E+01
 -1       135 2.10031E+01
 -1       136 1.71263E+01
 -1       137 1.32494E+01
 -1       138 1.54484E+01
 -1       139 1.76474E+01
 -1       140 2.01951E+01
 -1       141 2.27428E+01
 -1       142 2.27428E+01
 -1       143 2.27428E+01
 -1       144 2.10031E+01
 -1       145 2.10031E+01
 -1       146 1.34730E+01
 -1       147 1.76474E+01
 -1       148 2.27428E+01
 -1       149 2.27428E+01
 -1       150 2.10031E+01
 -1       151 2.10031E+01
 -1       152 2.10031E+01
 -1       153 1.73498E+01
 -1       154 1.36966E+01
 -1       155 1.56720E+01
 -1       156 1.76474E+01
 -1       157 2.01951E+01
 -1       158 2.27428E+01
 -1       159 2.27428E+01
 -1       160 2.27428E+01
 -1       161 1.84031E+01
 -1       162 1.84031E+01
 -1       163 1.36966E+01
 -1       164 1.68004E+01
 -1       165 2.16350E+01
 -1       166 2.16350E+01
 -1       167 1.58032E+01
 -1       168 1.58032E+01
 -1       169 1.58032E+01
 -1       170 1.47499E+01
 -1       171 1.36966E+01
 -1       172 1.48249E+01
 -1       173 1.59533E+01
 -1       174 1.82403E+01
 -1       175 2.05272E+01
 -1       176 2.05272E+01
 -1       177 2.05272E+01
 -1       178 1.78506E+01
 -1       179 1.78506E+01
 -1       180 1.41874E+01
 -1       181 1.87529E+01
 -1       182 2.18683E+01
 -1       183 2.18683E+01
 -1       184 1.98981E+01
 -1       185 1.98981E+01
 -1       186 1.98981E+01
 -1       187 1.72881E+01
 -1       188 1.46782E+01
 -1       189 1.81153E+01
 -1       190 2.15524E+01
 -1       191 2.23809E+01
 -1       192 2.32093E+01
 -1       193 2.32093E+01
 -1       194 2.32093E+01
 -1       195 2.08756E+01
 -1       196 2.38027E+01
 -1       197 2.11927E+01
 -1       198 2.34467E+01
 -1       199 2.42751E+01
 -1       200 2.36632E+01
 -1       201 2.18531E+01
 -1       202 2.47802E+01
 -1       203 2.77073E+01
 -1       204 2.77073E+01
 -1       205 2.77073E+01
 -1       206 2.65241E+01
 -1       207 2.53409E+01
 -1       208 2.53409E+01
 -1       209 2.53409E+01
 -1       210 2.47290E+01
 -1       211 2.41170E+01
 -1       212 2.18531E+01
 -1       213 2.77073E+01
 -1       214 2.77073E+01
 -1       215 2.53409E+01
 -1       216 2.53409E+01
 -1       217 2.41170E+01
 -1       218 2.18531E+01
 -1       219 2.47802E+01
 -1       220 2.77073E+01
 -1       221 2.77073E+01
 -1       222 2.77073E+01
 -1       223 2.65241E+01
 -1       224 2.53409E+01
 -1       225 2.53409E+01
 -1       226 2.53409E+01
 -1       227 2.47290E+01
 -1       228 2.41170E+01
 -1       229 2.11615E+01
 -1       230 2.10031E+01
 -1       231 1.51426E+01
 -1       232 2.15087E+01
 -1       233 2.40564E+01
 -1       234 2.27428E+01
 -1       235 2.10031E+01
 -1       236 2.10031E+01
 -1       237 1.53661E+01
 -1       238 2.15087E+01
 -1       239 2.40564E+01
 -1       240 2.27428E+01
 -1       241 1.69373E+01
 -1       242 1.69373E+01
 -1       243 1.41322E+01
 -1       244 1.80892E+01
 -1       245 2.18047E+01
 -1       246 2.18047E+01
 -1       247 2.40536E+01
 -1       248 2.40536E+01
 -1       249 1.76510E+01
 -1       250 2.20589E+01
 -1       251 2.39643E+01
 -1       252 2.39643E+01
 -1       253 2.50311E+01
 -1       254 2.79582E+01
 -1       255 2.77073E+01
 -1       256 2.60331E+01
 -1       257 2.60331E+01
 -1       258 2.44181E+01
 -1       259 2.24105E+01
 -1       260 2.77073E+01
 -1       261 2.77073E+01
 -1       262 2.60331E+01
 -1       263 2.60331E+01
 -1       264 2.31900E+01
 -1       265 2.78946E+01
 -1       266 2.89111E+01
 -1       267 2.99277E+01
 -1       268 3.01251E+01
 -1       269 3.03224E+01
 -1       270 3.04338E+01
 -1       271 3.05452E+01
 -1       272 3.05547E+01
 -1       273 3.05643E+01
 -1       274 3.06782E+01
 -1       275 3.07922E+01
 -1       276 3.07922E+01
 -1       277 3.07922E+01
 -1       278 2.95369E+01
 -1       279 2.82816E+01
 -1       280 2.78946E+01
 -1       281 2.99277E+01
 -1       282 3.03224E+01
 -1       283 3.05452E+01
 -1       284 3.05643E+01
 -1       285 3.07922E+01
 -1       286 3.07922E+01
 -1       287 2.82816E+01
 -1       288 2.78946E+01
 -1       289 2.89111E+01
 -1       290 2.99277E+01
 -1       291 3.01251E+01
 -1       292 3.03224E+01
 -1       293 3.04338E+01
 -1       294 3.05452E+01
 -1       295 3.05547E+01
 -1       296 3.05643E+01
 -1       297 3.06782E+01
 -1       298 3.07922E+01
 -1       299 3.07922E+01
 -1       300 3.07922E+01
 -1       301 2.95369E+01
 -1       302 2.82816E+01
 -1       303 2.60597E+01
 -1       304 2.70763E+01
 -1       305 2.58222E+01
 -1       306 2.59336E+01
 -1       307 2.54819E+01
 -1       308 2.63982E+01
 -1       309 2.63982E+01
 -1       310 2.58645E+01
 -1       311 2.39963E+01
 -1       312 2.41106E+01
 -1       313 2.42249E+01
 -1       314 2.42249E+01
 -1       315 2.42249E+01
 -1       316 2.27735E+01
 -1       317 2.13221E+01
 -1       318 2.13221E+01
 -1       319 2.13221E+01
 -1       320 2.03995E+01
 -1       321 2.12019E+01
 -1       322 2.20042E+01
 -1       323 2.20042E+01
 -1       324 2.20042E+01
 -1       325 2.27258E+01
 -1       326 2.34474E+01
 -1       327 2.34474E+01
 -1       328 2.34474E+01
 -1       329 2.48301E+01
 -1       330 2.42249E+01
 -1       331 2.42249E+01
 -1       332 2.20042E+01
 -1       333 2.20042E+01
 -1       334 2.45731E+01
 -1       335 2.48420E+01
 -1       336 3.03522E+01
 -1       337 3.03522E+01
 -1       338 3.03522E+01
 -1       339 2.80080E+01
 -1       340 2.56638E+01
 -1       341 2.49444E+01
 -1       342 2.42249E+01
 -1       343 2.42249E+01
 -1       344 2.42249E+01
 -1       345 2.20042E+01
 -1       346 2.20042E+01
 -1       347 2.20042E+01
 -1       348 2.38515E+01
 -1       349 2.56988E+01
 -1       350 2.59677E+01
 -1       351 2.62366E+01
 -1       352 2.87337E+01
 -1       353 3.12307E+01
 -1       354 3.12307E+01
 -1       355 3.12307E+01
 -1       356 3.03522E+01
 -1       357 3.03522E+01
 -1       358 2.56638E+01
 -1       359 2.41806E+01
 -1       360 2.27724E+01
 -1       361 2.23735E+01
 -1       362 2.56988E+01
 -1       363 2.62366E+01
 -1       364 3.12307E+01
 -1       365 3.12307E+01
 -1       366 3.03522E+01
 -1       367 3.03522E+01
 -1       368 3.03522E+01
 -1       369 2.80080E+01
 -1       370 2.56638E+01
 -1       371 2.49000E+01
 -1       372 2.41362E+01
 -1       373 2.27280E+01
 -1       374 2.13199E+01
 -1       375 2.11615E+01
 -1       376 2.10031E+01
 -1       377 1.90194E+01
 -1       378 1.70357E+01
 -1       379 2.12029E+01
 -1       380 2.53701E+01
 -1       381 2.53701E+01
 -1       382 2.53701E+01
 -1       383 2.40564E+01
 -1       384 2.27428E+01
 -1       385 2.42208E+01
 -1       386 2.56988E+01
 -1       387 2.59677E+01
 -1       388 2.62366E+01
 -1       389 2.87337E+01
 -1       390 3.12307E+01
 -1       391 3.12307E+01
 -1       392 3.12307E+01
 -1       393 2.98874E+01
 -1       394 2.98874E+01
 -1       395 2.48913E+01
 -1       396 2.36928E+01
 -1       397 2.11615E+01
 -1       398 2.10031E+01
 -1       399 1.70357E+01
 -1       400 2.53701E+01
 -1       401 2.53701E+01
 -1       402 2.27428E+01
 -1       403 2.36954E+01
 -1       404 2.98961E+01
 -1       405 2.98961E+01
 -1       406 2.94227E+01
 -1       407 2.94227E+01
 -1       408 2.94227E+01
 -1       409 2.67707E+01
 -1       410 2.41188E+01
 -1       411 2.36840E+01
 -1       412 2.32493E+01
 -1       413 2.10031E+01
 -1       414 2.10031E+01
 -1       415 2.10031E+01
 -1       416 1.90194E+01
 -1       417 1.70357E+01
 -1       418 2.12029E+01
 -1       419 2.53701E+01
 -1       420 2.53701E+01
 -1       421 2.53701E+01
 -1       422 2.40564E+01
 -1       423 2.27428E+01
 -1       424 2.11541E+01
 -1       425 2.48578E+01
 -1       426 2.85615E+01
 -1       427 2.85615E+01
 -1       428 2.85615E+01
 -1       429 2.98418E+01
 -1       430 2.98418E+01
 -1       431 2.24985E+01
 -1       432 1.95373E+01
 -1       433 1.95373E+01
 -1       434 1.58018E+01
 -1       435 2.27976E+01
 -1       436 2.42262E+01
 -1       437 2.29125E+01
 -1       438 2.94125E+01
 -1       439 2.94125E+01
 -1       440 3.02609E+01
 -1       441 3.02609E+01
 -1       442 3.02609E+01
 -1       443 2.55696E+01
 -1       444 2.08783E+01
 -1       445 1.80715E+01
 -1       446 1.80715E+01
 -1       447 1.80715E+01
 -1       448 1.63197E+01
 -1       449 1.45679E+01
 -1       450 1.73965E+01
 -1       451 2.02251E+01
 -1       452 2.16537E+01
 -1       453 2.30822E+01
 -1       454 2.30822E+01
 -1       455 2.30822E+01
 -1       456 3.02635E+01
 -1       457 3.02635E+01
 -1       458 3.02635E+01
 -1       459 3.06108E+01
 -1       460 3.06108E+01
 -1       461 2.31404E+01
 -1       462 2.31404E+01
 -1       463 1.75958E+01
 -1       464 2.13952E+01
 -1       465 2.39007E+01
 -1       466 2.39007E+01
 -1       467 3.05813E+01
 -1       468 3.05813E+01
 -1       469 3.09607E+01
 -1       470 3.09607E+01
 -1       471 3.09607E+01
 -1       472 2.79812E+01
 -1       473 2.50016E+01
 -1       474 2.82092E+01
 -1       475 2.82092E+01
 -1       476 2.82092E+01
 -1       477 2.44165E+01
 -1       478 2.06238E+01
 -1       479 2.15946E+01
 -1       480 2.25654E+01
 -1       481 2.36423E+01
 -1       482 2.47192E+01
 -1       483 2.47192E+01
 -1       484 2.47192E+01
 -1       485 2.16488E+01
 -1       486 2.62739E+01
 -1       487 3.08991E+01
 -1       488 3.08991E+01
 -1       489 3.08991E+01
 -1       490 3.11944E+01
 -1       491 3.11944E+01
 -1       492 2.78441E+01
 -1       493 2.82092E+01
 -1       494 2.82092E+01
 -1       495 2.41655E+01
 -1       496 2.46454E+01
 -1       497 2.57223E+01
 -1       498 2.47192E+01
 -1       499 2.26135E+01
 -1       500 3.10054E+01
 -1       501 3.10054E+01
 -1       502 3.14281E+01
 -1       503 3.14281E+01
 -1       504 3.14281E+01
 -1       505 3.10573E+01
 -1       506 3.06865E+01
 -1       507 2.67530E+01
 -1       508 2.28194E+01
 -1       509 2.82092E+01
 -1       510 2.82092E+01
 -1       511 2.82092E+01
 -1       512 2.79582E+01
 -1       513 2.77073E+01
 -1       514 2.72163E+01
 -1       515 2.67253E+01
 -1       516 2.67253E+01
 -1       517 2.67253E+01
 -1       518 2.57223E+01
 -1       519 2.47192E+01
 -1       520 2.26326E+01
 -1       521 2.31054E+01
 -1       522 2.35783E+01
 -1       523 2.73449E+01
 -1       524 3.11116E+01
 -1       525 3.11116E+01
 -1       526 3.11116E+01
 -1       527 3.14281E+01
 -1       528 3.14281E+01
 -1       529 3.06865E+01
 -1       530 2.30868E+01
 -1       531 2.55886E+01
 -1       532 2.79582E+01
 -1       533 2.77073E+01
 -1       534 2.67253E+01
 -1       535 2.67253E+01
 -1       536 2.34911E+01
 -1       537 2.26326E+01
 -1       538 2.35783E+01
 -1       539 3.11116E+01
 -1       540 3.11116E+01
 -1       541 3.14281E+01
 -1       542 3.14281E+01
 -1       543 3.14281E+01
 -1       544 3.10573E+01
 -1       545 3.06865E+01
 -1       546 2.70204E+01
 -1       547 2.33542E+01
 -1       548 2.31611E+01
 -1       549 2.29680E+01
 -1       550 2.53376E+01
 -1       551 2.77073E+01
 -1       552 2.77073E+01
 -1       553 2.77073E+01
 -1       554 2.72163E+01
 -1       555 2.67253E+01
 -1       556 2.67253E+01
 -1       557 2.67253E+01
 -1       558 2.44942E+01
 -1       559 2.22630E+01
 -1       560 2.24478E+01
 -1       561 2.26326E+01
 -1       562 2.31054E+01
 -1       563 2.35783E+01
 -1       564 2.73449E+01
 -1       565 3.11116E+01
 -1       566 3.11116E+01
 -1       567 3.11116E+01
 -1       568 3.12819E+01
 -1       569 3.12819E+01
 -1       570 2.95954E+01
 -1       571 2.37537E+01
 -1       572 2.29680E+01
 -1       573 2.32502E+01
 -1       574 2.34350E+01
 -1       575 2.28872E+01
 -1       576 3.10719E+01
 -1       577 3.10719E+01
 -1       578 3.11357E+01
 -1       579 3.11357E+01
 -1       580 3.11357E+01
 -1       581 2.98200E+01
 -1       582 2.85042E+01
 -1       583 2.63287E+01
 -1       584 2.41531E+01
 -1       585 2.35606E+01
 -1       586 2.29680E+01
 -1       587 2.21918E+01
 -1       588 2.14155E+01
 -1       589 2.15862E+01
 -1       590 2.29118E+01
 -1       591 2.42374E+01
 -1       592 2.42374E+01
 -1       593 2.42374E+01
 -1       594 2.32168E+01
 -1       595 2.21961E+01
 -1       596 2.66141E+01
 -1       597 3.10322E+01
 -1       598 3.10322E+01
 -1       599 3.10322E+01
 -1       600 2.63287E+01
 -1       601 2.41531E+01
 -1       602 2.26771E+01
 -1       603 2.14155E+01
 -1       604 2.58022E+01
 -1       605 2.71278E+01
 -1       606 2.59222E+01
 -1       607 2.17479E+01
 -1       608 2.41531E+01
 -1       609 2.41531E+01
 -1       610 2.41531E+01
 -1       611 2.32696E+01
 -1       612 2.23861E+01
 -1       613 2.19008E+01
 -1       614 2.14155E+01
 -1       615 3.00182E+01
 -1       616 3.00182E+01
 -1       617 3.00182E+01
 -1       618 2.88126E+01
 -1       619 2.76070E+01
 -1       620 2.44534E+01
 -1       621 2.12997E+01
 -1       622 2.74032E+01
 -1       623 2.65197E+01
 -1       624 2.58983E+01
 -1       625 3.04831E+01
 -1       626 3.07477E+01
 -1       627 2.95421E+01
 -1       628 3.06532E+01
 -1       629 3.06532E+01
 -1       630 3.06532E+01
 -1       631 3.05172E+01
 -1       632 3.03811E+01
 -1       633 2.98044E+01
 -1       634 2.92276E+01
 -1       635 2.95263E+01
 -1       636 2.98250E+01
 -1       637 3.03864E+01
 -1       638 3.09479E+01
 -1       639 3.12126E+01
 -1       640 3.14773E+01
 -1       641 3.14773E+01
 -1       642 3.14773E+01
 -1       643 3.06532E+01
 -1       644 3.06532E+01
 -1       645 3.03811E+01
 -1       646 2.92276E+01
 -1       647 2.98250E+01
 -1       648 3.09479E+01
 -1       649 3.14773E+01
 -1       650 3.14773E+01
 -1       651 3.06532E+01
 -1       652 3.06532E+01
 -1       653 3.06532E+01
 -1       654 3.05172E+01
 -1       655 3.03811E+01
 -1       656 2.98044E+01
 -1       657 2.92276E+01
 -1       658 2.95263E+01
 -1       659 2.98250E+01
 -1       660 3.03864E+01
 -1       661 3.09479E+01
 -1       662 3.12126E+01
 -1       663 3.14773E+01
 -1       664 3.14773E+01
 -1       665 3.14773E+01
 -1       666 2.78946E+01
 -1       667 2.99277E+01
 -1       668 3.03224E+01
 -1       669 3.05452E+01
 -1       670 3.05643E+01
 -1       671 3.07922E+01
 -1       672 3.07922E+01
 -1       673 2.82816E+01
 -1       674 2.78946E+01
 -1       675 2.99277E+01
 -1       676 3.03224E+01
 -1       677 3.05452E+01
 -1       678 3.05643E+01
 -1       679 3.07922E+01
 -1       680 3.07922E+01
 -1       681 2.82816E+01
 -1       682 2.39963E+01
 -1       683 2.42249E+01
 -1       684 2.42249E+01
 -1       685 2.13221E+01
 -1       686 2.13221E+01
 -1       687 2.03995E+01
 -1       688 2.20042E+01
 -1       689 2.20042E+01
 -1       690 2.34474E+01
 -1       691 2.34474E+01
 -1       692 3.03522E+01
 -1       693 3.03522E+01
 -1       694 2.56638E+01
 -1       695 2.42249E+01
 -1       696 2.42249E+01
 -1       697 2.20042E+01
 -1       698 2.20042E+01
 -1       699 2.56988E+01
 -1       700 2.62366E+01
 -1       701 3.12307E+01
 -1       702 3.12307E+01
 -1       703 3.03522E+01
 -1       704 3.03522E+01
 -1       705 2.56638E+01
 -1       706 2.41362E+01
 -1       707 2.13199E+01
 -1       708 2.10031E+01
 -1       709 1.70357E+01
 -1       710 2.53701E+01
 -1       711 2.53701E+01
 -1       712 2.27428E+01
 -1       713 2.56988E+01
 -1       714 2.62366E+01
 -1       715 3.12307E+01
 -1       716 3.12307E+01
 -1       717 2.94227E+01
 -1       718 2.94227E+01
 -1       719 2.41188E+01
 -1       720 2.32493E+01
 -1       721 2.10031E+01
 -1       722 2.10031E+01
 -1       723 1.70357E+01
 -1       724 2.53701E+01
 -1       725 2.53701E+01
 -1       726 2.27428E+01
 -1       727 2.11541E+01
 -1       728 2.85615E+01
 -1       729 2.85615E+01
 -1       730 3.02609E+01
 -1       731 3.02609E+01
 -1       732 2.08783E+01
 -1       733 1.80715E+01
 -1       734 1.80715E+01
 -1       735 1.45679E+01
 -1       736 2.02251E+01
 -1       737 2.30822E+01
 -1       738 2.30822E+01
 -1       739 3.02635E+01
 -1       740 3.02635E+01
 -1       741 3.09607E+01
 -1       742 3.09607E+01
 -1       743 2.50016E+01
 -1       744 2.82092E+01
 -1       745 2.82092E+01
 -1       746 2.06238E+01
 -1       747 2.25654E+01
 -1       748 2.47192E+01
 -1       749 2.47192E+01
 -1       750 2.16488E+01
 -1       751 3.08991E+01
 -1       752 3.08991E+01
 -1       753 3.14281E+01
 -1       754 3.14281E+01
 -1       755 3.06865E+01
 -1       756 2.28194E+01
 -1       757 2.82092E+01
 -1       758 2.82092E+01
 -1       759 2.77073E+01
 -1       760 2.67253E+01
 -1       761 2.67253E+01
 -1       762 2.47192E+01
 -1       763 2.26326E+01
 -1       764 2.35783E+01
 -1       765 3.11116E+01
 -1       766 3.11116E+01
 -1       767 3.14281E+01
 -1       768 3.14281E+01
 -1       769 3.06865E+01
 -1       770 2.33542E+01
 -1       771 2.29680E+01
 -1       772 2.77073E+01
 -1       773 2.77073E+01
 -1       774 2.67253E+01
 -1       775 2.67253E+01
 -1       776 2.22630E+01
 -1       777 2.26326E+01
 -1       778 2.35783E+01
 -1       779 3.11116E+01
 -1       780 3.11116E+01
 -1       781 3.11357E+01
 -1       782 3.11357E+01
 -1       783 2.85042E+01
 -1       784 2.41531E+01
 -1       785 2.29680E+01
 -1       786 2.14155E+01
 -1       787 2.15862E+01
 -1       788 2.42374E+01
 -1       789 2.42374E+01
 -1       790 2.21961E+01
 -1       791 3.10322E+01
 -1       792 3.10322E+01
 -1       793 2.41531E+01
 -1       794 2.41531E+01
 -1       795 2.23861E+01
 -1       796 2.14155E+01
 -1       797 3.00182E+01
 -1       798 3.00182E+01
 -1       799 2.76070E+01
 -1       800 2.12997E+01
 -1       801 3.06532E+01
 -1       802 3.06532E+01
 -1       803 3.03811E+01
 -1       804 2.92276E+01
 -1       805 2.98250E+01
 -1       806 3.09479E+01
 -1       807 3.14773E+01
 -1       808 3.14773E+01
 -1       809 3.06532E+01
 -1       810 3.06532E+01
 -1       811 3.03811E+01
 -1       812 2.92276E+01
 -1       813 2.98250E+01
 -1       814 3.09479E+01
 -1       815 3.14773E+01
 -1       816 3.14773E+01
 -1       817 2.78946E+01
 -1       818 2.89111E+01
 -1       819 2.99277E+01
 -1       820 3.01251E+01
 -1       821 3.03224E+01
 -1       822 3.04338E+01
 -1       823 3.05452E+01
 -1       824 3.05547E+01
 -1       825 3.05643E+01
 -1       826 3.06782E+01
 -1       827 3.07922E+01
 -1       828 3.07922E+01
 -1       829 3.07922E+01
 -1       830 2.95369E+01
 -1       831 2.82816E+01
 -1       832 2.78946E+01
 -1       833 2.99277E+01
 -1       834 3.03224E+01
 -1       835 3.05452E+01
 -1       836 3.05643E+01
 -1       837 3.07922E+01
 -1       838 3.07922E+01
 -1       839 2.82816E+01
 -1       840 2.78946E+01
 -1       841 2.89111E+01
 -1       842 2.99277E+01
 -1       843 3.01251E+01
 -1       844 3.03224E+01
 -1       845 3.04338E+01
 -1       846 3.05452E+01
 -1       847 3.05547E+01
 -1       848 3.05643E+01
 -1       849 3.06782E+01
 -1       850 3.07922E+01
 -1       851 3.07922E+01
 -1       852 3.07922E+01
 -1       853 2.95369E+01
 -1       854 2.82816E+01
 -1       855 2.60597E+01
 -1       856 2.70763E+01
 -1       857 2.58222E+01
 -1       858 2.59336E+01
 -1       859 2.54819E+01
 -1       860 2.63982E+01
 -1       861 2.63982E+01
 -1       862 2.58645E+01
 -1       863 2.39963E+01
 -1       864 2.41106E+01
 -1       865 2.42249E+01
 -1       866 2.42249E+01
 -1       867 2.42249E+01
 -1       868 2.27735E+01
 -1       869 2.13221E+01
 -1       870 2.13221E+01
 -1       871 2.13221E+01
 -1       872 2.03995E+01
 -1       873 2.12019E+01
 -1       874 2.20042E+01
 -1       875 2.20042E+01
 -1       876 2.20042E+01
 -1       877 2.27258E+01
 -1       878 2.34474E+01
 -1       879 2.34474E+01
 -1       880 2.34474E+01
 -1       881 2.48301E+01
 -1       882 2.42249E+01
 -1       883 2.42249E+01
 -1       884 2.20042E+01
 -1       885 2.20042E+01
 -1       886 2.45731E+01
 -1       887 2.48420E+01
 -1       888 3.03522E+01
 -1       889 3.03522E+01
 -1       890 3.03522E+01
 -1       891 2.80080E+01
 -1       892 2.56638E+01
 -1       893 2.49444E+01
 -1       894 2.42249E+01
 -1       895 2.42249E+01
 -1       896 2.42249E+01
 -1       897 2.20042E+01
 -1       898 2.20042E+01
 -1       899 2.20042E+01
 -1       900 2.38515E+01
 -1       901 2.56988E+01
 -1       902 2.59677E+01
 -1       903 2.62366E+01
 -1       904 2.87337E+01
 -1       905 3.12307E+01
 -1       906 3.12307E+01
 -1       907 3.12307E+01
 -1       908 3.03522E+01
 -1       909 3.03522E+01
 -1       910 2.56638E+01
 -1       911 2.41806E+01
 -1       912 2.27724E+01
 -1       913 2.23735E+01
 -1       914 2.56988E+01
 -1       915 2.62366E+01
 -1       916 3.12307E+01
 -1       917 3.12307E+01
 -1       918 3.03522E+01
 -1       919 3.03522E+01
 -1       920 3.03522E+01
 -1       921 2.80080E+01
 -1       922 2.56638E+01
 -1       923 2.49000E+01
 -1       924 2.41362E+01
 -1       925 2.27280E+01
 -1       926 2.13199E+01
 -1       927 2.11615E+01
 -1       928 2.10031E+01
 -1       929 1.90194E+01
 -1       930 1.70357E+01
 -1       931 2.12029E+01
 -1       932 2.53701E+01
 -1       933 2.53701E+01
 -1       934 2.53701E+01
 -1       935 2.40564E+01
 -1       936 2.27428E+01
 -1       937 2.42208E+01
 -1       938 2.56988E+01
 -1       939 2.59677E+01
 -1       940 2.62366E+01
 -1       941 2.87337E+01
 -1       942 3.12307E+01
 -1       943 3.12307E+01
 -1       944 3.12307E+01
 -1       945 2.98874E+01
 -1       946 2.98874E+01
 -1       947 2.48913E+01
 -1       948 2.36928E+01
 -1       949 2.11615E+01
 -1       950 2.10031E+01
 -1       951 1.70357E+01
 -1       952 2.53701E+01
 -1       953 2.53701E+01
 -1       954 2.27428E+01
 -1       955 2.36954E+01
 -1       956 2.98961E+01
 -1       957 2.98961E+01
 -1       958 2.94227E+01
 -1       959 2.94227E+01
 -1       960 2.94227E+01
 -1       961 2.67707E+01
 -1       962 2.41188E+01
 -1       963 2.36840E+01
 -1       964 2.32493E+01
 -1       965 2.10031E+01
 -1       966 2.10031E+01
 -1       967 2.10031E+01
 -1       968 1.90194E+01
 -1       969 1.70357E+01
 -1       970 2.12029E+01
 -1       971 2.53701E+01
 -1       972 2.53701E+01
 -1       973 2.53701E+01
 -1       974 2.40564E+01
 -1       975 2.27428E+01
 -1       976 2.11541E+01
 -1       977 2.48578E+01
 -1       978 2.85615E+01
 -1       979 2.85615E+01
 -1       980 2.85615E+01
 -1       981 2.98418E+01
 -1       982 2.98418E+01
 -1       983 2.24985E+01
 -1       984 1.95373E+01
 -1       985 1.95373E+01
 -1       986 1.58018E+01
 -1       987 2.27976E+01
 -1       988 2.42262E+01
 -1       989 2.29125E+01
 -1       990 2.94125E+01
 -1       991 2.94125E+01
 -1       992 3.02609E+01
 -1       993 3.02609E+01
 -1       994 3.02609E+01
 -1       995 2.55696E+01
 -1       996 2.08783E+01
 -1       997 1.80715E+01
 -1       998 1.80715E+01
 -1       999 1.80715E+01
 -1      1000 1.63197E+01
 -1      1001 1.45679E+01
 -1      1002 1.73965E+01
 -1      1003 2.02251E+01
 -1      1004 2.16537E+01
 -1      1005 2.30822E+01
 -1      1006 2.30822E+01
 -1      1007 2.30822E+01
 -1      1008 3.02635E+01
 -1      1009 3.02635E+01
 -1      1010 3.02635E+01
 -1      1011 3.06108E+01
 -1      1012 3.06108E+01
 -1      1013 2.31404E+01
 -1      1014 2.31404E+01
 -1      1015 1.75958E+01
 -1      1016 2.13952E+01
 -1      1017 2.39007E+01
 -1      1018 2.39007E+01
 -1      1019 3.05813E+01
 -1      1020 3.05813E+01
 -1      1021 3.09607E+01
 -1      1022 3.09607E+01
 -1      1023 3.09607E+01
 -1      1024 2.79812E+01
 -1      1025 2.50016E+01
 -1      1026 2.82092E+01
 -1      1027 2.82092E+01
 -1      1028 2.82092E+01
 -1      1029 2.44165E+01
 -1      1030 2.06238E+01
 -1      1031 2.15946E+01
 -1      1032 2.25654E+01
 -1      1033 2.36423E+01
 -1      1034 2.47192E+01
 -1      1035 2.47192E+01
 -1      1036 2.47192E+01
 -1      1037 2.16488E+01
 -1      1038 2.62739E+01
 -1      1039 3.08991E+01
 -1      1040 3.08991E+01
 -1      1041 3.08991E+01
 -1      1042 3.11944E+01
 -1      1043 3.11944E+01
 -1      1044 2.78441E+01
 -1      1045 2.82092E+01
 -1      1046 2.82092E+01
 -1      1047 2.41655E+01
 -1      1048 2.46454E+01
 -1      1049 2.57223E+01
 -1      1050 2.47192E+01
 -1      1051 2.26135E+01
 -1      1052 3.10054E+01
 -1      1053 3.10054E+01
 -1      1054 3.14281E+01
 -1      1055 3.14281E+01
 -1      1056 3.14281E+01
 -1      1057 3.10573E+01
 -1      1058 3.06865E+01
 -1      1059 2.67530E+01
 -1      1060 2.28194E+01
 -1      1061 2.82092E+01
 -1      1062 2.82092E+01
 -1      1063 2.82092E+01
 -1      1064 2.79582E+01
 -1      1065 2.77073E+01
 -1      1066 2.72163E+01
 -1      1067 2.67253E+01
 -1      1068 2.67253E+01
 -1      1069 2.67253E+01
 -1      1070 2.57223E+01
 -1      1071 2.47192E+01
 -1      1072 2.26326E+01
 -1      1073 2.31054E+01
 -1      1074 2.35783E+01
 -1      1075 2.73449E+01
 -1      1076 3.11116E+01
 -1      1077 3.11116E+01
 -1      1078 3.11116E+01
 -1      1079 3.14281E+01
 -1      1080 3.14281E+01
 -1      1081 3.06865E+01
 -1      1082 2.30868E+01
 -1      1083 2.55886E+01
 -1      1084 2.79582E+01
 -1      1085 2.77073E+01
 -1      1086 2.67253E+01
 -1      1087 2.67253E+01
 -1      1088 2.34911E+01
 -1      1089 2.26326E+01
 -1      1090 2.35783E+01
 -1      1091 3.11116E+01
 -1      1092 3.11116E+01
 -1      1093 3.14281E+01
 -1      1094 3.14281E+01
 -1      1095 3.14281E+01
 -1      1096 3.10573E+01
 -1      1097 3.06865E+01
 -1      1098 2.70204E+01
 -1      1099 2.33542E+01
 -1      1100 2.31611E+01
 -1      1101 2.29680E+01
 -1      1102 2.53376E+01
 -1      1103 2.77073E+01
 -1      1104 2.77073E+01
 -1      1105 2.77073E+01
 -1      1106 2.72163E+01
 -1      1107 2.67253E+01
 -1      1108 2.67253E+01
 -1      1109 2.67253E+01
 -1      1110 2.44942E+01
 -1      1111 2.22630E+01
 -1      1112 2.24478E+01
 -1      1113 2.26326E+01
 -1      1114 2.31054E+01
 -1      1115 2.35783E+01
 -1      1116 2.73449E+01
 -1      1117 3.11116E+01
 -1      1118 3.11116E+01
 -1      1119 3.11116E+01
 -1      1120 3.12819E+01
 -1      1121 3.12819E+01
 -1      1122 2.95954E+01
 -1      1123 2.37537E+01
 -1      1124 2.29680E+01
 -1      1125 2.32502E+01
 -1      1126 2.34350E+01
 -1      1127 2.28872E+01
 -1      1128 3.10719E+01
 -1      1129 3.10719E+01
 -1      1130 3.11357E+01
 -1      1131 3.11357E+01
 -1      1132 3.11357E+01
 -1      1133 2.98200E+01
 -1      1134 2.85042E+01
 -1      1135 2.63287E+01
 -1      1136 2.41531E+01
 -1      1137 2.35606E+01
 -1      1138 2.29680E+01
 -1      1139 2.21918E+01
 -1      1140 2.14155E+01
 -1      1141 2.15862E+01
 -1      1142 2.29118E+01
 -1      1143 2.42374E+01
 -1      1144 2.42374E+01
 -1      1145 2.42374E+01
 -1      1146 2.32168E+01
 -1      1147 2.21961E+01
 -1      1148 2.66141E+01
 -1      1149 3.10322E+01
 -1      1150 3.10322E+01
 -1      1151 3.10322E+01
 -1      1152 2.63287E+01
 -1      1153 2.41531E+01
 -1      1154 2.26771E+01
 -1      1155 2.14155E+01
 -1      1156 2.58022E+01
 -1      1157 2.71278E+01
 -1      1158 2.59222E+01
 -1      1159 2.17479E+01
 -1      1160 2.41531E+01
 -1      1161 2.41531E+01
 -1      1162 2.41531E+01
 -1      1163 2.32696E+01
 -1      1164 2.23861E+01
 -1      1165 2.19008E+01
 -1      1166 2.14155E+01
 -1      1167 3.00182E+01
 -1      1168 3.00182E+01
 -1      1169 3.00182E+01
 -1      1170 2.88126E+01
 -1      1171 2.76070E+01
 -1      1172 2.44534E+01
 -1      1173 2.12997E+01
 -1      1174 2.74032E+01
 -1      1175 2.65197E+01
 -1      1176 2.58983E+01
 -1      1177 3.04831E+01
 -1      1178 3.07477E+01
 -1      1179 2.95421E+01
 -1      1180 3.06532E+01
 -1      1181 3.06532E+01
 -1      1182 3.06532E+01
 -1      1183 3.05172E+01
 -1      1184 3.03811E+01
 -1      1185 2.98044E+01
 -1      1186 2.92276E+01
 -1      1187 2.95263E+01
 -1      1188 2.98250E+01
 -1      1189 3.03864E+01
 -1      1190 3.09479E+01
 -1      1191 3.12126E+01
 -1      1192 3.14773E+01
 -1      1193 3.14773E+01
 -1      1194 3.14773E+01
 -1      1195 3.06532E+01
 -1      1196 3.06532E+01
 -1      1197 3.03811E+01
 -1      1198 2.92276E+01
 -1      1199 2.98250E+01
 -1      1200 3.09479E+01
 -1      1201 3.14773E+01
 -1      1202 3.14773E+01
 -1      1203 3.06532E+01
 -1      1204 3.06532E+01
 -1      1205 3.06532E+01
 -1      1206 3.05172E+01
 -1      1207 3.03811E+01
 -1      1208 2.98044E+01
 -1      1209 2.92276E+01
 -1      1210 2.95263E+01
 -1      1211 2.98250E+01
 -1      1212 3.03864E+01
 -1      1213 3.09479E+01
 -1      1214 3.12126E+01
 -1      1215 3.14773E+01
 -1      1216 3.14773E+01
 -1      1217 3.14773E+01
 -1      1218 2.11615E+01
 -1      1219 2.10031E+01
 -1      1220 1.51426E+01
 -1      1221 2.15087E+01
 -1      1222 2.40564E+01
 -1      1223 2.27428E+01
 -1      1224 2.10031E+01
 -1      1225 2.10031E+01
 -1      1226 1.53661E+01
 -1      1227 2.15087E+01
 -1      1228 2.40564E+01
 -1      1229 2.27428E+01
 -1      1230 1.69373E+01
 -1      1231 1.69373E+01
 -1      1232 1.41322E+01
 -1      1233 1.80892E+01
 -1      1234 2.18047E+01
 -1      1235 2.18047E+01
 -1      1236 2.40536E+01
 -1      1237 2.40536E+01
 -1      1238 1.76510E+01
 -1      1239 2.20589E+01
 -1      1240 2.39643E+01
 -1      1241 2.39643E+01
 -1      1242 2.50311E+01
 -1      1243 2.79582E+01
 -1      1244 2.77073E+01
 -1      1245 2.60331E+01
 -1      1246 2.60331E+01
 -1      1247 2.44181E+01
 -1      1248 2.24105E+01
 -1      1249 2.77073E+01
 -1      1250 2.77073E+01
 -1      1251 2.60331E+01
 -1      1252 2.60331E+01
 -1      1253 2.31900E+01
 -1      1254 2.10031E+01
 -1      1255 2.10031E+01
 -1      1256 2.10031E+01
 -1      1257 1.71263E+01
 -1      1258 1.32494E+01
 -1      1259 1.54484E+01
 -1      1260 1.76474E+01
 -1      1261 2.01951E+01
 -1      1262 2.27428E+01
 -1      1263 2.27428E+01
 -1      1264 2.27428E+01
 -1      1265 2.10031E+01
 -1      1266 2.10031E+01
 -1      1267 1.34730E+01
 -1      1268 1.76474E+01
 -1      1269 2.27428E+01
 -1      1270 2.27428E+01
 -1      1271 2.10031E+01
 -1      1272 2.10031E+01
 -1      1273 2.10031E+01
 -1      1274 1.73498E+01
 -1      1275 1.36966E+01
 -1      1276 1.56720E+01
 -1      1277 1.76474E+01
 -1      1278 2.01951E+01
 -1      1279 2.27428E+01
 -1      1280 2.27428E+01
 -1      1281 2.27428E+01
 -1      1282 1.84031E+01
 -1      1283 1.84031E+01
 -1      1284 1.36966E+01
 -1      1285 1.68004E+01
 -1      1286 2.16350E+01
 -1      1287 2.16350E+01
 -1      1288 1.58032E+01
 -1      1289 1.58032E+01
 -1      1290 1.58032E+01
 -1      1291 1.47499E+01
 -1      1292 1.36966E+01
 -1      1293 1.48249E+01
 -1      1294 1.59533E+01
 -1      1295 1.82403E+01
 -1      1296 2.05272E+01
 -1      1297 2.05272E+01
 -1      1298 2.05272E+01
 -1      1299 1.78506E+01
 -1      1300 1.78506E+01
 -1      1301 1.41874E+01
 -1      1302 1.87529E+01
 -1      1303 2.18683E+01
 -1      1304 2.18683E+01
 -1      1305 1.98981E+01
 -1      1306 1.98981E+01
 -1      1307 1.98981E+01
 -1      1308 1.72881E+01
 -1      1309 1.46782E+01
 -1      1310 1.81153E+01
 -1      1311 2.15524E+01
 -1      1312 2.23809E+01
 -1      1313 2.32093E+01
 -1      1314 2.32093E+01
 -1      1315 2.32093E+01
 -1      1316 2.08756E+01
 -1      1317 2.38027E+01
 -1      1318 2.11927E+01
 -1      1319 2.34467E+01
 -1      1320 2.42751E+01
 -1      1321 2.36632E+01
 -1      1322 2.18531E+01
 -1      1323 2.47802E+01
 -1      1324 2.77073E+01
 -1      1325 2.77073E+01
 -1      1326 2.77073E+01
 -1      1327 2.65241E+01
 -1      1328 2.53409E+01
 -1      1329 2.53409E+01
 -1      1330 2.53409E+01
 -1      1331 2.47290E+01
 -1      1332 2.41170E+01
 -1      1333 2.18531E+01
 -1      1334 2.77073E+01
 -1      1335 2.77073E+01
 -1      1336 2.53409E+01
 -1      1337 2.53409E+01
 -1      1338 2.41170E+01
 -1      1339 2.18531E+01
 -1      1340 2.47802E+01
 -1      1341 2.77073E+01
 -1      1342 2.77073E+01
 -1      1343 2.77073E+01
 -1      1344 2.65241E+01
 -1      1345 2.53409E+01
 -1      1346 2.53409E+01
 -1      1347 2.53409E+01
 -1      1348 2.47290E+01
 -1      1349 2.41170E+01
 -1      1350 2.02615E+01
 -1      1351 2.02615E+01
 -1      1352 1.17421E+01
 -1      1353 1.21578E+01
 -1      1354 2.25217E+01
 -1      1355 2.25217E+01
 -1      1356 2.02615E+01
 -1      1357 2.02615E+01
 -1      1358 1.32967E+01
 -1      1359 1.52721E+01
 -1      1360 2.25217E+01
 -1      1361 2.25217E+01
 -1      1362 1.39848E+01
 -1      1363 1.42949E+01
 -1      1364 1.32967E+01
 -1      1365 1.44251E+01
 -1      1366 1.74337E+01
 -1      1367 1.74337E+01
 -1      1368 1.40449E+01
 -1      1369 1.43343E+01
 -1      1370 1.24144E+01
 -1      1371 1.71338E+01
 -1      1372 1.80244E+01
 -1      1373 1.80244E+01
 -1      1374 1.98483E+01
 -1      1375 2.27754E+01
 -1      1376 2.13307E+01
 -1      1377 2.01475E+01
 -1      1378 2.47290E+01
 -1      1379 2.41170E+01
 -1      1380 1.98483E+01
 -1      1381 2.27754E+01
 -1      1382 2.13307E+01
 -1      1383 2.01475E+01
 -1      1384 2.47290E+01
 -1      1385 2.41170E+01
 -1      1386 1.95198E+01
 -1      1387 1.95198E+01
 -1      1388 1.95198E+01
 -1      1389 1.48773E+01
 -1      1390 1.02348E+01
 -1      1391 8.45154E+00
 -1      1392 6.66825E+00
 -1      1393 1.44844E+01
 -1      1394 2.23005E+01
 -1      1395 2.23005E+01
 -1      1396 2.23005E+01
 -1      1397 1.95198E+01
 -1      1398 1.95198E+01
 -1      1399 1.15658E+01
 -1      1400 9.78253E+00
 -1      1401 2.23005E+01
 -1      1402 2.23005E+01
 -1      1403 1.95198E+01
 -1      1404 1.95198E+01
 -1      1405 1.95198E+01
 -1      1406 1.62083E+01
 -1      1407 1.28968E+01
 -1      1408 1.28968E+01
 -1      1409 1.28968E+01
 -1      1410 1.75987E+01
 -1      1411 2.23005E+01
 -1      1412 2.23005E+01
 -1      1413 2.23005E+01
 -1      1414 1.58431E+01
 -1      1415 1.61532E+01
 -1      1416 1.28968E+01
 -1      1417 1.28968E+01
 -1      1418 1.83204E+01
 -1      1419 1.83204E+01
 -1      1420 1.21664E+01
 -1      1421 1.24765E+01
 -1      1422 1.27866E+01
 -1      1423 1.28417E+01
 -1      1424 1.28968E+01
 -1      1425 1.28968E+01
 -1      1426 1.28968E+01
 -1      1427 1.36185E+01
 -1      1428 1.43402E+01
 -1      1429 1.43402E+01
 -1      1430 1.43402E+01
 -1      1431 1.01790E+01
 -1      1432 1.07785E+01
 -1      1433 1.15237E+01
 -1      1434 1.28060E+01
 -1      1435 1.35898E+01
 -1      1436 1.35898E+01
 -1      1437 8.19168E+00
 -1      1438 8.48108E+00
 -1      1439 8.77047E+00
 -1      1440 9.46049E+00
 -1      1441 1.01505E+01
 -1      1442 1.14328E+01
 -1      1443 1.27152E+01
 -1      1444 1.27773E+01
 -1      1445 1.28394E+01
 -1      1446 1.28394E+01
 -1      1447 1.28394E+01
 -1      1448 1.30176E+01
 -1      1449 1.33070E+01
 -1      1450 1.25523E+01
 -1      1451 1.38347E+01
 -1      1452 1.84782E+01
 -1      1453 1.84782E+01
 -1      1454 1.78436E+01
 -1      1455 1.78436E+01
 -1      1456 1.78436E+01
 -1      1457 1.63989E+01
 -1      1458 1.49542E+01
 -1      1459 1.49542E+01
 -1      1460 1.49542E+01
 -1      1461 1.95356E+01
 -1      1462 2.41170E+01
 -1      1463 2.41170E+01
 -1      1464 2.41170E+01
 -1      1465 1.78436E+01
 -1      1466 1.78436E+01
 -1      1467 1.49542E+01
 -1      1468 1.49542E+01
 -1      1469 2.41170E+01
 -1      1470 2.41170E+01
 -1      1471 1.78436E+01
 -1      1472 1.78436E+01
 -1      1473 1.78436E+01
 -1      1474 1.63989E+01
 -1      1475 1.49542E+01
 -1      1476 1.49542E+01
 -1      1477 1.49542E+01
 -1      1478 1.95356E+01
 -1      1479 2.41170E+01
 -1      1480 2.41170E+01
 -1      1481 2.41170E+01
 -3
    1PSTEP                        37           1           1          
    1PGM                1.000000E+00                                  
    1PGK                2.078485E+12                                  
    1PHID                         -1                                  
    1PSUBC                         0                                  
    1PMODE                        10                                  
  100CL  110 229452.8963        1481                     2   10MODAL      1
 -4  DISP        4    1
 -5  D1          1    2    1    0
 -5  D2          1    2    2    0
 -5  D3          1    2    3    0
 -5  ALL         1    2    0    0    1ALL
 -1         1-3.73106E+02-1.56505E+02 1.35044E+03
 -1         2-1.78412E+02-3.57383E+02 1.16471E+03
 -1         3 8.96040E+00-3.15475E+02 1.07538E+03
 -1         4 4.16854E+01-2.58264E+02 1.07011E+03
 -1         5 5.92126E+01-2.14951E+02 1.08688E+03
 -1         6 7.33369E+01-1.61699E+02 1.12305E+03
 -1         7 8.08959E+01-1.01205E+02 1.16032E+03
 -1         8 7.84714E+01-2.88548E+01 1.19500E+03
 -1         9 7.56428E+01 4.04650E+01 1.20765E+03
 -1        10 1.91479E+02 1.83088E+02 1.19934E+03
 -1        11 3.46978E+02 5.19007E+02 1.20565E+03
 -1        12-6.88207E+01-3.12141E+02 7.64653E+02
 -1        13 1.54615E+01-3.28256E+02 6.77534E+02
 -1        14 7.77561E+01-2.22070E+02 8.19147E+02
 -1        15 9.63111E+01-1.07729E+02 1.03574E+03
 -1        16 1.10749E+02 3.22411E+01 1.26563E+03
 -1        17 1.47980E+02 2.99858E+02 1.57187E+03
 -1        18 5.29041E+01-4.35673E+02 1.39938E+02
 -1        19 5.96423E+01-4.03299E+02 2.01490E+02
 -1        20 7.67084E+01-3.39750E+02 2.69969E+02
 -1        21 1.08440E+02-2.86584E+02 3.85160E+02
 -1        22 1.30597E+02-2.32587E+02 5.36921E+02
 -1        23 1.43379E+02-1.77742E+02 7.09832E+02
 -1        24 1.52315E+02-1.21315E+02 8.98182E+02
 -1        25 1.61671E+02-5.99758E+01 1.09570E+03
 -1        26 1.77312E+02 5.01977E+00 1.31079E+03
 -1        27 1.89083E+02 6.82596E+01 1.55267E+03
 -1        28 2.06796E+02 7.45145E+01 1.80447E+03
 -1        29 1.21164E+02-4.35804E+02-4.92233E+02
 -1        30 1.42236E+02-3.53573E+02-1.67588E+02
 -1        31 1.80496E+02-2.43196E+02 2.38932E+02
 -1        32 2.05709E+02-1.42070E+02 7.34466E+02
 -1        33 2.25953E+02-4.60928E+01 1.28820E+03
 -1        34 2.62434E+02 9.39560E+00 1.89359E+03
 -1        35 1.95527E+02-4.22518E+02-1.10421E+03
 -1        36 1.96598E+02-4.08872E+02-8.67112E+02
 -1        37 2.03858E+02-3.53166E+02-6.17524E+02
 -1        38 2.14598E+02-3.00619E+02-3.54765E+02
 -1        39 2.29013E+02-2.52130E+02-7.26267E+01
 -1        40 2.41338E+02-2.07285E+02 2.26857E+02
 -1        41 2.51839E+02-1.64729E+02 5.41703E+02
 -1        42 2.60278E+02-1.25096E+02 8.67540E+02
 -1        43 2.66423E+02-8.97394E+01 1.20295E+03
 -1        44 2.77577E+02-5.50499E+01 1.54535E+03
 -1        45 2.90811E+02-4.23766E+01 1.90658E+03
 -1        46 2.61511E+02-3.99080E+02-1.70012E+03
 -1        47 2.55436E+02-3.35088E+02-1.05788E+03
 -1        48 2.71818E+02-2.51975E+02-3.91577E+02
 -1        49 2.88250E+02-1.81374E+02 3.22194E+02
 -1        50 2.98544E+02-1.22479E+02 1.06771E+03
 -1        51 3.14276E+02-9.17845E+01 1.83650E+03
 -1        52 3.17185E+02-3.50054E+02-2.23996E+03
 -1        53 3.04065E+02-3.42599E+02-1.84473E+03
 -1        54 2.96731E+02-3.07819E+02-1.46925E+03
 -1        55 3.01296E+02-2.74143E+02-1.08981E+03
 -1        56 3.05726E+02-2.43667E+02-7.05556E+02
 -1        57 3.11068E+02-2.16844E+02-3.13275E+02
 -1        58 3.16323E+02-1.92228E+02 8.51372E+01
 -1        59 3.19186E+02-1.69238E+02 4.88713E+02
 -1        60 3.21955E+02-1.49454E+02 8.93594E+02
 -1        61 3.24790E+02-1.32595E+02 1.30032E+03
 -1        62 3.30434E+02-1.26339E+02 1.70750E+03
 -1        63 3.61438E+02-2.94641E+02-2.68338E+03
 -1        64 3.27511E+02-2.63807E+02-1.83187E+03
 -1        65 3.27688E+02-2.26952E+02-1.00184E+03
 -1        66 3.36282E+02-1.95382E+02-1.59363E+02
 -1        67 3.37128E+02-1.66265E+02 6.92672E+02
 -1        68 3.40631E+02-1.51987E+02 1.54016E+03
 -1        69 3.70890E+02-2.21840E+02-3.03944E+03
 -1        70 3.53581E+02-2.06144E+02-2.58204E+03
 -1        71 3.44618E+02-2.08783E+02-2.12724E+03
 -1        72 3.34780E+02-2.12979E+02-1.69844E+03
 -1        73 3.36961E+02-2.11329E+02-1.27594E+03
 -1        74 3.44465E+02-2.04295E+02-8.44095E+02
 -1        75 3.49269E+02-1.95051E+02-4.05659E+02
 -1        76 3.49642E+02-1.85177E+02 3.67964E+01
 -1        77 3.46302E+02-1.75574E+02 4.76050E+02
 -1        78 3.45035E+02-1.69152E+02 9.07499E+02
 -1        79 3.46438E+02-1.69082E+02 1.33895E+03
 -1        80 3.82088E+02 3.31464E+01-3.23408E+03
 -1        81 3.37244E+02-1.78676E+02-2.34853E+03
 -1        82 3.39900E+02-2.00850E+02-1.52838E+03
 -1        83 3.56981E+02-1.94751E+02-6.49104E+02
 -1        84 3.52819E+02-1.78614E+02 2.54182E+02
 -1        85 3.37516E+02-1.56319E+02 1.11627E+03
 -1        86 6.68542E+02 2.85377E+02-3.28510E+03
 -1        87 4.69633E+02-7.56906E+01-2.90115E+03
 -1        88 3.17767E+02-1.68893E+02-2.55219E+03
 -1        89 3.28013E+02-1.81313E+02-2.18020E+03
 -1        90 3.42839E+02-1.97709E+02-1.76954E+03
 -1        91 3.50030E+02-2.00046E+02-1.34173E+03
 -1        92 3.58384E+02-1.95536E+02-8.93078E+02
 -1        93 3.60845E+02-1.85115E+02-4.30644E+02
 -1        94 3.56549E+02-1.77707E+02 3.14227E+01
 -1        95 3.23512E+02-1.71896E+02 4.72505E+02
 -1        96 2.89789E+02-1.31926E+02 8.91210E+02
 -1        97-3.73045E+02-4.56526E+01 1.35099E+03
 -1        98 1.57677E+01-2.52018E+02 1.07181E+03
 -1        99 5.30980E+01-1.73130E+02 1.08584E+03
 -1       100 7.01268E+01-8.19650E+01 1.15987E+03
 -1       101 6.61005E+01 3.51592E+01 1.20689E+03
 -1       102 3.65188E+02 4.93337E+02 1.20477E+03
 -1       103 3.98436E+01-3.45575E+02 1.41153E+02
 -1       104 6.36477E+01-2.75456E+02 2.69035E+02
 -1       105 1.03453E+02-1.86701E+02 5.37008E+02
 -1       106 1.22510E+02-9.78663E+01 8.98989E+02
 -1       107 1.39386E+02 1.65747E+00 1.31287E+03
 -1       108 1.67954E+02 4.95903E+01 1.80957E+03
 -1       109 1.58192E+02-3.32826E+02-1.10521E+03
 -1       110 1.63451E+02-2.82439E+02-6.18773E+02
 -1       111 1.83853E+02-2.02369E+02-7.31645E+01
 -1       112 2.01510E+02-1.32343E+02 5.42359E+02
 -1       113 2.14168E+02-7.08123E+01 1.20424E+03
 -1       114 2.33475E+02-3.78642E+01 1.90886E+03
 -1       115 2.54488E+02-2.77963E+02-2.24219E+03
 -1       116 2.38799E+02-2.45704E+02-1.47081E+03
 -1       117 2.44727E+02-1.95667E+02-7.06629E+02
 -1       118 2.53663E+02-1.54133E+02 8.53095E+01
 -1       119 2.58184E+02-1.19428E+02 8.94711E+02
 -1       120 2.66052E+02-1.02294E+02 1.70903E+03
 -1       121 3.00907E+02-1.83833E+02-3.04513E+03
 -1       122 2.73674E+02-1.70849E+02-2.12965E+03
 -1       123 2.71301E+02-1.69880E+02-1.27741E+03
 -1       124 2.79968E+02-1.56715E+02-4.05959E+02
 -1       125 2.78494E+02-1.41113E+02 4.76561E+02
 -1       126 2.78045E+02-1.36132E+02 1.33928E+03
 -1       127 6.33875E+02 3.29396E+02-3.28468E+03
 -1       128 2.55432E+02-1.32954E+02-2.55118E+03
 -1       129 2.75149E+02-1.59756E+02-1.76988E+03
 -1       130 2.87031E+02-1.57116E+02-8.92995E+02
 -1       131 2.86320E+02-1.42533E+02 3.20562E+01
 -1       132 2.19636E+02-9.28981E+01 8.91182E+02
 -1       133-3.88002E+02 6.88359E+01 1.35249E+03
 -1       134-1.51687E+02-2.15585E+02 1.14219E+03
 -1       135 2.65187E+01-1.89302E+02 1.06842E+03
 -1       136 3.16999E+01-1.55929E+02 1.06846E+03
 -1       137 4.30746E+01-1.31102E+02 1.08490E+03
 -1       138 5.20821E+01-9.93094E+01 1.12359E+03
 -1       139 5.79616E+01-6.15203E+01 1.15925E+03
 -1       140 5.75821E+01-1.76934E+01 1.19516E+03
 -1       141 4.72022E+01 2.63388E+01 1.20627E+03
 -1       142 1.74154E+02 1.10089E+02 1.18203E+03
 -1       143 3.85096E+02 4.85974E+02 1.20239E+03
 -1       144-4.17595E+01-1.35772E+02 7.82179E+02
 -1       145 5.91287E+00-1.95421E+02 6.75236E+02
 -1       146 4.90872E+01-1.35769E+02 8.17372E+02
 -1       147 5.80271E+01-6.63622E+01 1.03573E+03
 -1       148 7.37244E+01 2.41423E+01 1.26668E+03
 -1       149 9.25732E+01 2.27167E+02 1.59749E+03
 -1       150 2.99084E+01-2.64459E+02 1.42118E+02
 -1       151 3.17013E+01-2.38270E+02 2.01379E+02
 -1       152 4.91156E+01-2.08930E+02 2.68327E+02
 -1       153 6.83350E+01-1.75489E+02 3.83675E+02
 -1       154 7.77599E+01-1.41253E+02 5.37156E+02
 -1       155 8.67959E+01-1.07898E+02 7.10010E+02
 -1       156 9.27833E+01-7.43382E+01 8.99709E+02
 -1       157 9.54525E+01-3.83715E+01 1.09765E+03
 -1       158 1.04364E+02-7.00803E-02 1.31447E+03
 -1       159 1.18947E+02 4.43975E+01 1.55699E+03
 -1       160 1.28448E+02 2.07921E+01 1.81416E+03
 -1       161 7.39058E+01-2.53841E+02-4.92859E+02
 -1       162 8.76014E+01-2.16593E+02-1.68991E+02
 -1       163 1.08462E+02-1.47470E+02 2.38536E+02
 -1       164 1.24603E+02-8.59268E+01 7.35730E+02
 -1       165 1.35241E+02-3.09417E+01 1.29190E+03
 -1       166 1.60799E+02 4.27035E-01 1.89740E+03
 -1       167 1.19507E+02-2.46473E+02-1.10582E+03
 -1       168 1.20487E+02-2.47654E+02-8.68269E+02
 -1       169 1.23593E+02-2.11944E+02-6.19870E+02
 -1       170 1.29281E+02-1.81224E+02-3.56357E+02
 -1       171 1.38710E+02-1.52900E+02-7.35840E+01
 -1       172 1.45782E+02-1.25833E+02 2.27126E+02
 -1       173 1.51826E+02-9.98973E+01 5.42846E+02
 -1       174 1.57666E+02-7.50277E+01 8.69365E+02
 -1       175 1.61571E+02-5.29002E+01 1.20509E+03
 -1       176 1.67508E+02-3.52712E+01 1.55004E+03
 -1       177 1.76516E+02-3.07748E+01 1.91063E+03
 -1       178 1.58853E+02-2.30450E+02-1.70214E+03
 -1       179 1.55267E+02-2.02402E+02-1.06052E+03
 -1       180 1.64303E+02-1.52872E+02-3.92885E+02
 -1       181 1.74060E+02-1.09926E+02 3.22805E+02
 -1       182 1.81151E+02-7.39681E+01 1.07015E+03
 -1       183 1.90642E+02-5.65206E+01 1.83861E+03
 -1       184 1.92601E+02-2.07276E+02-2.24398E+03
 -1       185 1.83493E+02-2.08375E+02-1.84989E+03
 -1       186 1.80411E+02-1.84248E+02-1.47181E+03
 -1       187 1.82861E+02-1.65173E+02-1.09225E+03
 -1       188 1.84546E+02-1.47834E+02-7.07442E+02
 -1       189 1.88026E+02-1.31445E+02-3.14208E+02
 -1       190 1.91383E+02-1.16268E+02 8.54445E+01
 -1       191 1.93031E+02-1.02012E+02 4.89903E+02
 -1       192 1.94984E+02-8.96838E+01 8.95590E+02
 -1       193 1.97535E+02-8.06013E+01 1.30243E+03
 -1       194 2.01290E+02-7.81724E+01 1.71018E+03
 -1       195 2.21373E+02-1.74125E+02-2.68740E+03
 -1       196 1.96877E+02-1.63548E+02-1.83627E+03
 -1       197 1.98917E+02-1.37219E+02-1.00400E+03
 -1       198 2.03364E+02-1.18599E+02-1.59522E+02
 -1       199 2.04539E+02-1.01036E+02 6.94074E+02
 -1       200 2.07366E+02-9.29268E+01 1.54168E+03
 -1       201 2.29334E+02-1.54096E+02-3.05000E+03
 -1       202 2.19660E+02-1.20066E+02-2.58732E+03
 -1       203 2.05532E+02-1.30433E+02-2.13149E+03
 -1       204 2.00018E+02-1.31363E+02-1.70124E+03
 -1       205 2.05299E+02-1.28778E+02-1.27868E+03
 -1       206 2.08840E+02-1.24021E+02-8.45262E+02
 -1       207 2.11314E+02-1.18360E+02-4.06178E+02
 -1       208 2.12352E+02-1.12470E+02 3.72054E+01
 -1       209 2.10416E+02-1.06671E+02 4.76926E+02
 -1       210 2.08622E+02-1.01214E+02 9.08490E+02
 -1       211 2.10182E+02-1.04088E+02 1.33948E+03
 -1       212 2.33761E+02 8.37724E+01-3.26393E+03
 -1       213 2.11782E+02-1.02671E+02-2.35028E+03
 -1       214 2.04469E+02-1.23337E+02-1.52918E+03
 -1       215 2.16232E+02-1.18273E+02-6.49409E+02
 -1       216 2.13222E+02-1.07828E+02 2.54955E+02
 -1       217 2.04963E+02-8.69994E+01 1.11366E+03
 -1       218 6.04636E+02 3.92056E+02-3.28353E+03
 -1       219 3.46349E+02-4.56706E+01-2.87931E+03
 -1       220 1.85136E+02-1.00559E+02-2.55008E+03
 -1       221 2.01433E+02-1.10604E+02-2.18102E+03
 -1       222 2.08826E+02-1.20403E+02-1.76990E+03
 -1       223 2.13547E+02-1.22195E+02-1.34308E+03
 -1       224 2.15667E+02-1.18924E+02-8.92869E+02
 -1       225 2.17671E+02-1.12037E+02-4.30574E+02
 -1       226 2.17852E+02-1.07432E+02 3.26336E+01
 -1       227 1.87561E+02-1.04179E+02 4.76436E+02
 -1       228 1.46844E+02-5.34031E+01 8.91011E+02
 -1       229-5.25227E+02 2.61255E+02 1.36193E+03
 -1       230 2.62138E+01-1.24167E+02 1.07368E+03
 -1       231 2.26310E+01-8.26962E+01 1.08857E+03
 -1       232 4.75900E+01-3.29856E+01 1.16132E+03
 -1       233 2.73723E+01 2.47289E+01 1.21266E+03
 -1       234 4.80056E+02 6.16886E+02 1.18777E+03
 -1       235 1.46887E+01-1.82977E+02 1.36848E+02
 -1       236 4.82472E+01-1.52680E+02 2.66419E+02
 -1       237 4.95011E+01-9.52527E+01 5.36949E+02
 -1       238 6.51848E+01-4.92767E+01 8.99237E+02
 -1       239 5.87691E+01-1.63490E+01 1.31787E+03
 -1       240 9.06611E+01 5.19273E+00 1.80916E+03
 -1       241 7.16165E+01-1.61086E+02-1.10996E+03
 -1       242 8.15668E+01-1.42360E+02-6.20309E+02
 -1       243 9.42729E+01-1.03510E+02-7.37769E+01
 -1       244 1.02225E+02-6.77569E+01 5.43207E+02
 -1       245 1.10713E+02-3.30429E+01 1.20599E+03
 -1       246 1.26829E+02-1.44122E+01 1.90666E+03
 -1       247 1.39569E+02-1.31270E+02-2.23881E+03
 -1       248 1.24203E+02-1.21691E+02-1.47291E+03
 -1       249 1.24233E+02-1.00253E+02-7.08014E+02
 -1       250 1.29705E+02-7.84986E+01 8.54403E+01
 -1       251 1.31109E+02-6.09836E+01 8.96389E+02
 -1       252 1.34101E+02-5.34818E+01 1.71200E+03
 -1       253 1.59381E+02-1.13097E+02-3.04369E+03
 -1       254 1.25726E+02-1.08858E+02-2.13510E+03
 -1       255 1.41344E+02-8.52556E+01-1.27865E+03
 -1       256 1.42000E+02-8.09379E+01-4.06297E+02
 -1       257 1.45448E+02-7.35300E+01 4.77441E+02
 -1       258 1.41633E+02-7.11980E+01 1.34029E+03
 -1       259 6.64296E+02 6.23263E+02-3.27509E+03
 -1       260 1.18660E+02-6.02047E+01-2.55719E+03
 -1       261 1.48443E+02-6.99897E+01-1.77358E+03
 -1       262 1.43376E+02-8.05784E+01-8.93265E+02
 -1       263 1.48839E+02-7.16398E+01 3.14584E+01
 -1       264 5.09532E+01-3.13651E+00 8.90121E+02
 -1       265 0.00000E+00 0.00000E+00 0.00000E+00
 -1       266 0.00000E+00 0.00000E+00 0.00000E+00
 -1       267 0.00000E+00 0.00000E+00 0.00000E+00
 -1       268 0.00000E+00 0.00000E+00 0.00000E+00
 -1       269 0.00000E+00 0.00000E+00 0.00000E+00
 -1       270 0.00000E+00 0.00000E+00 0.00000E+00
 -1       271 0.00000E+00 0.00000E+00 0.00000E+00
 -1       272 0.00000E+00 0.00000E+00 0.00000E+00
 -1       273 0.00000E+00 0.00000E+00 0.00000E+00
 -1       274 0.00000E+00 0.00000E+00 0.00000E+00
 -1       275 0.00000E+00 0.00000E+00 0.00000E+00
 -1       276 0.00000E+00 0.00000E+00 0.00000E+00
 -1       277 0.00000E+00 0.00000E+00 0.00000E+00
 -1       278 0.00000E+00 0.00000E+00 0.00000E+00
 -1       279 0.00000E+00 0.00000E+00 0.00000E+00
 -1       280-1.91144E+02-1.01044E+03-2.91627E+03
 -1       281-1.44999E+02-1.50670E+03-4.73473E+03
 -1       282-1.26658E+02-1.95917E+03-6.07416E+03
 -1       283 1.51584E+01-2.20080E+03-6.82807E+03
 -1       284-1.34438E+02-2.49654E+03-7.57803E+03
 -1       285 1.83033E+02-2.28670E+03-7.02374E+03
 -1       286 3.57076E+02-1.32122E+03-4.09532E+03
 -1       287 4.34640E+02-8.35097E+01 2.34944E+02
 -1       288-5.15699E+02-1.82420E+03-1.09725E+04
 -1       289-5.22845E+02-2.13955E+03-1.40235E+04
 -1       290-5.23777E+02-2.65983E+03-1.70265E+04
 -1       291-4.45836E+02-3.12335E+03-1.99262E+04
 -1       292-3.97747E+02-3.57517E+03-2.25990E+04
 -1       293-2.46717E+02-3.88386E+03-2.43449E+04
 -1       294-9.39460E+01-4.03481E+03-2.52745E+04
 -1       295-2.57312E+02-4.23179E+03-2.64778E+04
 -1       296-2.86487E+02-4.68358E+03-2.87402E+04
 -1       297 2.29579E+02-4.56373E+03-2.86560E+04
 -1       298 6.70300E+02-4.08589E+03-2.60955E+04
 -1       299 9.64118E+02-3.26833E+03-2.12663E+04
 -1       300 1.18804E+03-2.30109E+03-1.48330E+04
 -1       301 1.24922E+03-1.24225E+03-7.87073E+03
 -1       302 1.32148E+03-3.00288E+02-3.92028E+02
 -1       303-7.56920E+02-8.15466E+02-1.91084E+04
 -1       304-1.27978E+03-2.04251E+03-3.10193E+04
 -1       305-9.53553E+02-3.78426E+03-4.39646E+04
 -1       306-3.32315E+02-4.74518E+03-5.11905E+04
 -1       307 1.29102E+02-5.61925E+03-5.93600E+04
 -1       308 1.64721E+03-4.05175E+03-5.00411E+04
 -1       309 2.27271E+03-1.81581E+03-2.71334E+04
 -1       310 2.17783E+03 8.28416E+01-8.71633E+02
 -1       311-1.33127E+03 1.71531E+03-6.09730E+03
 -1       312-1.20168E+03 1.38492E+03-1.32705E+04
 -1       313-1.23789E+03 5.54831E+02-2.02020E+04
 -1       314-1.77569E+03-1.74060E+02-2.88157E+04
 -1       315-2.27452E+03-1.06384E+03-4.06084E+04
 -1       316-2.12833E+03-2.71250E+03-5.44665E+04
 -1       317-1.74300E+03-3.97386E+03-6.66165E+04
 -1       318-1.13174E+03-4.69058E+03-7.49045E+04
 -1       319-6.15710E+02-5.10217E+03-8.00945E+04
 -1       320 7.87203E+02-6.21896E+03-9.41796E+04
 -1       321 1.72878E+03-5.19927E+03-8.66686E+04
 -1       322 3.00128E+03-3.68956E+03-7.27313E+04
 -1       323 3.18630E+03-2.21938E+03-5.46257E+04
 -1       324 3.33413E+03-1.04444E+03-3.52860E+04
 -1       325 3.20865E+03-5.08592E+01-1.62728E+04
 -1       326 2.93887E+03 5.57446E+02 1.41716E+03
 -1       327 2.72256E+03 6.87261E+02 1.81669E+04
 -1       328 2.70129E+03 3.68478E+02 3.40282E+04
 -1       329-1.17189E+03 1.62288E+03 3.62542E+03
 -1       330-1.83484E+03 1.51740E+03-1.38850E+04
 -1       331-2.53968E+03 1.30291E+03-3.88561E+04
 -1       332 4.60438E+03-1.72305E+03-8.87650E+04
 -1       333 4.25113E+03 5.63580E+02-3.69507E+04
 -1       334 3.18464E+03 1.03589E+03 6.05821E+03
 -1       335 1.84888E+03 7.28640E+01 3.49855E+04
 -1       336 0.00000E+00 0.00000E+00 0.00000E+00
 -1       337 7.02746E+02 2.30599E+02 1.95956E+03
 -1       338 1.29791E+03 6.47399E+02 7.70205E+03
 -1       339 5.09436E+02 1.08244E+03 1.30769E+04
 -1       340-5.50592E+02 1.64076E+03 1.29728E+04
 -1       341-1.36740E+03 2.16904E+03 7.27223E+03
 -1       342-1.97982E+03 2.37932E+03-2.45674E+03
 -1       343-1.87648E+03 2.56742E+03-1.37984E+04
 -1       344-2.11521E+03 3.19314E+03-2.55885E+04
 -1       345 6.15297E+03-3.33600E+02-9.51525E+04
 -1       346 5.54974E+03 9.35529E+02-6.05700E+04
 -1       347 4.56856E+03 2.38775E+03-2.93269E+04
 -1       348 3.57627E+03 1.75990E+03-5.98022E+03
 -1       349 2.97732E+03 1.34299E+03 1.28204E+04
 -1       350 1.85247E+03 7.94983E+02 2.70682E+04
 -1       351 5.29476E+02-1.00720E+02 3.43367E+04
 -1       352-1.42679E+03-4.53639E+02 3.10159E+04
 -1       353-2.78131E+03-2.21109E+02 1.80347E+04
 -1       354-1.59398E+03-2.60840E+01 5.02639E+03
 -1       355 0.00000E+00 0.00000E+00 0.00000E+00
 -1       356 0.00000E+00 0.00000E+00 0.00000E+00
 -1       357 1.74399E+03 5.99780E+02 1.13333E+04
 -1       358 8.18527E+01 1.85555E+03 2.31001E+04
 -1       359-1.93583E+03 2.59356E+03 1.18622E+04
 -1       360-1.34118E+03 2.31531E+03-8.63320E+03
 -1       361 2.56963E+03 2.44570E+03-1.18075E+04
 -1       362 2.72528E+03 1.07015E+03 2.00518E+04
 -1       363-3.33343E+02 2.72225E+02 3.48456E+04
 -1       364-2.53057E+03-2.38208E+02 1.67294E+04
 -1       365 0.00000E+00 0.00000E+00 0.00000E+00
 -1       366 0.00000E+00 0.00000E+00 0.00000E+00
 -1       367 1.29541E+03 1.73762E+02 4.09004E+03
 -1       368 2.25224E+03 5.70293E+02 1.46820E+04
 -1       369 1.71240E+03 1.16366E+03 2.65094E+04
 -1       370 9.18209E+02 1.88947E+03 3.40473E+04
 -1       371-5.42726E+02 2.68753E+03 3.53819E+04
 -1       372-2.15881E+03 3.13927E+03 2.83435E+04
 -1       373-2.19938E+03 1.86389E+03 1.28276E+04
 -1       374-6.73007E+02 4.56170E+02 1.37100E+03
 -1       375-1.13647E+02-6.55397E+01 1.09809E+03
 -1       376 3.12104E+01-5.98868E+01 1.07915E+03
 -1       377 3.03676E+01-7.16024E+01 1.05969E+03
 -1       378 1.84291E-01-3.44622E+01 1.09223E+03
 -1       379 1.88458E+01-3.01592E+01 1.12498E+03
 -1       380 3.64270E+01-3.65417E+00 1.16344E+03
 -1       381 7.84293E+00-2.90518E+01 1.19019E+03
 -1       382 1.54301E+00 1.95121E+01 1.21857E+03
 -1       383 1.12077E+02 5.47612E+01 1.14277E+03
 -1       384 5.76146E+02 7.60766E+02 1.17387E+03
 -1       385 2.27571E+03 9.69976E+02 1.12043E+04
 -1       386 2.86301E+03 1.27498E+03 2.70797E+04
 -1       387 9.21232E+02 1.15911E+03 3.78409E+04
 -1       388-1.22005E+03 4.61913E+02 3.72501E+04
 -1       389-1.87322E+03-1.23251E+02 2.78935E+04
 -1       390-2.35916E+03-2.36061E+02 1.53646E+04
 -1       391-1.35777E+03-8.33402E+01 4.27801E+03
 -1       392 0.00000E+00 0.00000E+00 0.00000E+00
 -1       393 0.00000E+00 0.00000E+00 0.00000E+00
 -1       394 2.66110E+03 3.37146E+02 1.74505E+04
 -1       395 1.80700E+03 1.57728E+03 4.44392E+04
 -1       396-7.45681E+02 3.61605E+03 4.94216E+04
 -1       397-2.82489E+01 1.20509E+00 8.20662E+02
 -1       398-3.40843E+01-3.67377E+01 6.84740E+02
 -1       399 2.37422E+01-4.84885E+01 8.17281E+02
 -1       400 1.53068E+01-2.51867E+01 1.03791E+03
 -1       401 5.69967E+01 5.31930E+01 1.27101E+03
 -1       402 4.28532E+01 1.46060E+02 1.64624E+03
 -1       403-2.12909E+03 5.34869E+01 3.89104E+04
 -1       404-2.13931E+03-3.84838E+02 1.35607E+04
 -1       405 0.00000E+00 0.00000E+00 0.00000E+00
 -1       406 0.00000E+00 0.00000E+00 0.00000E+00
 -1       407 1.64375E+03-2.25735E+01 4.92069E+03
 -1       408 2.86747E+03 3.81889E+01 1.85384E+04
 -1       409 2.94302E+03 3.56208E+02 3.56340E+04
 -1       410 2.87747E+03 1.19340E+03 5.25758E+04
 -1       411 1.47190E+03 2.50959E+03 6.56499E+04
 -1       412 4.73360E+02 3.90045E+03 7.17333E+04
 -1       413 2.43308E+00-1.07535E+02 1.31814E+02
 -1       414-2.97559E+01-5.48954E+01 1.96133E+02
 -1       415 4.57146E+01-9.50004E+01 2.64720E+02
 -1       416 3.25757E+01-6.74448E+01 3.85289E+02
 -1       417 2.18916E+01-4.93874E+01 5.36845E+02
 -1       418 3.02822E+01-3.47387E+01 7.09844E+02
 -1       419 3.76821E+01-2.43998E+01 8.98685E+02
 -1       420 2.68965E+01-2.01498E+01 1.10206E+03
 -1       421 1.48366E+01-3.06336E+01 1.32087E+03
 -1       422 7.53589E+01 5.51058E+01 1.54648E+03
 -1       423 5.22753E+01-1.63171E+01 1.80358E+03
 -1       424-2.72776E+03-2.66018E+02 3.85293E+04
 -1       425-2.36000E+03-5.97247E+02 2.34021E+04
 -1       426-1.82898E+03-5.92371E+02 1.08986E+04
 -1       427-9.46160E+02-1.98756E+02 2.80894E+03
 -1       428 0.00000E+00 0.00000E+00 0.00000E+00
 -1       429 0.00000E+00 0.00000E+00 0.00000E+00
 -1       430 2.73174E+03-6.55994E+02 1.67508E+04
 -1       431 3.77743E+03-1.26722E+02 5.57141E+04
 -1       432 4.50526E+01-1.04409E+02-4.89421E+02
 -1       433 3.64267E+01-8.44802E+01-1.72925E+02
 -1       434 3.74317E+01-5.19413E+01 2.38223E+02
 -1       435 4.51650E+01-3.02139E+01 7.36352E+02
 -1       436 4.28668E+01-2.04443E+01 1.29158E+03
 -1       437 4.22245E+01-2.16483E+01 1.90757E+03
 -1       438-1.08122E+03-6.36527E+02 6.70763E+03
 -1       439 0.00000E+00 0.00000E+00 0.00000E+00
 -1       440 0.00000E+00 0.00000E+00 0.00000E+00
 -1       441 9.40558E+02-4.77811E+02 2.42677E+03
 -1       442 2.12265E+03-1.55531E+03 1.10618E+04
 -1       443 3.55350E+03-1.38946E+03 2.86914E+04
 -1       444 4.51505E+03-1.04777E+03 5.24748E+04
 -1       445 2.33073E+01-7.75705E+01-1.11379E+03
 -1       446 4.73112E+01-8.94210E+01-8.68781E+02
 -1       447 3.98760E+01-7.28567E+01-6.20616E+02
 -1       448 4.46351E+01-6.35239E+01-3.57584E+02
 -1       449 4.99558E+01-5.43038E+01-7.38618E+01
 -1       450 5.16068E+01-4.51706E+01 2.27264E+02
 -1       451 5.28551E+01-3.55780E+01 5.43431E+02
 -1       452 5.65685E+01-2.57377E+01 8.70162E+02
 -1       453 5.97772E+01-1.37497E+01 1.20644E+03
 -1       454 5.67103E+01-1.78427E+01 1.55217E+03
 -1       455 7.69635E+01 3.50905E+00 1.90242E+03
 -1       456-4.19948E+02-5.68228E+02 2.75735E+03
 -1       457-2.43441E+02-1.60429E+02 8.08255E+02
 -1       458 0.00000E+00 0.00000E+00 0.00000E+00
 -1       459 0.00000E+00 0.00000E+00 0.00000E+00
 -1       460-1.98374E+02-1.85808E+03-1.24740E+03
 -1       461 5.59042E+01-7.10408E+01-1.70231E+03
 -1       462 5.49093E+01-6.72640E+01-1.06129E+03
 -1       463 5.81073E+01-5.44892E+01-3.93582E+02
 -1       464 6.12658E+01-3.89132E+01 3.23172E+02
 -1       465 6.53594E+01-2.37544E+01 1.07103E+03
 -1       466 6.91083E+01-1.50669E+01 1.83860E+03
 -1       467 4.35264E+00-3.72391E+02 4.39501E+01
 -1       468 0.00000E+00 0.00000E+00 0.00000E+00
 -1       469 0.00000E+00 0.00000E+00 0.00000E+00
 -1       470-1.15548E+03-4.75232E+02-3.07806E+03
 -1       471-2.51992E+03-1.52998E+03-1.35316E+04
 -1       472-4.02002E+03-1.29212E+03-3.37356E+04
 -1       473-5.01476E+03-9.02692E+02-6.03577E+04
 -1       474 8.62651E+01-5.53546E+01-2.23360E+03
 -1       475 6.06324E+01-7.90339E+01-1.85253E+03
 -1       476 6.78958E+01-5.96878E+01-1.47343E+03
 -1       477 6.61382E+01-5.78129E+01-1.09319E+03
 -1       478 6.41861E+01-5.27101E+01-7.08377E+02
 -1       479 6.62688E+01-4.68829E+01-3.14706E+02
 -1       480 6.82917E+01-4.08643E+01 8.54129E+01
 -1       481 6.79056E+01-3.61051E+01 4.90736E+02
 -1       482 6.74872E+01-3.23720E+01 8.96966E+02
 -1       483 7.21029E+01-2.76396E+01 1.30268E+03
 -1       484 6.68662E+01-2.89223E+01 1.71354E+03
 -1       485 5.89840E+02-8.18549E+01-7.48954E+03
 -1       486 4.83223E+02-1.41141E+02-4.32576E+03
 -1       487 3.28313E+02-1.69797E+02-1.83479E+03
 -1       488 1.62624E+02-6.00523E+01-4.04880E+02
 -1       489 0.00000E+00 0.00000E+00 0.00000E+00
 -1       490 0.00000E+00 0.00000E+00 0.00000E+00
 -1       491-3.07113E+03-5.71405E+02-1.88791E+04
 -1       492-4.21786E+03 1.24255E+02-6.24458E+04
 -1       493 6.23657E+01-8.72563E+01-2.69833E+03
 -1       494 6.42489E+01-7.01965E+01-1.83563E+03
 -1       495 7.14728E+01-4.78138E+01-1.00532E+03
 -1       496 7.16343E+01-4.24575E+01-1.59385E+02
 -1       497 7.32539E+01-3.72415E+01 6.95362E+02
 -1       498 7.64749E+01-3.65325E+01 1.54233E+03
 -1       499 4.79139E+02 2.25152E+01-7.63185E+03
 -1       500 3.91538E+02-6.68441E+01-2.44082E+03
 -1       501 0.00000E+00 0.00000E+00 0.00000E+00
 -1       502 0.00000E+00 0.00000E+00 0.00000E+00
 -1       503-1.77589E+03 1.78465E+01-5.30943E+03
 -1       504-3.10670E+03 1.76037E+02-2.00370E+04
 -1       505-3.23128E+03 6.21962E+02-3.86740E+04
 -1       506-3.21635E+03 1.59416E+03-5.74409E+04
 -1       507-1.78924E+03 3.04404E+03-7.24646E+04
 -1       508-7.76476E+02 4.52001E+03-8.03599E+04
 -1       509 8.90549E+01-8.15402E+01-3.03610E+03
 -1       510 1.16643E+02 6.31070E+00-2.57547E+03
 -1       511 4.74688E+01-8.45147E+01-2.13836E+03
 -1       512 6.23706E+01-5.41946E+01-1.70672E+03
 -1       513 7.74177E+01-4.21829E+01-1.27840E+03
 -1       514 7.54519E+01-4.12317E+01-8.45424E+02
 -1       515 7.29540E+01-4.34341E+01-4.06372E+02
 -1       516 7.64836E+01-4.10975E+01 3.69167E+01
 -1       517 8.01921E+01-4.03848E+01 4.77849E+02
 -1       518 6.62044E+01-3.14275E+01 9.09895E+02
 -1       519 7.36755E+01-3.88768E+01 1.34085E+03
 -1       520-3.62551E+01 5.11035E+02-8.72598E+03
 -1       521 1.20413E+02 3.29120E+02-8.43197E+03
 -1       522 3.44118E+02 1.69742E+02-7.05337E+03
 -1       523 3.86089E+02 5.69725E+01-4.91654E+03
 -1       524 4.00748E+02 9.79367E+00-2.59382E+03
 -1       525 2.28262E+02-9.78964E-01-7.04874E+02
 -1       526 0.00000E+00 0.00000E+00 0.00000E+00
 -1       527 0.00000E+00 0.00000E+00 0.00000E+00
 -1       528-2.75028E+03 5.17673E+02-1.80132E+04
 -1       529-2.01023E+03 2.05771E+03-4.67213E+04
 -1       530 5.02730E+02 4.28097E+03-5.43199E+04
 -1       531 9.31600E+01 1.09919E+02-3.32418E+03
 -1       532 1.10435E+02 1.96052E+01-2.35685E+03
 -1       533 6.74601E+01-4.75883E+01-1.53125E+03
 -1       534 7.88820E+01-3.97210E+01-6.50142E+02
 -1       535 6.86760E+01-3.35843E+01 2.53468E+02
 -1       536 7.01154E+01-2.24448E+01 1.10749E+03
 -1       537-2.00107E+02 4.46144E+02-5.87526E+03
 -1       538 2.06764E+02 1.83891E+02-6.01327E+03
 -1       539 3.76006E+02 3.54140E+01-2.46748E+03
 -1       540 0.00000E+00 0.00000E+00 0.00000E+00
 -1       541 0.00000E+00 0.00000E+00 0.00000E+00
 -1       542-1.24208E+03 2.45043E+02-3.88921E+03
 -1       543-2.16668E+03 8.00857E+02-1.40427E+04
 -1       544-1.70837E+03 1.57114E+03-2.56120E+04
 -1       545-9.79834E+02 2.41811E+03-3.33027E+04
 -1       546 4.03571E+02 3.36037E+03-3.52272E+04
 -1       547 1.96417E+03 3.88301E+03-2.91399E+04
 -1       548 2.15392E+03 2.53220E+03-1.43725E+04
 -1       549 7.24620E+02 8.70731E+02-3.27032E+03
 -1       550 1.82547E+02 4.66396E+00-2.83338E+03
 -1       551 4.71110E+01-2.45414E+01-2.56309E+03
 -1       552 5.41376E+01-6.69315E+01-2.17523E+03
 -1       553 8.83178E+01-1.85860E+01-1.77735E+03
 -1       554 7.91040E+01-3.91933E+01-1.34436E+03
 -1       555 7.11333E+01-4.24607E+01-8.93507E+02
 -1       556 7.93434E+01-4.34393E+01-4.28714E+02
 -1       557 8.13443E+01-3.58448E+01 3.01261E+01
 -1       558 5.60642E+01-3.52686E+01 4.84193E+02
 -1       559-4.71397E+01 4.70430E+01 8.89770E+02
 -1       560-3.55087E+02 1.68106E+02-7.95655E+02
 -1       561-3.94341E+02 3.40371E+02-3.36666E+03
 -1       562-1.35655E+02 2.89580E+02-4.80610E+03
 -1       563 1.00129E+02 1.92790E+02-4.88031E+03
 -1       564 2.36368E+02 1.11572E+02-3.90639E+03
 -1       565 3.35265E+02 5.19075E+01-2.19737E+03
 -1       566 1.94020E+02 1.60204E+01-6.16170E+02
 -1       567 0.00000E+00 0.00000E+00 0.00000E+00
 -1       568 0.00000E+00 0.00000E+00 0.00000E+00
 -1       569-1.43726E+03 8.72617E+02-9.24020E+03
 -1       570-8.19457E+01 2.46385E+03-1.90737E+04
 -1       571 1.77139E+03 3.08762E+03-8.92913E+03
 -1       572 1.56725E+03 2.97273E+03 1.17425E+04
 -1       573-2.64191E+02 2.39540E+02 2.07726E+03
 -1       574-3.47712E+02 2.33787E+02-1.74024E+03
 -1       575 1.28066E+00 1.67878E+02-3.81829E+03
 -1       576 2.92762E+02 4.54258E+01-1.92173E+03
 -1       577 0.00000E+00 0.00000E+00 0.00000E+00
 -1       578 0.00000E+00 0.00000E+00 0.00000E+00
 -1       579-3.79735E+02 3.27057E+02-8.19268E+02
 -1       580-7.64647E+02 9.61814E+02-3.90411E+03
 -1       581-1.86014E+02 1.60978E+03-6.62114E+03
 -1       582 5.54525E+02 2.28500E+03-5.29876E+03
 -1       583 1.20924E+03 2.74841E+03-1.66629E+02
 -1       584 1.69569E+03 2.84226E+03 8.24667E+03
 -1       585 1.92910E+03 2.81548E+03 1.88743E+04
 -1       586 2.72789E+03 3.00664E+03 3.20694E+04
 -1       587 3.54972E+03 1.28098E+03 5.21562E+04
 -1       588 3.96381E+03 3.68917E+01 7.45553E+04
 -1       589-5.44743E+02-8.63092E+01 9.85986E+03
 -1       590-5.11618E+02 4.10026E+01 6.73563E+03
 -1       591-4.39638E+02 2.23648E+02 3.78083E+03
 -1       592-3.47758E+02 1.98889E+02 1.49857E+03
 -1       593-3.32382E+02 1.99325E+02-4.71398E+02
 -1       594-2.22143E+02 1.86738E+02-2.10073E+03
 -1       595-7.55298E+01 1.14015E+02-2.99628E+03
 -1       596 1.20646E+02 6.77587E+01-2.81904E+03
 -1       597 2.63499E+02 4.54109E+01-1.65751E+03
 -1       598 1.47819E+02 1.83058E+01-4.49793E+02
 -1       599 0.00000E+00 0.00000E+00 0.00000E+00
 -1       600 9.88066E+02 2.19077E+03 7.74272E+03
 -1       601 1.44032E+03 1.82292E+03 2.19887E+04
 -1       602 2.18190E+03 8.66261E+02 4.25591E+04
 -1       603 2.71179E+03-1.15992E+03 7.08951E+04
 -1       604-4.06665E+02-2.10791E+02 8.94879E+03
 -1       605-3.78535E+02 2.80293E+01 4.41108E+03
 -1       606-3.06480E+02 1.35851E+02 5.02348E+02
 -1       607-1.91011E+02 1.06559E+02-2.39604E+03
 -1       608 9.02326E+02 2.29163E+03 2.07778E+04
 -1       609 7.31422E+02 1.62265E+03 2.52371E+04
 -1       610 7.22858E+02 5.14145E+02 2.90103E+04
 -1       611 1.14640E+03-2.11292E+02 3.44851E+04
 -1       612 1.32905E+03-1.07951E+03 4.18072E+04
 -1       613 1.43992E+03-1.84487E+03 4.99722E+04
 -1       614 1.75058E+03-2.84610E+03 5.92794E+04
 -1       615-2.83836E+02-3.84474E+02 7.20991E+03
 -1       616-2.63084E+02-2.50846E+02 5.62038E+03
 -1       617-2.65144E+02-1.42571E+02 4.06405E+03
 -1       618-2.66325E+02-3.19091E+01 2.50764E+03
 -1       619-2.39065E+02 5.02966E+01 1.04453E+03
 -1       620-2.36311E+02 1.16263E+02-3.34925E+02
 -1       621-2.56428E+02 1.22254E+02-1.76379E+03
 -1       622 3.49156E+02-1.24160E+03 2.64333E+04
 -1       623 6.87634E+02-1.99312E+03 3.27605E+04
 -1       624 5.93465E+02-3.44061E+03 3.99673E+04
 -1       625-1.27499E+02-4.24992E+02 4.73564E+03
 -1       626-1.68510E+02-2.04021E+02 3.05163E+03
 -1       627-1.63951E+02-4.80414E+01 1.06904E+03
 -1       628 2.78902E+02-2.41968E+03 1.52737E+04
 -1       629 2.69451E+02-2.56562E+03 1.68881E+04
 -1       630 3.24941E+02-2.78828E+03 1.85186E+04
 -1       631 3.68674E+01-3.06519E+03 1.96964E+04
 -1       632-4.50349E+02-3.20060E+03 1.89565E+04
 -1       633-8.41565E+02-2.16716E+03 1.36825E+04
 -1       634-8.73527E+02-1.20850E+03 7.86612E+03
 -1       635-4.68842E+02-6.50395E+02 4.18104E+03
 -1       636-1.10636E+02-3.34600E+02 2.17160E+03
 -1       637-9.18440E+00-3.15778E+02 1.99535E+03
 -1       638 2.29935E+01-3.73080E+02 2.20821E+03
 -1       639-4.40575E+01-3.25601E+02 2.08805E+03
 -1       640-8.89085E+01-2.55685E+02 1.68531E+03
 -1       641-9.38010E+01-1.80928E+02 1.16675E+03
 -1       642-1.03942E+02-1.11828E+02 5.90895E+02
 -1       643 1.36382E+02-1.34653E+03 4.16882E+03
 -1       644 8.45269E+01-1.64900E+03 5.19592E+03
 -1       645-1.84609E+02-1.66360E+03 4.87811E+03
 -1       646-2.47559E+02-7.00192E+02 2.23181E+03
 -1       647-4.32416E+01-1.84452E+02 6.91617E+02
 -1       648 1.18344E+01-1.95177E+02 5.70752E+02
 -1       649-2.61399E+01-1.50805E+02 4.66150E+02
 -1       650-3.66359E+01-5.46166E+01 1.34270E+02
 -1       651 0.00000E+00 0.00000E+00 0.00000E+00
 -1       652 0.00000E+00 0.00000E+00 0.00000E+00
 -1       653 0.00000E+00 0.00000E+00 0.00000E+00
 -1       654 0.00000E+00 0.00000E+00 0.00000E+00
 -1       655 0.00000E+00 0.00000E+00 0.00000E+00
 -1       656 0.00000E+00 0.00000E+00 0.00000E+00
 -1       657 0.00000E+00 0.00000E+00 0.00000E+00
 -1       658 0.00000E+00 0.00000E+00 0.00000E+00
 -1       659 0.00000E+00 0.00000E+00 0.00000E+00
 -1       660 0.00000E+00 0.00000E+00 0.00000E+00
 -1       661 0.00000E+00 0.00000E+00 0.00000E+00
 -1       662 0.00000E+00 0.00000E+00 0.00000E+00
 -1       663 0.00000E+00 0.00000E+00 0.00000E+00
 -1       664 0.00000E+00 0.00000E+00 0.00000E+00
 -1       665 0.00000E+00 0.00000E+00 0.00000E+00
 -1       666 0.00000E+00 0.00000E+00 0.00000E+00
 -1       667 0.00000E+00 0.00000E+00 0.00000E+00
 -1       668 0.00000E+00 0.00000E+00 0.00000E+00
 -1       669 0.00000E+00 0.00000E+00 0.00000E+00
 -1       670 0.00000E+00 0.00000E+00 0.00000E+00
 -1       671 0.00000E+00 0.00000E+00 0.00000E+00
 -1       672 0.00000E+00 0.00000E+00 0.00000E+00
 -1       673 0.00000E+00 0.00000E+00 0.00000E+00
 -1       674-2.85181E-10-4.12574E-10-1.09657E+04
 -1       675-2.34868E-10-2.72372E-10-1.69951E+04
 -1       676-1.83203E-10-8.81539E-11-2.25553E+04
 -1       677-8.30946E-11 8.97156E-12-2.51914E+04
 -1       678 2.02025E-12-4.59688E-11-2.86531E+04
 -1       679 6.37601E-12-8.14747E-11-2.60556E+04
 -1       680 1.09837E-10-2.48600E-10-1.48113E+04
 -1       681 1.74508E-10-4.71744E-10-3.96017E+02
 -1       682-7.25452E-10-2.11927E-10-6.09771E+03
 -1       683-5.96114E-10-5.92125E-10-2.02356E+04
 -1       684-4.84620E-10-4.98918E-10-4.06701E+04
 -1       685-4.71000E-10-1.98469E-10-6.66459E+04
 -1       686-3.10458E-10 1.49664E-11-8.01327E+04
 -1       687-1.55728E-10-1.85824E-10-9.42298E+04
 -1       688 2.02635E-10 5.46184E-12-7.28062E+04
 -1       689 3.98289E-10-4.55295E-10-3.53398E+04
 -1       690 6.02130E-10-9.39062E-10 1.40761E+03
 -1       691 8.77369E-10-1.02026E-09 3.40357E+04
 -1       692 0.00000E+00 0.00000E+00 0.00000E+00
 -1       693-9.69448E-11-3.10036E-11 7.69822E+03
 -1       694-2.79168E-10-2.40468E-10 1.30059E+04
 -1       695-4.19421E-10-5.93404E-10-2.46758E+03
 -1       696-4.51105E-10-1.10347E-09-2.56030E+04
 -1       697 1.01487E-09-3.89446E-12-9.51867E+04
 -1       698 9.75469E-10-8.44778E-10-2.93398E+04
 -1       699 8.83034E-10-1.05764E-09 1.28475E+04
 -1       700 8.57840E-10-8.30114E-10 3.43953E+04
 -1       701 4.19183E-10-2.52574E-10 1.80198E+04
 -1       702 0.00000E+00 0.00000E+00 0.00000E+00
 -1       703 0.00000E+00 0.00000E+00 0.00000E+00
 -1       704 3.59231E-11-4.38721E-11 1.46625E+04
 -1       705 9.58089E-11-2.33692E-10 3.41029E+04
 -1       706 1.45795E-10-4.86722E-10 2.83688E+04
 -1       707 8.20041E-10-2.44869E-09 1.37426E+03
 -1       708 1.00013E-09-2.93052E-09 1.07550E+03
 -1       709 1.06183E-09-2.93355E-09 1.09271E+03
 -1       710 1.10421E-09-2.88429E-09 1.16370E+03
 -1       711 1.13333E-09-2.77039E-09 1.21591E+03
 -1       712 1.03204E-09-2.24527E-09 1.17708E+03
 -1       713 7.08408E-10-1.07986E-09 2.71041E+04
 -1       714 3.25983E-10-5.92195E-10 3.73095E+04
 -1       715 1.10070E-10-1.44513E-10 1.53395E+04
 -1       716 0.00000E+00 0.00000E+00 0.00000E+00
 -1       717 0.00000E+00 0.00000E+00 0.00000E+00
 -1       718 7.58333E-11-6.14010E-11 1.85122E+04
 -1       719 1.56335E-10-1.74706E-10 5.26378E+04
 -1       720 1.85462E-10-3.89280E-10 7.17635E+04
 -1       721 1.05972E-09-2.88547E-09 1.32754E+02
 -1       722 1.04976E-09-2.93686E-09 2.65044E+02
 -1       723 1.03976E-09-2.93900E-09 5.36742E+02
 -1       724 1.03597E-09-2.88179E-09 8.98840E+02
 -1       725 1.03212E-09-2.78031E-09 1.32113E+03
 -1       726 1.02597E-09-2.69060E-09 1.80594E+03
 -1       727-1.45234E-10-4.28139E-10 3.85349E+04
 -1       728-5.85533E-11-1.02826E-10 1.08668E+04
 -1       729 0.00000E+00 0.00000E+00 0.00000E+00
 -1       730 0.00000E+00 0.00000E+00 0.00000E+00
 -1       731 4.51321E-11-8.45091E-11 1.10322E+04
 -1       732-2.22661E-11 3.14933E-11 5.24850E+04
 -1       733 1.02587E-09-2.93703E-09-1.11372E+03
 -1       734 1.01939E-09-2.92014E-09-6.21048E+02
 -1       735 1.01635E-09-2.92274E-09-7.38687E+01
 -1       736 1.00943E-09-2.87640E-09 5.43496E+02
 -1       737 1.00165E-09-2.78278E-09 1.20657E+03
 -1       738 9.98335E-10-2.71389E-09 1.90234E+03
 -1       739-3.36746E-12-2.67421E-11 2.74151E+03
 -1       740 0.00000E+00 0.00000E+00 0.00000E+00
 -1       741 0.00000E+00 0.00000E+00 0.00000E+00
 -1       742-1.16110E-10-1.62484E-10-1.34951E+04
 -1       743-3.99722E-10-7.15450E-10-6.03736E+04
 -1       744 9.61454E-10-2.94091E-09-2.23448E+03
 -1       745 9.61923E-10-2.91794E-09-1.47327E+03
 -1       746 9.59334E-10-2.91976E-09-7.08586E+02
 -1       747 9.66663E-10-2.87251E-09 8.54531E+01
 -1       748 9.76248E-10-2.78397E-09 8.97109E+02
 -1       749 9.73922E-10-2.70453E-09 1.71399E+03
 -1       750 6.44272E-11-1.71729E-10-7.49172E+03
 -1       751 4.87482E-11-6.18019E-11-1.83042E+03
 -1       752 0.00000E+00 0.00000E+00 0.00000E+00
 -1       753 0.00000E+00 0.00000E+00 0.00000E+00
 -1       754 5.53547E-11-2.26510E-10-2.00088E+04
 -1       755 4.03139E-11-6.48201E-10-5.75064E+04
 -1       756-2.79236E-10-1.37207E-09-8.03949E+04
 -1       757 8.85363E-10-2.90252E-09-3.03545E+03
 -1       758 8.98495E-10-2.91854E-09-2.13962E+03
 -1       759 9.08193E-10-2.92781E-09-1.27838E+03
 -1       760 9.14219E-10-2.89212E-09-4.06483E+02
 -1       761 9.22231E-10-2.79363E-09 4.78070E+02
 -1       762 9.19123E-10-2.64906E-09 1.33985E+03
 -1       763 1.13112E-10-4.39392E-10-8.73031E+03
 -1       764 5.89840E-11-2.26491E-10-7.06163E+03
 -1       765 1.83307E-11-8.23580E-11-2.59010E+03
 -1       766 0.00000E+00 0.00000E+00 0.00000E+00
 -1       767 0.00000E+00 0.00000E+00 0.00000E+00
 -1       768 1.97932E-10-2.26051E-10-1.40243E+04
 -1       769 4.18165E-10-6.42440E-10-3.33579E+04
 -1       770 6.33129E-10-1.09446E-09-2.91607E+04
 -1       771 8.38992E-10-2.38172E-09-3.28695E+03
 -1       772 9.20120E-10-2.91501E-09-2.55638E+03
 -1       773 8.83768E-10-2.93134E-09-1.77893E+03
 -1       774 8.39127E-10-2.89032E-09-8.93020E+02
 -1       775 7.78206E-10-2.78255E-09 2.97862E+01
 -1       776 6.12653E-10-2.20955E-09 8.92584E+02
 -1       777-1.40389E-11-4.89803E-10-3.36897E+03
 -1       778-6.28225E-11-2.47163E-10-4.88855E+03
 -1       779-4.63444E-11-7.24198E-11-2.19419E+03
 -1       780 0.00000E+00 0.00000E+00 0.00000E+00
 -1       781 0.00000E+00 0.00000E+00 0.00000E+00
 -1       782 4.60801E-10-3.34655E-10-3.90537E+03
 -1       783 7.70757E-10-8.35351E-10-5.31938E+03
 -1       784 8.41759E-10-9.76292E-10 8.25564E+03
 -1       785 8.79253E-10-7.29733E-10 3.20954E+04
 -1       786 1.15525E-09 2.85847E-10 7.45888E+04
 -1       787-5.06461E-10-1.58825E-10 9.86366E+03
 -1       788-4.86548E-10-6.98074E-10 3.78341E+03
 -1       789-4.06478E-10-5.24547E-10-4.71722E+02
 -1       790-3.15039E-10-2.90064E-10-3.00196E+03
 -1       791-1.52164E-10-9.04610E-11-1.65638E+03
 -1       792 0.00000E+00 0.00000E+00 0.00000E+00
 -1       793 7.26349E-10-1.00259E-09 2.07787E+04
 -1       794 5.82878E-10-8.44302E-10 2.90638E+04
 -1       795 4.65109E-10-3.95634E-10 4.18691E+04
 -1       796 4.69754E-10 2.18295E-10 5.93247E+04
 -1       797-2.36659E-10-1.25543E-10 7.21485E+03
 -1       798-2.83846E-10-3.79201E-10 4.06948E+03
 -1       799-4.33486E-10-5.21781E-10 1.04743E+03
 -1       800-5.50618E-10-3.38903E-10-1.76347E+03
 -1       801 2.08040E-10-3.98457E-10 1.52590E+04
 -1       802 1.09112E-10-1.66574E-10 1.84968E+04
 -1       803 8.37881E-11 7.31678E-11 1.89126E+04
 -1       804 6.66797E-12-6.71463E-12 7.82621E+03
 -1       805 5.03406E-13-3.72729E-12 2.15896E+03
 -1       806-4.80016E-11-4.44130E-11 2.20272E+03
 -1       807-9.11077E-11-1.67208E-10 1.68358E+03
 -1       808-1.62966E-10-3.04504E-10 5.90347E+02
 -1       809 0.00000E+00 0.00000E+00 0.00000E+00
 -1       810 0.00000E+00 0.00000E+00 0.00000E+00
 -1       811 0.00000E+00 0.00000E+00 0.00000E+00
 -1       812 0.00000E+00 0.00000E+00 0.00000E+00
 -1       813 0.00000E+00 0.00000E+00 0.00000E+00
 -1       814 0.00000E+00 0.00000E+00 0.00000E+00
 -1       815 0.00000E+00 0.00000E+00 0.00000E+00
 -1       816 0.00000E+00 0.00000E+00 0.00000E+00
 -1       817 0.00000E+00 0.00000E+00 0.00000E+00
 -1       818 0.00000E+00 0.00000E+00 0.00000E+00
 -1       819 0.00000E+00 0.00000E+00 0.00000E+00
 -1       820 0.00000E+00 0.00000E+00 0.00000E+00
 -1       821 0.00000E+00 0.00000E+00 0.00000E+00
 -1       822 0.00000E+00 0.00000E+00 0.00000E+00
 -1       823 0.00000E+00 0.00000E+00 0.00000E+00
 -1       824 0.00000E+00 0.00000E+00 0.00000E+00
 -1       825 0.00000E+00 0.00000E+00 0.00000E+00
 -1       826 0.00000E+00 0.00000E+00 0.00000E+00
 -1       827 0.00000E+00 0.00000E+00 0.00000E+00
 -1       828 0.00000E+00 0.00000E+00 0.00000E+00
 -1       829 0.00000E+00 0.00000E+00 0.00000E+00
 -1       830 0.00000E+00 0.00000E+00 0.00000E+00
 -1       831 0.00000E+00 0.00000E+00 0.00000E+00
 -1       832 1.91144E+02 1.01044E+03-2.91627E+03
 -1       833 1.44999E+02 1.50670E+03-4.73473E+03
 -1       834 1.26658E+02 1.95917E+03-6.07416E+03
 -1       835-1.51584E+01 2.20080E+03-6.82807E+03
 -1       836 1.34438E+02 2.49654E+03-7.57803E+03
 -1       837-1.83033E+02 2.28670E+03-7.02374E+03
 -1       838-3.57076E+02 1.32122E+03-4.09532E+03
 -1       839-4.34640E+02 8.35097E+01 2.34944E+02
 -1       840 5.15699E+02 1.82420E+03-1.09725E+04
 -1       841 5.22845E+02 2.13955E+03-1.40235E+04
 -1       842 5.23777E+02 2.65983E+03-1.70265E+04
 -1       843 4.45836E+02 3.12335E+03-1.99262E+04
 -1       844 3.97747E+02 3.57517E+03-2.25990E+04
 -1       845 2.46717E+02 3.88386E+03-2.43449E+04
 -1       846 9.39460E+01 4.03481E+03-2.52745E+04
 -1       847 2.57312E+02 4.23179E+03-2.64778E+04
 -1       848 2.86487E+02 4.68358E+03-2.87402E+04
 -1       849-2.29579E+02 4.56373E+03-2.86560E+04
 -1       850-6.70300E+02 4.08589E+03-2.60955E+04
 -1       851-9.64118E+02 3.26833E+03-2.12663E+04
 -1       852-1.18804E+03 2.30109E+03-1.48330E+04
 -1       853-1.24922E+03 1.24225E+03-7.87073E+03
 -1       854-1.32148E+03 3.00288E+02-3.92028E+02
 -1       855 7.56920E+02 8.15466E+02-1.91084E+04
 -1       856 1.27978E+03 2.04251E+03-3.10193E+04
 -1       857 9.53553E+02 3.78426E+03-4.39646E+04
 -1       858 3.32315E+02 4.74518E+03-5.11905E+04
 -1       859-1.29102E+02 5.61925E+03-5.93600E+04
 -1       860-1.64721E+03 4.05175E+03-5.00411E+04
 -1       861-2.27271E+03 1.81581E+03-2.71334E+04
 -1       862-2.17783E+03-8.28416E+01-8.71633E+02
 -1       863 1.33127E+03-1.71531E+03-6.09730E+03
 -1       864 1.20168E+03-1.38492E+03-1.32705E+04
 -1       865 1.23789E+03-5.54831E+02-2.02020E+04
 -1       866 1.77569E+03 1.74060E+02-2.88157E+04
 -1       867 2.27452E+03 1.06384E+03-4.06084E+04
 -1       868 2.12833E+03 2.71250E+03-5.44665E+04
 -1       869 1.74300E+03 3.97386E+03-6.66165E+04
 -1       870 1.13174E+03 4.69058E+03-7.49045E+04
 -1       871 6.15710E+02 5.10217E+03-8.00945E+04
 -1       872-7.87203E+02 6.21896E+03-9.41796E+04
 -1       873-1.72878E+03 5.19927E+03-8.66686E+04
 -1       874-3.00128E+03 3.68956E+03-7.27313E+04
 -1       875-3.18630E+03 2.21938E+03-5.46257E+04
 -1       876-3.33413E+03 1.04444E+03-3.52860E+04
 -1       877-3.20865E+03 5.08592E+01-1.62728E+04
 -1       878-2.93887E+03-5.57446E+02 1.41716E+03
 -1       879-2.72256E+03-6.87261E+02 1.81669E+04
 -1       880-2.70129E+03-3.68478E+02 3.40282E+04
 -1       881 1.17189E+03-1.62288E+03 3.62542E+03
 -1       882 1.83484E+03-1.51740E+03-1.38850E+04
 -1       883 2.53968E+03-1.30291E+03-3.88561E+04
 -1       884-4.60438E+03 1.72305E+03-8.87650E+04
 -1       885-4.25113E+03-5.63580E+02-3.69507E+04
 -1       886-3.18464E+03-1.03589E+03 6.05821E+03
 -1       887-1.84888E+03-7.28640E+01 3.49855E+04
 -1       888 0.00000E+00 0.00000E+00 0.00000E+00
 -1       889-7.02746E+02-2.30599E+02 1.95956E+03
 -1       890-1.29791E+03-6.47399E+02 7.70205E+03
 -1       891-5.09436E+02-1.08244E+03 1.30769E+04
 -1       892 5.50592E+02-1.64076E+03 1.29728E+04
 -1       893 1.36740E+03-2.16904E+03 7.27223E+03
 -1       894 1.97982E+03-2.37932E+03-2.45674E+03
 -1       895 1.87648E+03-2.56742E+03-1.37984E+04
 -1       896 2.11521E+03-3.19314E+03-2.55885E+04
 -1       897-6.15297E+03 3.33600E+02-9.51525E+04
 -1       898-5.54974E+03-9.35529E+02-6.05700E+04
 -1       899-4.56856E+03-2.38775E+03-2.93269E+04
 -1       900-3.57627E+03-1.75990E+03-5.98022E+03
 -1       901-2.97732E+03-1.34299E+03 1.28204E+04
 -1       902-1.85247E+03-7.94983E+02 2.70682E+04
 -1       903-5.29476E+02 1.00720E+02 3.43367E+04
 -1       904 1.42679E+03 4.53639E+02 3.10159E+04
 -1       905 2.78131E+03 2.21109E+02 1.80347E+04
 -1       906 1.59398E+03 2.60840E+01 5.02639E+03
 -1       907 0.00000E+00 0.00000E+00 0.00000E+00
 -1       908 0.00000E+00 0.00000E+00 0.00000E+00
 -1       909-1.74399E+03-5.99780E+02 1.13333E+04
 -1       910-8.18527E+01-1.85555E+03 2.31001E+04
 -1       911 1.93583E+03-2.59356E+03 1.18622E+04
 -1       912 1.34118E+03-2.31531E+03-8.63320E+03
 -1       913-2.56963E+03-2.44570E+03-1.18075E+04
 -1       914-2.72528E+03-1.07015E+03 2.00518E+04
 -1       915 3.33343E+02-2.72225E+02 3.48456E+04
 -1       916 2.53057E+03 2.38208E+02 1.67294E+04
 -1       917 0.00000E+00 0.00000E+00 0.00000E+00
 -1       918 0.00000E+00 0.00000E+00 0.00000E+00
 -1       919-1.29541E+03-1.73762E+02 4.09004E+03
 -1       920-2.25224E+03-5.70293E+02 1.46820E+04
 -1       921-1.71240E+03-1.16366E+03 2.65094E+04
 -1       922-9.18209E+02-1.88947E+03 3.40473E+04
 -1       923 5.42726E+02-2.68753E+03 3.53819E+04
 -1       924 2.15881E+03-3.13927E+03 2.83435E+04
 -1       925 2.19938E+03-1.86389E+03 1.28276E+04
 -1       926 6.73007E+02-4.56170E+02 1.37100E+03
 -1       927 1.13647E+02 6.55397E+01 1.09809E+03
 -1       928-3.12104E+01 5.98868E+01 1.07915E+03
 -1       929-3.03676E+01 7.16024E+01 1.05969E+03
 -1       930-1.84291E-01 3.44622E+01 1.09223E+03
 -1       931-1.88458E+01 3.01592E+01 1.12498E+03
 -1       932-3.64270E+01 3.65417E+00 1.16344E+03
 -1       933-7.84293E+00 2.90518E+01 1.19019E+03
 -1       934-1.54301E+00-1.95121E+01 1.21857E+03
 -1       935-1.12077E+02-5.47612E+01 1.14277E+03
 -1       936-5.76146E+02-7.60766E+02 1.17387E+03
 -1       937-2.27571E+03-9.69976E+02 1.12043E+04
 -1       938-2.86301E+03-1.27498E+03 2.70797E+04
 -1       939-9.21232E+02-1.15911E+03 3.78409E+04
 -1       940 1.22005E+03-4.61913E+02 3.72501E+04
 -1       941 1.87322E+03 1.23251E+02 2.78935E+04
 -1       942 2.35916E+03 2.36061E+02 1.53646E+04
 -1       943 1.35777E+03 8.33402E+01 4.27801E+03
 -1       944 0.00000E+00 0.00000E+00 0.00000E+00
 -1       945 0.00000E+00 0.00000E+00 0.00000E+00
 -1       946-2.66110E+03-3.37146E+02 1.74505E+04
 -1       947-1.80700E+03-1.57728E+03 4.44392E+04
 -1       948 7.45681E+02-3.61605E+03 4.94216E+04
 -1       949 2.82489E+01-1.20509E+00 8.20662E+02
 -1       950 3.40843E+01 3.67377E+01 6.84740E+02
 -1       951-2.37422E+01 4.84885E+01 8.17281E+02
 -1       952-1.53068E+01 2.51867E+01 1.03791E+03
 -1       953-5.69967E+01-5.31930E+01 1.27101E+03
 -1       954-4.28532E+01-1.46060E+02 1.64624E+03
 -1       955 2.12909E+03-5.34869E+01 3.89104E+04
 -1       956 2.13931E+03 3.84838E+02 1.35607E+04
 -1       957 0.00000E+00 0.00000E+00 0.00000E+00
 -1       958 0.00000E+00 0.00000E+00 0.00000E+00
 -1       959-1.64375E+03 2.25735E+01 4.92069E+03
 -1       960-2.86747E+03-3.81889E+01 1.85384E+04
 -1       961-2.94302E+03-3.56208E+02 3.56340E+04
 -1       962-2.87747E+03-1.19340E+03 5.25758E+04
 -1       963-1.47190E+03-2.50959E+03 6.56499E+04
 -1       964-4.73360E+02-3.90045E+03 7.17333E+04
 -1       965-2.43308E+00 1.07535E+02 1.31814E+02
 -1       966 2.97559E+01 5.48954E+01 1.96133E+02
 -1       967-4.57146E+01 9.50004E+01 2.64720E+02
 -1       968-3.25757E+01 6.74448E+01 3.85289E+02
 -1       969-2.18916E+01 4.93874E+01 5.36845E+02
 -1       970-3.02822E+01 3.47387E+01 7.09844E+02
 -1       971-3.76821E+01 2.43998E+01 8.98685E+02
 -1       972-2.68965E+01 2.01498E+01 1.10206E+03
 -1       973-1.48366E+01 3.06336E+01 1.32087E+03
 -1       974-7.53589E+01-5.51058E+01 1.54648E+03
 -1       975-5.22753E+01 1.63171E+01 1.80358E+03
 -1       976 2.72776E+03 2.66018E+02 3.85293E+04
 -1       977 2.36000E+03 5.97247E+02 2.34021E+04
 -1       978 1.82898E+03 5.92371E+02 1.08986E+04
 -1       979 9.46160E+02 1.98756E+02 2.80894E+03
 -1       980 0.00000E+00 0.00000E+00 0.00000E+00
 -1       981 0.00000E+00 0.00000E+00 0.00000E+00
 -1       982-2.73174E+03 6.55994E+02 1.67508E+04
 -1       983-3.77743E+03 1.26722E+02 5.57141E+04
 -1       984-4.50526E+01 1.04409E+02-4.89421E+02
 -1       985-3.64267E+01 8.44802E+01-1.72925E+02
 -1       986-3.74317E+01 5.19413E+01 2.38223E+02
 -1       987-4.51650E+01 3.02139E+01 7.36352E+02
 -1       988-4.28668E+01 2.04443E+01 1.29158E+03
 -1       989-4.22245E+01 2.16483E+01 1.90757E+03
 -1       990 1.08122E+03 6.36527E+02 6.70763E+03
 -1       991 0.00000E+00 0.00000E+00 0.00000E+00
 -1       992 0.00000E+00 0.00000E+00 0.00000E+00
 -1       993-9.40558E+02 4.77811E+02 2.42677E+03
 -1       994-2.12265E+03 1.55531E+03 1.10618E+04
 -1       995-3.55350E+03 1.38946E+03 2.86914E+04
 -1       996-4.51505E+03 1.04777E+03 5.24748E+04
 -1       997-2.33073E+01 7.75705E+01-1.11379E+03
 -1       998-4.73112E+01 8.94210E+01-8.68781E+02
 -1       999-3.98760E+01 7.28567E+01-6.20616E+02
 -1      1000-4.46351E+01 6.35239E+01-3.57584E+02
 -1      1001-4.99558E+01 5.43038E+01-7.38618E+01
 -1      1002-5.16068E+01 4.51706E+01 2.27264E+02
 -1      1003-5.28551E+01 3.55780E+01 5.43431E+02
 -1      1004-5.65685E+01 2.57377E+01 8.70162E+02
 -1      1005-5.97772E+01 1.37497E+01 1.20644E+03
 -1      1006-5.67103E+01 1.78427E+01 1.55217E+03
 -1      1007-7.69635E+01-3.50905E+00 1.90242E+03
 -1      1008 4.19948E+02 5.68228E+02 2.75735E+03
 -1      1009 2.43441E+02 1.60429E+02 8.08255E+02
 -1      1010 0.00000E+00 0.00000E+00 0.00000E+00
 -1      1011 0.00000E+00 0.00000E+00 0.00000E+00
 -1      1012 1.98374E+02 1.85808E+03-1.24740E+03
 -1      1013-5.59042E+01 7.10408E+01-1.70231E+03
 -1      1014-5.49093E+01 6.72640E+01-1.06129E+03
 -1      1015-5.81073E+01 5.44892E+01-3.93582E+02
 -1      1016-6.12658E+01 3.89132E+01 3.23172E+02
 -1      1017-6.53594E+01 2.37544E+01 1.07103E+03
 -1      1018-6.91083E+01 1.50669E+01 1.83860E+03
 -1      1019-4.35264E+00 3.72391E+02 4.39501E+01
 -1      1020 0.00000E+00 0.00000E+00 0.00000E+00
 -1      1021 0.00000E+00 0.00000E+00 0.00000E+00
 -1      1022 1.15548E+03 4.75232E+02-3.07806E+03
 -1      1023 2.51992E+03 1.52998E+03-1.35316E+04
 -1      1024 4.02002E+03 1.29212E+03-3.37356E+04
 -1      1025 5.01476E+03 9.02692E+02-6.03577E+04
 -1      1026-8.62651E+01 5.53546E+01-2.23360E+03
 -1      1027-6.06324E+01 7.90339E+01-1.85253E+03
 -1      1028-6.78958E+01 5.96878E+01-1.47343E+03
 -1      1029-6.61382E+01 5.78129E+01-1.09319E+03
 -1      1030-6.41861E+01 5.27101E+01-7.08377E+02
 -1      1031-6.62688E+01 4.68829E+01-3.14706E+02
 -1      1032-6.82917E+01 4.08643E+01 8.54129E+01
 -1      1033-6.79056E+01 3.61051E+01 4.90736E+02
 -1      1034-6.74872E+01 3.23720E+01 8.96966E+02
 -1      1035-7.21029E+01 2.76396E+01 1.30268E+03
 -1      1036-6.68662E+01 2.89223E+01 1.71354E+03
 -1      1037-5.89840E+02 8.18549E+01-7.48954E+03
 -1      1038-4.83223E+02 1.41141E+02-4.32576E+03
 -1      1039-3.28313E+02 1.69797E+02-1.83479E+03
 -1      1040-1.62624E+02 6.00523E+01-4.04880E+02
 -1      1041 0.00000E+00 0.00000E+00 0.00000E+00
 -1      1042 0.00000E+00 0.00000E+00 0.00000E+00
 -1      1043 3.07113E+03 5.71405E+02-1.88791E+04
 -1      1044 4.21786E+03-1.24255E+02-6.24458E+04
 -1      1045-6.23657E+01 8.72563E+01-2.69833E+03
 -1      1046-6.42489E+01 7.01965E+01-1.83563E+03
 -1      1047-7.14728E+01 4.78138E+01-1.00532E+03
 -1      1048-7.16343E+01 4.24575E+01-1.59385E+02
 -1      1049-7.32539E+01 3.72415E+01 6.95362E+02
 -1      1050-7.64749E+01 3.65325E+01 1.54233E+03
 -1      1051-4.79139E+02-2.25152E+01-7.63185E+03
 -1      1052-3.91538E+02 6.68441E+01-2.44082E+03
 -1      1053 0.00000E+00 0.00000E+00 0.00000E+00
 -1      1054 0.00000E+00 0.00000E+00 0.00000E+00
 -1      1055 1.77589E+03-1.78465E+01-5.30943E+03
 -1      1056 3.10670E+03-1.76037E+02-2.00370E+04
 -1      1057 3.23128E+03-6.21962E+02-3.86740E+04
 -1      1058 3.21635E+03-1.59416E+03-5.74409E+04
 -1      1059 1.78924E+03-3.04404E+03-7.24646E+04
 -1      1060 7.76476E+02-4.52001E+03-8.03599E+04
 -1      1061-8.90549E+01 8.15402E+01-3.03610E+03
 -1      1062-1.16643E+02-6.31070E+00-2.57547E+03
 -1      1063-4.74688E+01 8.45147E+01-2.13836E+03
 -1      1064-6.23706E+01 5.41946E+01-1.70672E+03
 -1      1065-7.74177E+01 4.21829E+01-1.27840E+03
 -1      1066-7.54519E+01 4.12317E+01-8.45424E+02
 -1      1067-7.29540E+01 4.34341E+01-4.06372E+02
 -1      1068-7.64836E+01 4.10975E+01 3.69167E+01
 -1      1069-8.01921E+01 4.03848E+01 4.77849E+02
 -1      1070-6.62044E+01 3.14275E+01 9.09895E+02
 -1      1071-7.36755E+01 3.88768E+01 1.34085E+03
 -1      1072 3.62551E+01-5.11035E+02-8.72598E+03
 -1      1073-1.20413E+02-3.29120E+02-8.43197E+03
 -1      1074-3.44118E+02-1.69742E+02-7.05337E+03
 -1      1075-3.86089E+02-5.69725E+01-4.91654E+03
 -1      1076-4.00748E+02-9.79367E+00-2.59382E+03
 -1      1077-2.28262E+02 9.78964E-01-7.04874E+02
 -1      1078 0.00000E+00 0.00000E+00 0.00000E+00
 -1      1079 0.00000E+00 0.00000E+00 0.00000E+00
 -1      1080 2.75028E+03-5.17673E+02-1.80132E+04
 -1      1081 2.01023E+03-2.05771E+03-4.67213E+04
 -1      1082-5.02730E+02-4.28097E+03-5.43199E+04
 -1      1083-9.31600E+01-1.09919E+02-3.32418E+03
 -1      1084-1.10435E+02-1.96052E+01-2.35685E+03
 -1      1085-6.74601E+01 4.75883E+01-1.53125E+03
 -1      1086-7.88820E+01 3.97210E+01-6.50142E+02
 -1      1087-6.86760E+01 3.35843E+01 2.53468E+02
 -1      1088-7.01154E+01 2.24448E+01 1.10749E+03
 -1      1089 2.00107E+02-4.46144E+02-5.87526E+03
 -1      1090-2.06764E+02-1.83891E+02-6.01327E+03
 -1      1091-3.76006E+02-3.54140E+01-2.46748E+03
 -1      1092 0.00000E+00 0.00000E+00 0.00000E+00
 -1      1093 0.00000E+00 0.00000E+00 0.00000E+00
 -1      1094 1.24208E+03-2.45043E+02-3.88921E+03
 -1      1095 2.16668E+03-8.00857E+02-1.40427E+04
 -1      1096 1.70837E+03-1.57114E+03-2.56120E+04
 -1      1097 9.79834E+02-2.41811E+03-3.33027E+04
 -1      1098-4.03571E+02-3.36037E+03-3.52272E+04
 -1      1099-1.96417E+03-3.88301E+03-2.91399E+04
 -1      1100-2.15392E+03-2.53220E+03-1.43725E+04
 -1      1101-7.24620E+02-8.70731E+02-3.27032E+03
 -1      1102-1.82547E+02-4.66396E+00-2.83338E+03
 -1      1103-4.71110E+01 2.45414E+01-2.56309E+03
 -1      1104-5.41376E+01 6.69315E+01-2.17523E+03
 -1      1105-8.83178E+01 1.85860E+01-1.77735E+03
 -1      1106-7.91040E+01 3.91933E+01-1.34436E+03
 -1      1107-7.11333E+01 4.24607E+01-8.93507E+02
 -1      1108-7.93434E+01 4.34393E+01-4.28714E+02
 -1      1109-8.13443E+01 3.58448E+01 3.01261E+01
 -1      1110-5.60642E+01 3.52686E+01 4.84193E+02
 -1      1111 4.71397E+01-4.70430E+01 8.89770E+02
 -1      1112 3.55087E+02-1.68106E+02-7.95655E+02
 -1      1113 3.94341E+02-3.40371E+02-3.36666E+03
 -1      1114 1.35655E+02-2.89580E+02-4.80610E+03
 -1      1115-1.00129E+02-1.92790E+02-4.88031E+03
 -1      1116-2.36368E+02-1.11572E+02-3.90639E+03
 -1      1117-3.35265E+02-5.19075E+01-2.19737E+03
 -1      1118-1.94020E+02-1.60204E+01-6.16170E+02
 -1      1119 0.00000E+00 0.00000E+00 0.00000E+00
 -1      1120 0.00000E+00 0.00000E+00 0.00000E+00
 -1      1121 1.43726E+03-8.72617E+02-9.24020E+03
 -1      1122 8.19457E+01-2.46385E+03-1.90737E+04
 -1      1123-1.77139E+03-3.08762E+03-8.92913E+03
 -1      1124-1.56725E+03-2.97273E+03 1.17425E+04
 -1      1125 2.64191E+02-2.39540E+02 2.07726E+03
 -1      1126 3.47712E+02-2.33787E+02-1.74024E+03
 -1      1127-1.28066E+00-1.67878E+02-3.81829E+03
 -1      1128-2.92762E+02-4.54258E+01-1.92173E+03
 -1      1129 0.00000E+00 0.00000E+00 0.00000E+00
 -1      1130 0.00000E+00 0.00000E+00 0.00000E+00
 -1      1131 3.79735E+02-3.27057E+02-8.19268E+02
 -1      1132 7.64647E+02-9.61814E+02-3.90411E+03
 -1      1133 1.86014E+02-1.60978E+03-6.62114E+03
 -1      1134-5.54525E+02-2.28500E+03-5.29876E+03
 -1      1135-1.20924E+03-2.74841E+03-1.66629E+02
 -1      1136-1.69569E+03-2.84226E+03 8.24667E+03
 -1      1137-1.92910E+03-2.81548E+03 1.88743E+04
 -1      1138-2.72789E+03-3.00664E+03 3.20694E+04
 -1      1139-3.54972E+03-1.28098E+03 5.21562E+04
 -1      1140-3.96381E+03-3.68917E+01 7.45553E+04
 -1      1141 5.44743E+02 8.63092E+01 9.85986E+03
 -1      1142 5.11618E+02-4.10026E+01 6.73563E+03
 -1      1143 4.39638E+02-2.23648E+02 3.78083E+03
 -1      1144 3.47758E+02-1.98889E+02 1.49857E+03
 -1      1145 3.32382E+02-1.99325E+02-4.71398E+02
 -1      1146 2.22143E+02-1.86738E+02-2.10073E+03
 -1      1147 7.55298E+01-1.14015E+02-2.99628E+03
 -1      1148-1.20646E+02-6.77587E+01-2.81904E+03
 -1      1149-2.63499E+02-4.54109E+01-1.65751E+03
 -1      1150-1.47819E+02-1.83058E+01-4.49793E+02
 -1      1151 0.00000E+00 0.00000E+00 0.00000E+00
 -1      1152-9.88066E+02-2.19077E+03 7.74272E+03
 -1      1153-1.44032E+03-1.82292E+03 2.19887E+04
 -1      1154-2.18190E+03-8.66261E+02 4.25591E+04
 -1      1155-2.71179E+03 1.15992E+03 7.08951E+04
 -1      1156 4.06665E+02 2.10791E+02 8.94879E+03
 -1      1157 3.78535E+02-2.80293E+01 4.41108E+03
 -1      1158 3.06480E+02-1.35851E+02 5.02348E+02
 -1      1159 1.91011E+02-1.06559E+02-2.39604E+03
 -1      1160-9.02326E+02-2.29163E+03 2.07778E+04
 -1      1161-7.31422E+02-1.62265E+03 2.52371E+04
 -1      1162-7.22858E+02-5.14145E+02 2.90103E+04
 -1      1163-1.14640E+03 2.11292E+02 3.44851E+04
 -1      1164-1.32905E+03 1.07951E+03 4.18072E+04
 -1      1165-1.43992E+03 1.84487E+03 4.99722E+04
 -1      1166-1.75058E+03 2.84610E+03 5.92794E+04
 -1      1167 2.83836E+02 3.84474E+02 7.20991E+03
 -1      1168 2.63084E+02 2.50846E+02 5.62038E+03
 -1      1169 2.65144E+02 1.42571E+02 4.06405E+03
 -1      1170 2.66325E+02 3.19091E+01 2.50764E+03
 -1      1171 2.39065E+02-5.02966E+01 1.04453E+03
 -1      1172 2.36311E+02-1.16263E+02-3.34925E+02
 -1      1173 2.56428E+02-1.22254E+02-1.76379E+03
 -1      1174-3.49156E+02 1.24160E+03 2.64333E+04
 -1      1175-6.87634E+02 1.99312E+03 3.27605E+04
 -1      1176-5.93465E+02 3.44061E+03 3.99673E+04
 -1      1177 1.27499E+02 4.24992E+02 4.73564E+03
 -1      1178 1.68510E+02 2.04021E+02 3.05163E+03
 -1      1179 1.63951E+02 4.80414E+01 1.06904E+03
 -1      1180-2.78902E+02 2.41968E+03 1.52737E+04
 -1      1181-2.69451E+02 2.56562E+03 1.68881E+04
 -1      1182-3.24941E+02 2.78828E+03 1.85186E+04
 -1      1183-3.68674E+01 3.06519E+03 1.96964E+04
 -1      1184 4.50349E+02 3.20060E+03 1.89565E+04
 -1      1185 8.41565E+02 2.16716E+03 1.36825E+04
 -1      1186 8.73527E+02 1.20850E+03 7.86612E+03
 -1      1187 4.68842E+02 6.50395E+02 4.18104E+03
 -1      1188 1.10636E+02 3.34600E+02 2.17160E+03
 -1      1189 9.18440E+00 3.15778E+02 1.99535E+03
 -1      1190-2.29935E+01 3.73080E+02 2.20821E+03
 -1      1191 4.40575E+01 3.25601E+02 2.08805E+03
 -1      1192 8.89085E+01 2.55685E+02 1.68531E+03
 -1      1193 9.38010E+01 1.80928E+02 1.16675E+03
 -1      1194 1.03942E+02 1.11828E+02 5.90895E+02
 -1      1195-1.36382E+02 1.34653E+03 4.16882E+03
 -1      1196-8.45269E+01 1.64900E+03 5.19592E+03
 -1      1197 1.84609E+02 1.66360E+03 4.87811E+03
 -1      1198 2.47559E+02 7.00192E+02 2.23181E+03
 -1      1199 4.32416E+01 1.84452E+02 6.91617E+02
 -1      1200-1.18344E+01 1.95177E+02 5.70752E+02
 -1      1201 2.61399E+01 1.50805E+02 4.66150E+02
 -1      1202 3.66359E+01 5.46166E+01 1.34270E+02
 -1      1203 0.00000E+00 0.00000E+00 0.00000E+00
 -1      1204 0.00000E+00 0.00000E+00 0.00000E+00
 -1      1205 0.00000E+00 0.00000E+00 0.00000E+00
 -1      1206 0.00000E+00 0.00000E+00 0.00000E+00
 -1      1207 0.00000E+00 0.00000E+00 0.00000E+00
 -1      1208 0.00000E+00 0.00000E+00 0.00000E+00
 -1      1209 0.00000E+00 0.00000E+00 0.00000E+00
 -1      1210 0.00000E+00 0.00000E+00 0.00000E+00
 -1      1211 0.00000E+00 0.00000E+00 0.00000E+00
 -1      1212 0.00000E+00 0.00000E+00 0.00000E+00
 -1      1213 0.00000E+00 0.00000E+00 0.00000E+00
 -1      1214 0.00000E+00 0.00000E+00 0.00000E+00
 -1      1215 0.00000E+00 0.00000E+00 0.00000E+00
 -1      1216 0.00000E+00 0.00000E+00 0.00000E+00
 -1      1217 0.00000E+00 0.00000E+00 0.00000E+00
 -1      1218 5.25227E+02-2.61255E+02 1.36193E+03
 -1      1219-2.62138E+01 1.24167E+02 1.07368E+03
 -1      1220-2.26310E+01 8.26962E+01 1.08857E+03
 -1      1221-4.75900E+01 3.29856E+01 1.16132E+03
 -1      1222-2.73723E+01-2.47289E+01 1.21266E+03
 -1      1223-4.80056E+02-6.16886E+02 1.18777E+03
 -1      1224-1.46887E+01 1.82977E+02 1.36848E+02
 -1      1225-4.82472E+01 1.52680E+02 2.66419E+02
 -1      1226-4.95011E+01 9.52527E+01 5.36949E+02
 -1      1227-6.51848E+01 4.92767E+01 8.99237E+02
 -1      1228-5.87691E+01 1.63490E+01 1.31787E+03
 -1      1229-9.06611E+01-5.19273E+00 1.80916E+03
 -1      1230-7.16165E+01 1.61086E+02-1.10996E+03
 -1      1231-8.15668E+01 1.42360E+02-6.20309E+02
 -1      1232-9.42729E+01 1.03510E+02-7.37769E+01
 -1      1233-1.02225E+02 6.77569E+01 5.43207E+02
 -1      1234-1.10713E+02 3.30429E+01 1.20599E+03
 -1      1235-1.26829E+02 1.44122E+01 1.90666E+03
 -1      1236-1.39569E+02 1.31270E+02-2.23881E+03
 -1      1237-1.24203E+02 1.21691E+02-1.47291E+03
 -1      1238-1.24233E+02 1.00253E+02-7.08014E+02
 -1      1239-1.29705E+02 7.84986E+01 8.54403E+01
 -1      1240-1.31109E+02 6.09836E+01 8.96389E+02
 -1      1241-1.34101E+02 5.34818E+01 1.71200E+03
 -1      1242-1.59381E+02 1.13097E+02-3.04369E+03
 -1      1243-1.25726E+02 1.08858E+02-2.13510E+03
 -1      1244-1.41344E+02 8.52556E+01-1.27865E+03
 -1      1245-1.42000E+02 8.09379E+01-4.06297E+02
 -1      1246-1.45448E+02 7.35300E+01 4.77441E+02
 -1      1247-1.41633E+02 7.11980E+01 1.34029E+03
 -1      1248-6.64296E+02-6.23263E+02-3.27509E+03
 -1      1249-1.18660E+02 6.02047E+01-2.55719E+03
 -1      1250-1.48443E+02 6.99897E+01-1.77358E+03
 -1      1251-1.43376E+02 8.05784E+01-8.93265E+02
 -1      1252-1.48839E+02 7.16398E+01 3.14584E+01
 -1      1253-5.09532E+01 3.13651E+00 8.90121E+02
 -1      1254 3.88002E+02-6.88359E+01 1.35249E+03
 -1      1255 1.51687E+02 2.15585E+02 1.14219E+03
 -1      1256-2.65187E+01 1.89302E+02 1.06842E+03
 -1      1257-3.16999E+01 1.55929E+02 1.06846E+03
 -1      1258-4.30746E+01 1.31102E+02 1.08490E+03
 -1      1259-5.20821E+01 9.93094E+01 1.12359E+03
 -1      1260-5.79616E+01 6.15203E+01 1.15925E+03
 -1      1261-5.75821E+01 1.76934E+01 1.19516E+03
 -1      1262-4.72022E+01-2.63388E+01 1.20627E+03
 -1      1263-1.74154E+02-1.10089E+02 1.18203E+03
 -1      1264-3.85096E+02-4.85974E+02 1.20239E+03
 -1      1265 4.17595E+01 1.35772E+02 7.82179E+02
 -1      1266-5.91287E+00 1.95421E+02 6.75236E+02
 -1      1267-4.90872E+01 1.35769E+02 8.17372E+02
 -1      1268-5.80271E+01 6.63622E+01 1.03573E+03
 -1      1269-7.37244E+01-2.41423E+01 1.26668E+03
 -1      1270-9.25732E+01-2.27167E+02 1.59749E+03
 -1      1271-2.99084E+01 2.64459E+02 1.42118E+02
 -1      1272-3.17013E+01 2.38270E+02 2.01379E+02
 -1      1273-4.91156E+01 2.08930E+02 2.68327E+02
 -1      1274-6.83350E+01 1.75489E+02 3.83675E+02
 -1      1275-7.77599E+01 1.41253E+02 5.37156E+02
 -1      1276-8.67959E+01 1.07898E+02 7.10010E+02
 -1      1277-9.27833E+01 7.43382E+01 8.99709E+02
 -1      1278-9.54525E+01 3.83715E+01 1.09765E+03
 -1      1279-1.04364E+02 7.00803E-02 1.31447E+03
 -1      1280-1.18947E+02-4.43975E+01 1.55699E+03
 -1      1281-1.28448E+02-2.07921E+01 1.81416E+03
 -1      1282-7.39058E+01 2.53841E+02-4.92859E+02
 -1      1283-8.76014E+01 2.16593E+02-1.68991E+02
 -1      1284-1.08462E+02 1.47470E+02 2.38536E+02
 -1      1285-1.24603E+02 8.59268E+01 7.35730E+02
 -1      1286-1.35241E+02 3.09417E+01 1.29190E+03
 -1      1287-1.60799E+02-4.27035E-01 1.89740E+03
 -1      1288-1.19507E+02 2.46473E+02-1.10582E+03
 -1      1289-1.20487E+02 2.47654E+02-8.68269E+02
 -1      1290-1.23593E+02 2.11944E+02-6.19870E+02
 -1      1291-1.29281E+02 1.81224E+02-3.56357E+02
 -1      1292-1.38710E+02 1.52900E+02-7.35840E+01
 -1      1293-1.45782E+02 1.25833E+02 2.27126E+02
 -1      1294-1.51826E+02 9.98973E+01 5.42846E+02
 -1      1295-1.57666E+02 7.50277E+01 8.69365E+02
 -1      1296-1.61571E+02 5.29002E+01 1.20509E+03
 -1      1297-1.67508E+02 3.52712E+01 1.55004E+03
 -1      1298-1.76516E+02 3.07748E+01 1.91063E+03
 -1      1299-1.58853E+02 2.30450E+02-1.70214E+03
 -1      1300-1.55267E+02 2.02402E+02-1.06052E+03
 -1      1301-1.64303E+02 1.52872E+02-3.92885E+02
 -1      1302-1.74060E+02 1.09926E+02 3.22805E+02
 -1      1303-1.81151E+02 7.39681E+01 1.07015E+03
 -1      1304-1.90642E+02 5.65206E+01 1.83861E+03
 -1      1305-1.92601E+02 2.07276E+02-2.24398E+03
 -1      1306-1.83493E+02 2.08375E+02-1.84989E+03
 -1      1307-1.80411E+02 1.84248E+02-1.47181E+03
 -1      1308-1.82861E+02 1.65173E+02-1.09225E+03
 -1      1309-1.84546E+02 1.47834E+02-7.07442E+02
 -1      1310-1.88026E+02 1.31445E+02-3.14208E+02
 -1      1311-1.91383E+02 1.16268E+02 8.54445E+01
 -1      1312-1.93031E+02 1.02012E+02 4.89903E+02
 -1      1313-1.94984E+02 8.96838E+01 8.95590E+02
 -1      1314-1.97535E+02 8.06013E+01 1.30243E+03
 -1      1315-2.01290E+02 7.81724E+01 1.71018E+03
 -1      1316-2.21373E+02 1.74125E+02-2.68740E+03
 -1      1317-1.96877E+02 1.63548E+02-1.83627E+03
 -1      1318-1.98917E+02 1.37219E+02-1.00400E+03
 -1      1319-2.03364E+02 1.18599E+02-1.59522E+02
 -1      1320-2.04539E+02 1.01036E+02 6.94074E+02
 -1      1321-2.07366E+02 9.29268E+01 1.54168E+03
 -1      1322-2.29334E+02 1.54096E+02-3.05000E+03
 -1      1323-2.19660E+02 1.20066E+02-2.58732E+03
 -1      1324-2.05532E+02 1.30433E+02-2.13149E+03
 -1      1325-2.00018E+02 1.31363E+02-1.70124E+03
 -1      1326-2.05299E+02 1.28778E+02-1.27868E+03
 -1      1327-2.08840E+02 1.24021E+02-8.45262E+02
 -1      1328-2.11314E+02 1.18360E+02-4.06178E+02
 -1      1329-2.12352E+02 1.12470E+02 3.72054E+01
 -1      1330-2.10416E+02 1.06671E+02 4.76926E+02
 -1      1331-2.08622E+02 1.01214E+02 9.08490E+02
 -1      1332-2.10182E+02 1.04088E+02 1.33948E+03
 -1      1333-2.33761E+02-8.37724E+01-3.26393E+03
 -1      1334-2.11782E+02 1.02671E+02-2.35028E+03
 -1      1335-2.04469E+02 1.23337E+02-1.52918E+03
 -1      1336-2.16232E+02 1.18273E+02-6.49409E+02
 -1      1337-2.13222E+02 1.07828E+02 2.54955E+02
 -1      1338-2.04963E+02 8.69994E+01 1.11366E+03
 -1      1339-6.04636E+02-3.92056E+02-3.28353E+03
 -1      1340-3.46349E+02 4.56706E+01-2.87931E+03
 -1      1341-1.85136E+02 1.00559E+02-2.55008E+03
 -1      1342-2.01433E+02 1.10604E+02-2.18102E+03
 -1      1343-2.08826E+02 1.20403E+02-1.76990E+03
 -1      1344-2.13547E+02 1.22195E+02-1.34308E+03
 -1      1345-2.15667E+02 1.18924E+02-8.92869E+02
 -1      1346-2.17671E+02 1.12037E+02-4.30574E+02
 -1      1347-2.17852E+02 1.07432E+02 3.26336E+01
 -1      1348-1.87561E+02 1.04179E+02 4.76436E+02
 -1      1349-1.46844E+02 5.34031E+01 8.91011E+02
 -1      1350 3.73045E+02 4.56526E+01 1.35099E+03
 -1      1351-1.57677E+01 2.52018E+02 1.07181E+03
 -1      1352-5.30980E+01 1.73130E+02 1.08584E+03
 -1      1353-7.01268E+01 8.19650E+01 1.15987E+03
 -1      1354-6.61005E+01-3.51592E+01 1.20689E+03
 -1      1355-3.65188E+02-4.93337E+02 1.20477E+03
 -1      1356-3.98436E+01 3.45575E+02 1.41153E+02
 -1      1357-6.36477E+01 2.75456E+02 2.69035E+02
 -1      1358-1.03453E+02 1.86701E+02 5.37008E+02
 -1      1359-1.22510E+02 9.78663E+01 8.98989E+02
 -1      1360-1.39386E+02-1.65747E+00 1.31287E+03
 -1      1361-1.67954E+02-4.95903E+01 1.80957E+03
 -1      1362-1.58192E+02 3.32826E+02-1.10521E+03
 -1      1363-1.63451E+02 2.82439E+02-6.18773E+02
 -1      1364-1.83853E+02 2.02369E+02-7.31645E+01
 -1      1365-2.01510E+02 1.32343E+02 5.42359E+02
 -1      1366-2.14168E+02 7.08123E+01 1.20424E+03
 -1      1367-2.33475E+02 3.78642E+01 1.90886E+03
 -1      1368-2.54488E+02 2.77963E+02-2.24219E+03
 -1      1369-2.38799E+02 2.45704E+02-1.47081E+03
 -1      1370-2.44727E+02 1.95667E+02-7.06629E+02
 -1      1371-2.53663E+02 1.54133E+02 8.53095E+01
 -1      1372-2.58184E+02 1.19428E+02 8.94711E+02
 -1      1373-2.66052E+02 1.02294E+02 1.70903E+03
 -1      1374-3.00907E+02 1.83833E+02-3.04513E+03
 -1      1375-2.73674E+02 1.70849E+02-2.12965E+03
 -1      1376-2.71301E+02 1.69880E+02-1.27741E+03
 -1      1377-2.79968E+02 1.56715E+02-4.05959E+02
 -1      1378-2.78494E+02 1.41113E+02 4.76561E+02
 -1      1379-2.78045E+02 1.36132E+02 1.33928E+03
 -1      1380-6.33875E+02-3.29396E+02-3.28468E+03
 -1      1381-2.55432E+02 1.32954E+02-2.55118E+03
 -1      1382-2.75149E+02 1.59756E+02-1.76988E+03
 -1      1383-2.87031E+02 1.57116E+02-8.92995E+02
 -1      1384-2.86320E+02 1.42533E+02 3.20562E+01
 -1      1385-2.19636E+02 9.28981E+01 8.91182E+02
 -1      1386 3.73106E+02 1.56505E+02 1.35044E+03
 -1      1387 1.78412E+02 3.57383E+02 1.16471E+03
 -1      1388-8.96040E+00 3.15475E+02 1.07538E+03
 -1      1389-4.16854E+01 2.58264E+02 1.07011E+03
 -1      1390-5.92126E+01 2.14951E+02 1.08688E+03
 -1      1391-7.33369E+01 1.61699E+02 1.12305E+03
 -1      1392-8.08959E+01 1.01205E+02 1.16032E+03
 -1      1393-7.84714E+01 2.88548E+01 1.19500E+03
 -1      1394-7.56428E+01-4.04650E+01 1.20765E+03
 -1      1395-1.91479E+02-1.83088E+02 1.19934E+03
 -1      1396-3.46978E+02-5.19007E+02 1.20565E+03
 -1      1397 6.88207E+01 3.12141E+02 7.64653E+02
 -1      1398-1.54615E+01 3.28256E+02 6.77534E+02
 -1      1399-7.77561E+01 2.22070E+02 8.19147E+02
 -1      1400-9.63111E+01 1.07729E+02 1.03574E+03
 -1      1401-1.10749E+02-3.22411E+01 1.26563E+03
 -1      1402-1.47980E+02-2.99858E+02 1.57187E+03
 -1      1403-5.29041E+01 4.35673E+02 1.39938E+02
 -1      1404-5.96423E+01 4.03299E+02 2.01490E+02
 -1      1405-7.67084E+01 3.39750E+02 2.69969E+02
 -1      1406-1.08440E+02 2.86584E+02 3.85160E+02
 -1      1407-1.30597E+02 2.32587E+02 5.36921E+02
 -1      1408-1.43379E+02 1.77742E+02 7.09832E+02
 -1      1409-1.52315E+02 1.21315E+02 8.98182E+02
 -1      1410-1.61671E+02 5.99758E+01 1.09570E+03
 -1      1411-1.77312E+02-5.01977E+00 1.31079E+03
 -1      1412-1.89083E+02-6.82596E+01 1.55267E+03
 -1      1413-2.06796E+02-7.45145E+01 1.80447E+03
 -1      1414-1.21164E+02 4.35804E+02-4.92233E+02
 -1      1415-1.42236E+02 3.53573E+02-1.67588E+02
 -1      1416-1.80496E+02 2.43196E+02 2.38932E+02
 -1      1417-2.05709E+02 1.42070E+02 7.34466E+02
 -1      1418-2.25953E+02 4.60928E+01 1.28820E+03
 -1      1419-2.62434E+02-9.39560E+00 1.89359E+03
 -1      1420-1.95527E+02 4.22518E+02-1.10421E+03
 -1      1421-1.96598E+02 4.08872E+02-8.67112E+02
 -1      1422-2.03858E+02 3.53166E+02-6.17524E+02
 -1      1423-2.14598E+02 3.00619E+02-3.54765E+02
 -1      1424-2.29013E+02 2.52130E+02-7.26267E+01
 -1      1425-2.41338E+02 2.07285E+02 2.26857E+02
 -1      1426-2.51839E+02 1.64729E+02 5.41703E+02
 -1      1427-2.60278E+02 1.25096E+02 8.67540E+02
 -1      1428-2.66423E+02 8.97394E+01 1.20295E+03
 -1      1429-2.77577E+02 5.50499E+01 1.54535E+03
 -1      1430-2.90811E+02 4.23766E+01 1.90658E+03
 -1      1431-2.61511E+02 3.99080E+02-1.70012E+03
 -1      1432-2.55436E+02 3.35088E+02-1.05788E+03
 -1      1433-2.71818E+02 2.51975E+02-3.91577E+02
 -1      1434-2.88250E+02 1.81374E+02 3.22194E+02
 -1      1435-2.98544E+02 1.22479E+02 1.06771E+03
 -1      1436-3.14276E+02 9.17845E+01 1.83650E+03
 -1      1437-3.17185E+02 3.50054E+02-2.23996E+03
 -1      1438-3.04065E+02 3.42599E+02-1.84473E+03
 -1      1439-2.96731E+02 3.07819E+02-1.46925E+03
 -1      1440-3.01296E+02 2.74143E+02-1.08981E+03
 -1      1441-3.05726E+02 2.43667E+02-7.05556E+02
 -1      1442-3.11068E+02 2.16844E+02-3.13275E+02
 -1      1443-3.16323E+02 1.92228E+02 8.51372E+01
 -1      1444-3.19186E+02 1.69238E+02 4.88713E+02
 -1      1445-3.21955E+02 1.49454E+02 8.93594E+02
 -1      1446-3.24790E+02 1.32595E+02 1.30032E+03
 -1      1447-3.30434E+02 1.26339E+02 1.70750E+03
 -1      1448-3.61438E+02 2.94641E+02-2.68338E+03
 -1      1449-3.27511E+02 2.63807E+02-1.83187E+03
 -1      1450-3.27688E+02 2.26952E+02-1.00184E+03
 -1      1451-3.36282E+02 1.95382E+02-1.59363E+02
 -1      1452-3.37128E+02 1.66265E+02 6.92672E+02
 -1      1453-3.40631E+02 1.51987E+02 1.54016E+03
 -1      1454-3.70890E+02 2.21840E+02-3.03944E+03
 -1      1455-3.53581E+02 2.06144E+02-2.58204E+03
 -1      1456-3.44618E+02 2.08783E+02-2.12724E+03
 -1      1457-3.34780E+02 2.12979E+02-1.69844E+03
 -1      1458-3.36961E+02 2.11329E+02-1.27594E+03
 -1      1459-3.44465E+02 2.04295E+02-8.44095E+02
 -1      1460-3.49269E+02 1.95051E+02-4.05659E+02
 -1      1461-3.49642E+02 1.85177E+02 3.67964E+01
 -1      1462-3.46302E+02 1.75574E+02 4.76050E+02
 -1      1463-3.45035E+02 1.69152E+02 9.07499E+02
 -1      1464-3.46438E+02 1.69082E+02 1.33895E+03
 -1      1465-3.82088E+02-3.31464E+01-3.23408E+03
 -1      1466-3.37244E+02 1.78676E+02-2.34853E+03
 -1      1467-3.39900E+02 2.00850E+02-1.52838E+03
 -1      1468-3.56981E+02 1.94751E+02-6.49104E+02
 -1      1469-3.52819E+02 1.78614E+02 2.54182E+02
 -1      1470-3.37516E+02 1.56319E+02 1.11627E+03
 -1      1471-6.68542E+02-2.85377E+02-3.28510E+03
 -1      1472-4.69633E+02 7.56906E+01-2.90115E+03
 -1      1473-3.17767E+02 1.68893E+02-2.55219E+03
 -1      1474-3.28013E+02 1.81313E+02-2.18020E+03
 -1      1475-3.42839E+02 1.97709E+02-1.76954E+03
 -1      1476-3.50030E+02 2.00046E+02-1.34173E+03
 -1      1477-3.58384E+02 1.95536E+02-8.93078E+02
 -1      1478-3.60845E+02 1.85115E+02-4.30644E+02
 -1      1479-3.56549E+02 1.77707E+02 3.14227E+01
 -1      1480-3.23512E+02 1.71896E+02 4.72505E+02
 -1      1481-2.89789E+02 1.31926E+02 8.91210E+02
 -3
    1PSTEP                        38           1           1          
    1PGM                1.000000E+00                                  
    1PGK                2.078485E+12                                  
    1PHID                         -1                                  
    1PSUBC                         0                                  
    1PMODE                        10                                  
  100CL  110 229452.8963        1481                     2   10MODAL      1
 -4  STRESS      6    1
 -5  SXX         1    4    1    1
 -5  SYY         1    4    2    2
 -5  SZZ         1    4    3    3
 -5  SXY         1    4    1    2
 -5  SYZ         1    4    2    3
 -5  SZX         1    4    3    1
 -1         1 1.43186E+08-1.02544E+08 1.17771E+07 2.43349E+07 4.27392E+07-6.16423E+07
 -1         2 1.58976E+08 5.78254E+06-1.79436E+07 3.43500E+07-4.83796E+06-5.66152E+06
 -1         3 1.06226E+08 2.29255E+07 1.64020E+07 3.08310E+07 4.60868E+06 7.01325E+05
 -1         4 1.91782E+07-6.21024E+06-1.57560E+06 1.29893E+07-8.29907E+05-8.69411E+06
 -1         5 9.61698E+06-3.05688E+06-4.08588E+06 1.47388E+07 1.80744E+06 1.71846E+06
 -1         6 1.14289E+07 2.37504E+06 5.52930E+06 1.80807E+07 4.90317E+05-4.68732E+06
 -1         7-1.13622E+06-3.80602E+06-3.36864E+06 2.12857E+07 2.33150E+05-7.44990E+06
 -1         8-3.67051E+06-3.60784E+06-1.52848E+06 2.53726E+07 2.05553E+06-2.87145E+06
 -1         9 4.88215E+07 1.88003E+07 1.44456E+07 2.53224E+07 1.38732E+07-1.26139E+07
 -1        10 1.07022E+08-1.28357E+07-1.67974E+07 3.10260E+07-9.93672E+06-1.05615E+07
 -1        11 9.89158E+07-1.60985E+08-1.79967E+07 3.47496E+07 7.00730E+07 4.12640E+07
 -1        12 7.83174E+06-1.11850E+08 1.64479E+07 2.25686E+07-8.65980E+06 9.61029E+06
 -1        13 3.86119E+07 1.60383E+06 3.96628E+06 4.25507E+07 5.28677E+06-4.48704E+06
 -1        14 1.17255E+07-5.16893E+06-3.41627E+06 2.83404E+07 2.73153E+05 5.48581E+06
 -1        15 6.25801E+05-8.82436E+06-1.61594E+06 3.36484E+07-1.10160E+06-3.13818E+05
 -1        16-2.36923E+06-1.61230E+07-1.40590E+06 3.94504E+07 1.05423E+07 9.74132E+06
 -1        17-1.16759E+07-1.86770E+08 1.93298E+07 4.37875E+07 7.21445E+06-4.81668E+06
 -1        18-1.88337E+07-5.78353E+07-1.42020E+07 2.14526E+07-1.33699E+07-1.16624E+07
 -1        19 7.98352E+06-7.51623E+06-1.07526E+05 3.62629E+07 8.44267E+06-9.73209E+06
 -1        20 2.23777E+07-7.68241E+06-1.56694E+06 4.78094E+07-6.36289E+06 1.94513E+06
 -1        21 2.05117E+07-7.40447E+06-1.13713E+06 3.99756E+07-2.46049E+06 1.89790E+06
 -1        22 1.25779E+07-5.92831E+06 2.16714E+06 3.80243E+07 1.18206E+06-3.33162E+06
 -1        23 6.17861E+06-1.02998E+07-6.00621E+05 3.93536E+07 1.16125E+06-1.52306E+06
 -1        24 1.67630E+06-1.49726E+07 8.85630E+05 4.15119E+07 8.63482E+05 7.18298E+05
 -1        25 3.46245E+06-2.60652E+07 4.87928E+05 4.33278E+07-6.62194E+05-4.73421E+06
 -1        26 1.90687E+06-3.76530E+07 2.59721E+06 4.87368E+07-9.64182E+05-6.84972E+06
 -1        27-6.84735E+06-6.38118E+07-5.39973E+06 4.56383E+07 5.20148E+06 5.36478E+06
 -1        28-2.65504E+07-1.39971E+08-1.76424E+07 3.52801E+07-1.66002E+04 3.74598E+06
 -1        29 4.21441E+06 7.06931E+06 1.06589E+06 2.51726E+07-9.42638E+05-1.21630E+06
 -1        30 1.69744E+07-1.05242E+06-3.69886E+05 4.34452E+07-4.49288E+06 8.18844E+05
 -1        31 1.22761E+07-4.71256E+06 5.57996E+05 3.36872E+07 8.81960E+05-8.20851E+05
 -1        32 2.59839E+06-1.77598E+07-1.26338E+05 3.28779E+07 8.68074E+04 8.04237E+05
 -1        33 5.31146E+05-3.96816E+07 1.58531E+06 3.38740E+07-2.52447E+06-2.62855E+06
 -1        34 5.98368E+06-4.76069E+07 1.42302E+06 1.00451E+07 8.83323E+06-1.97431E+06
 -1        35 1.02958E+06 1.25462E+07-2.72568E+06 2.22099E+07-1.01325E+07-9.39772E+05
 -1        36 7.88764E+06 1.40149E+07 1.50888E+06 3.36957E+07-1.87258E+06 1.10210E+06
 -1        37 1.13323E+07 1.19120E+07-6.70804E+05 4.11210E+07-1.29593E+06-1.61585E+06
 -1        38 1.23214E+07 5.79561E+06 2.64847E+04 3.39363E+07-5.00814E+05-4.25578E+05
 -1        39 1.18747E+07-1.90623E+06-4.42632E+05 3.11316E+07-5.84339E+05 1.29006E+06
 -1        40 7.20414E+06-9.21974E+06 3.00153E+05 2.91434E+07-9.74439E+05 1.64172E+05
 -1        41 3.29610E+06-1.73972E+07 6.60856E+04 2.76011E+07-9.12083E+05-3.61383E+05
 -1        42-9.64755E+05-2.49423E+07-6.41174E+05 2.56595E+07 6.84551E+05 8.67290E+05
 -1        43-3.66649E+06-3.37634E+07-2.26855E+06 2.51965E+07 2.55594E+06 1.52060E+06
 -1        44-3.51381E+05-4.17631E+07 3.49010E+06 1.75168E+07-5.07014E+06 2.95591E+05
 -1        45 7.85090E+05-4.25377E+07 2.01071E+06 7.50233E+06-4.08216E+06 1.31679E+06
 -1        46 1.62233E+06 3.16772E+07 1.51625E+06 1.93033E+07-5.07479E+06-2.42005E+05
 -1        47 1.01645E+07 2.21097E+07-3.34601E+04 3.39923E+07-4.24189E+04-9.32759E+04
 -1        48 9.91046E+06 6.36802E+06-1.41107E+04 2.52669E+07 2.86534E+05 1.15139E+05
 -1        49 2.67944E+06-1.09676E+07-1.08817E+05 2.17034E+07-5.79400E+03 8.55283E+04
 -1        50-3.32421E+06-2.62651E+07 1.62724E+05 1.87428E+07 1.35131E+06 5.25454E+05
 -1        51-2.47697E+06-3.72028E+07-2.94229E+06 6.25903E+06 1.46008E+06-1.98701E+03
 -1        52-1.11291E+06 4.55574E+07-9.22737E+05 1.65611E+07-1.17617E+07 9.48116E+05
 -1        53 2.66657E+06 4.41742E+07-3.60358E+06 2.23578E+07-3.89860E+06-2.38755E+04
 -1        54 1.00355E+07 3.33361E+07 2.21368E+06 2.61449E+07 4.93898E+05 1.15850E+06
 -1        55 1.05350E+07 2.33310E+07 6.40931E+05 2.12234E+07 5.29753E+04 1.06494E+06
 -1        56 8.31689E+06 1.49237E+07-1.50629E+04 1.90195E+07-9.72091E+05-1.16795E+06
 -1        57 5.73686E+06 4.63200E+06-2.29442E+05 1.73020E+07-8.38913E+05-2.11985E+05
 -1        58 2.21098E+06-4.75418E+06 3.22501E+05 1.58465E+07-3.81815E+05 5.19109E+05
 -1        59-1.25350E+06-1.30042E+07-2.10552E+04 1.41812E+07-5.05773E+05-2.97099E+05
 -1        60-3.84852E+06-2.00537E+07 6.31319E+03 1.28774E+07-3.37641E+05-7.68246E+05
 -1        61-3.28512E+06-2.42866E+07-3.16065E+05 8.97038E+06-1.70787E+06 2.47383E+05
 -1        62 2.65276E+05-2.33574E+07 2.91143E+06 4.45015E+06-4.61582E+05-5.95236E+05
 -1        63-6.14997E+06 5.23807E+07-1.39595E+06 1.25429E+07 5.04877E+06-2.32734E+06
 -1        64 4.92539E+06 4.30394E+07-1.54113E+06 1.40957E+07-5.06333E+06-2.87755E+06
 -1        65 9.65597E+06 1.65022E+07 1.93977E+05 1.10852E+07 8.11754E+05 8.72606E+05
 -1        66 1.97360E+06-7.00660E+05-1.90737E+05 1.07962E+07 5.64707E+01 1.21967E+05
 -1        67-4.45456E+06-1.23079E+07 1.45546E+05 8.76319E+06 3.00194E+04 2.44036E+05
 -1        68-1.40915E+06-1.85836E+07-8.18038E+04 2.21279E+06 2.19648E+06-4.17933E+05
 -1        69 3.16284E+07 1.58071E+08 2.00962E+07-1.40539E+07-6.90307E+06 5.86558E+06
 -1        70 1.03806E+07 7.19643E+07 4.99028E+06-9.95666E+06 8.97711E+06 8.43426E+06
 -1        71 2.81159E+06 4.31304E+07-1.76857E+06-1.65638E+06-3.98979E+06-6.11986E+06
 -1        72 4.78839E+06 2.89820E+07-2.58184E+05 6.11712E+05-1.37421E+06-3.88688E+06
 -1        73 1.11827E+07 1.52271E+07-1.15779E+06 2.71757E+06 1.58553E+06 2.15561E+06
 -1        74 7.64465E+06 8.14245E+06 4.76995E+05 4.82855E+06 7.28754E+05 6.31160E+05
 -1        75 2.78820E+06 1.86943E+06-5.38731E+05 6.76070E+06-2.88972E+05-3.07951E+05
 -1        76-1.79150E+06-2.09325E+06 1.98155E+05 6.37015E+06-7.03159E+05 6.88341E+05
 -1        77-4.89802E+06-5.81803E+06 1.63321E+05 5.50340E+06-1.06617E+06 1.05099E+06
 -1        78-2.32430E+06-8.81430E+06 3.08346E+05 3.56181E+06 3.17763E+05-1.38014E+06
 -1        79 2.79262E+06-9.74782E+05 2.63531E+06 1.30824E+06-2.28846E+06-2.05915E+06
 -1        80 1.04358E+07 2.12132E+08-2.27175E+07-2.71774E+07 1.81653E+06-7.77590E+06
 -1        81 4.26383E+06 1.80746E+07-2.66477E+05-3.32379E+06 1.10122E+07 8.46892E+06
 -1        82 1.13758E+07 9.61094E+06 2.27441E+06-9.55002E+05-1.03180E+06-2.93194E+06
 -1        83 5.25686E+06 1.46777E+06 7.21837E+05 4.38334E+06 2.37927E+05 9.17730E+05
 -1        84-7.80896E+06-3.21724E+06-4.44746E+05 2.31061E+06 1.19153E+06-1.20921E+06
 -1        85-2.54306E+06 1.42163E+07-3.08218E+06-1.08675E+06-5.09660E+05 1.36266E+06
 -1        86-1.35538E+08 1.78748E+08 1.24158E+07-2.35463E+07 8.03433E+07 5.41735E+07
 -1        87-1.39573E+08 1.25508E+07 2.14090E+07-1.24626E+07-1.04133E+07-6.11220E+06
 -1        88-6.29557E+07-2.32370E+07-1.88756E+07-3.44619E+06 1.51245E+07-9.93155E+06
 -1        89 1.28150E+07 5.82021E+06 1.89186E+06-7.91696E+06 1.91775E+06 2.95573E+06
 -1        90 1.13216E+07 3.09317E+06 1.32887E+06-3.03244E+06 6.44025E+05-4.03706E+06
 -1        91 5.24750E+06-1.30037E+06-3.55475E+06 2.37273E+05 3.15960E+05-3.64378E+05
 -1        92 7.63287E+06 1.84488E+06 2.98976E+06 2.71535E+06 4.66637E+05 2.00664E+06
 -1        93-2.66005E+05 1.31371E+06 5.21283E+05 3.30992E+06-1.83436E+05 1.12782E+05
 -1        94-1.89345E+07-3.61784E+06-2.72995E+06-1.15434E+05 4.10325E+05 1.25618E+06
 -1        95-2.79973E+07-1.56937E+06 2.91258E+06-2.87776E+06-1.51483E+06-2.05106E+05
 -1        96-2.41316E+07 1.85496E+07-1.32378E+06-3.34668E+06 6.98620E+06-1.03801E+07
 -1        97 1.63378E+08-1.22900E+08 1.69064E+07 1.82909E+07 5.56616E+07-1.00781E+08
 -1        98 8.74036E+07 2.02670E+07 1.12937E+07 2.54937E+07 4.14284E+06 1.27168E+07
 -1        99 1.03112E+07-1.93442E+06-3.01996E+06 1.00589E+07 2.13077E+06-6.41990E+06
 -1       100 1.07430E+06-3.09765E+06-3.47449E+06 1.48231E+07 2.91494E+06-1.04964E+07
 -1       101 4.34754E+07 1.92386E+07 1.38378E+07 1.34878E+07 6.87137E+06-3.51700E+07
 -1       102 1.21767E+08-1.81291E+08-2.54954E+07 2.65909E+07 1.17255E+08 4.98153E+07
 -1       103-1.82287E+07-4.89476E+07-1.29034E+07 1.14548E+07-3.52180E+07-5.53141E+06
 -1       104 2.07180E+07-7.83692E+06-8.42748E+05 3.85348E+07-1.68269E+06-1.32958E+06
 -1       105 9.12446E+06-4.54046E+06 1.92092E+06 3.04632E+07 4.40402E+05-1.02911E+05
 -1       106 5.94798E+05-1.14912E+07 1.08461E+06 3.34267E+07 1.15122E+06 1.05628E+06
 -1       107 3.21974E+06-3.33844E+07 1.53790E+06 3.94189E+07 2.81484E+06-6.28194E+05
 -1       108-2.24612E+07-1.13164E+08-1.17286E+07 2.85680E+07-1.21814E+07 3.62709E+06
 -1       109 9.25559E+05 9.41799E+06-1.47504E+06 1.50366E+07-1.72078E+07-3.56703E+06
 -1       110 8.12232E+06 1.01027E+07-1.25312E+06 3.33227E+07-1.96776E+06-5.43934E+05
 -1       111 9.76181E+06-1.52639E+06-2.87516E+05 2.49655E+07-1.27367E+06 1.50515E+06
 -1       112 2.75154E+06-1.41366E+07-8.89332E+04 2.22220E+07-8.48418E+05 1.15613E+06
 -1       113-3.22036E+06-2.61997E+07-2.44372E+06 2.01839E+07 2.56922E+05 1.16588E+06
 -1       114 9.52908E+05-3.51134E+07 1.39186E+06 5.02970E+06 1.37627E+06 1.74576E+06
 -1       115-1.60906E+06 3.69858E+07-9.86734E+05 1.17740E+07-1.47126E+07 2.15401E+06
 -1       116 8.55356E+06 2.56571E+07 2.65205E+06 2.11411E+07-1.12897E+06 5.64032E+05
 -1       117 6.47858E+06 1.22466E+07 1.32964E+05 1.52687E+07-1.39734E+06 7.22476E+05
 -1       118 1.74190E+06-3.90063E+06 2.27999E+05 1.27976E+07-9.36916E+05 1.53536E+06
 -1       119-2.62764E+06-1.60738E+07 1.72157E+05 1.02525E+07-1.06476E+06 5.10026E+05
 -1       120 4.01040E+05-1.87299E+07 2.12700E+06 3.41958E+06-2.70874E+05-1.25309E+06
 -1       121 2.63335E+07 1.26978E+08 1.43183E+07-1.38205E+07-2.89347E+07 3.74787E+06
 -1       122 3.32871E+05 3.86310E+07-6.12269E+05-1.49337E+06 1.52584E+06-7.84425E+04
 -1       123 9.72936E+06 1.13261E+07-1.52768E+06 2.07032E+06 1.01244E+06 1.56741E+06
 -1       124 2.56464E+06 1.69894E+06-2.14099E+05 5.51199E+06-2.73263E+05 1.18794E+06
 -1       125-4.42109E+06-4.54610E+06-1.37369E+05 4.50988E+06-1.18708E+06 5.41737E+05
 -1       126 3.04311E+06 9.73107E+04 2.31092E+06 1.51368E+06-4.78277E+06-1.06362E+06
 -1       127-1.59079E+08 2.07306E+08 1.77368E+07-2.29738E+07 1.29230E+08 7.24002E+07
 -1       128-5.59905E+07-2.37607E+07-1.66103E+07 3.22015E+06 8.41523E+06-3.04491E+07
 -1       129 7.37899E+06 2.70469E+06 1.85670E+06-1.80398E+06 3.54899E+06-1.15045E+06
 -1       130 4.78635E+06 1.00722E+06 2.18856E+06 2.07271E+06 9.52348E+04 2.16988E+06
 -1       131-1.51285E+07-3.00529E+06-1.79675E+06-7.50010E+05 3.68774E+05 5.65055E+06
 -1       132-2.74564E+07 2.20724E+07-2.04711E+06-3.12058E+06 8.83913E+06-1.72137E+07
 -1       133 2.01498E+08-1.35803E+08 4.98582E+07 1.45277E+07 1.47611E+08-2.55908E+08
 -1       134 1.61947E+08-5.97735E+06-4.48360E+07 2.25819E+07 1.27576E+07-1.59720E+07
 -1       135 8.36168E+07 3.17943E+07 3.72882E+07 1.89684E+07 7.09180E+06 8.07047E+06
 -1       136-3.87529E+05-9.65466E+06-1.68617E+07 1.38979E+06-1.02713E+07-4.97871E+06
 -1       137 1.55442E+07 4.40230E+06 1.31024E+07 6.42635E+06 9.17882E+06-2.24853E+07
 -1       138 8.34283E+06 1.86016E+06 5.33838E+06 7.79439E+06 5.53797E+06-1.78190E+07
 -1       139 5.28616E+06 1.44692E+05 5.17118E+06 8.29189E+06 1.31124E+07-1.04836E+07
 -1       140-7.86635E+06-2.80953E+06-8.95411E+06 1.44314E+07-1.18563E+07-3.16619E+07
 -1       141 4.97054E+07 3.24577E+07 3.94586E+07 5.10318E+06 1.11633E+07-5.06980E+07
 -1       142 1.24082E+08-2.00231E+07-4.97073E+07 1.19400E+07 2.89397E+07-4.41351E+07
 -1       143 1.29988E+08-2.27249E+08-7.63491E+07 2.16575E+07 2.94386E+08 1.36023E+08
 -1       144 1.68553E+07-1.23748E+08 4.70884E+07 7.37294E+06-3.60931E+07-2.25069E+07
 -1       145 1.48006E+07-3.44521E+05 1.37648E+07 3.04488E+07 2.19098E+07-1.64662E+07
 -1       146 1.14979E+07-9.52699E+05 5.08873E+05 1.53138E+07 9.52419E+05 4.13896E+06
 -1       147 4.64566E+06-3.29941E+06 3.02765E+06 1.93597E+07 9.43966E+05-4.25895E+06
 -1       148-1.46749E+07-1.54565E+07-4.36210E+05 1.54681E+07 2.89085E+07 1.16617E+07
 -1       149 3.44867E+06-1.83469E+08 4.73986E+07 2.82966E+07 2.40887E+07 9.39614E+06
 -1       150-2.92493E+07-5.13104E+07-3.48776E+07 4.44827E+06-4.87773E+07-8.13429E+06
 -1       151 9.40901E+06 7.57875E+06-3.13374E+06 1.43909E+07 8.70550E+06-2.61638E+07
 -1       152 1.67427E+07-9.93987E+06-5.15570E+06 2.96830E+07-9.81430E+06 1.15409E+07
 -1       153 1.07120E+07-6.53603E+06 1.31290E+06 2.67587E+07-1.99910E+06 5.01366E+06
 -1       154 5.44844E+06-3.71239E+06 2.71023E+05 2.30451E+07 5.88307E+05-7.27143E+05
 -1       155 5.08671E+06-4.69657E+06 5.90860E+04 2.40675E+07 2.66296E+06 7.60868E+05
 -1       156-1.70534E+06-9.65764E+06-2.52039E+06 2.56785E+07 3.11706E+06 3.50960E+06
 -1       157 1.10533E+06-1.75185E+07 3.88734E+06 2.46188E+07-3.74205E+05-1.80776E+06
 -1       158 7.60936E+06-2.54945E+07 8.41753E+06 3.05165E+07-1.07749E+07-8.04735E+06
 -1       159-3.02852E+06-2.97908E+07-1.75850E+07 3.22724E+07 1.97592E+07 2.34042E+07
 -1       160-3.41664E+07-1.03567E+08-3.95803E+07 2.08272E+07-5.11819E+06 5.99227E+06
 -1       161 3.23298E+06 1.05494E+07 7.14470E+06 1.44118E+07-3.41592E+07 1.00094E+07
 -1       162 1.16491E+07 9.60020E+05-3.64586E+06 2.46521E+07-4.72418E+06 1.71287E+06
 -1       163 6.55602E+06-3.12633E+06-4.17461E+04 2.09100E+07-4.10123E+05 1.88853E+06
 -1       164 8.40827E+05-1.07001E+07-2.58228E+05 1.94325E+07 9.24040E+04 3.01008E+06
 -1       165 2.60834E+06-2.19922E+07-9.59176E+05 2.33731E+07-5.01678E+06-1.15347E+05
 -1       166 1.12075E+07-1.37342E+07 1.80185E+07-2.93112E+05 1.20475E+06-1.07082E+07
 -1       167-2.56719E+06 3.52730E+06-1.24462E+07 8.18287E+06-2.24871E+07-1.50396E+07
 -1       168 3.62634E+06 6.12043E+06 6.28635E+05 1.92659E+07-8.35613E+06 1.30217E+06
 -1       169 5.67233E+06 8.34640E+06-2.09740E+05 2.58574E+07-3.41057E+06-2.25621E+06
 -1       170 7.37005E+06 3.97605E+06-6.01592E+05 2.00509E+07-2.27336E+06 8.17157E+05
 -1       171 7.85529E+06-9.09890E+05 2.99461E+05 1.87668E+07-1.77720E+06 2.36650E+06
 -1       172 3.81061E+06-6.16250E+06-1.36588E+05 1.76356E+07-1.76036E+06 2.10859E+06
 -1       173 2.11243E+06-1.09598E+07-2.21272E+05 1.68043E+07-1.15425E+06 2.25203E+06
 -1       174 5.02916E+04-1.41680E+07-4.45604E+05 1.60286E+07-1.10781E+06 2.23200E+06
 -1       175-2.37974E+06-1.85107E+07-1.12718E+06 1.51837E+07 8.72524E+05 2.84379E+06
 -1       176-1.85348E+06-2.94561E+07 1.52063E+05 9.20464E+06-4.31499E+06 4.15179E+05
 -1       177-5.27306E+06-3.36601E+07-1.71754E+07 3.17454E+06 1.44695E+07 9.75681E+06
 -1       178 7.66874E+05 1.76799E+07 2.87626E+06 6.47935E+06-1.68488E+07-1.34000E+06
 -1       179 6.43367E+06 1.38659E+07 1.04669E+06 2.13726E+07 1.43988E+05 3.49854E+04
 -1       180 5.98803E+06 3.86470E+06 1.24557E+05 1.51380E+07-8.58636E+05 2.24029E+06
 -1       181 1.87579E+06-6.43660E+06-1.41503E+04 1.33105E+07-5.94905E+05 2.53083E+06
 -1       182-2.65208E+06-1.66386E+07-9.36638E+05 1.12354E+07 5.15815E+05 1.95801E+06
 -1       183-1.34672E+06-2.16558E+07-4.04923E+06 3.72508E+06 7.96419E+06 7.15882E+05
 -1       184 5.69108E+06 3.58072E+07 2.13168E+07 7.08832E+06-1.12097E+07 1.24615E+07
 -1       185 3.59273E+06 3.15578E+07-2.22563E+05 1.34248E+07-9.48044E+06-2.33022E+05
 -1       186 6.44919E+06 1.78010E+07 1.03646E+06 1.64244E+07-9.10916E+05 2.55399E+06
 -1       187 5.60005E+06 1.30666E+07 6.56779E+05 1.22430E+07-2.02301E+06 2.57140E+06
 -1       188 4.86683E+06 9.64778E+06 3.80054E+05 1.15210E+07-1.97131E+06 1.84961E+06
 -1       189 3.84400E+06 3.25260E+06 9.78560E+04 1.06214E+07-1.92215E+06 2.45408E+06
 -1       190 1.05460E+06-3.22985E+06-2.73688E+05 9.73726E+06-1.37982E+06 2.80652E+06
 -1       191-5.78081E+05-7.86517E+06 3.34726E+05 8.70826E+06-2.07070E+06 1.76535E+06
 -1       192-1.30628E+06-1.16998E+07 8.81255E+05 7.65722E+06-2.67620E+06 6.06930E+05
 -1       193-2.02581E+06-1.50452E+07-1.76243E+06 5.13410E+06-1.58732E+06 1.51955E+06
 -1       194 1.01693E+06-1.38815E+07 4.28380E+06 2.45982E+06 5.83332E+05-4.28015E+06
 -1       195-1.30396E+07 1.32750E+07-2.02744E+07 1.10374E+07-2.41530E+07-1.32274E+07
 -1       196 5.73892E+05 2.35751E+07 1.93567E+06 5.49532E+06-7.27935E+06-7.85792E+05
 -1       197 6.51182E+06 9.89943E+06-8.25528E+04 7.34998E+06-5.91635E+04 2.50219E+06
 -1       198 1.48749E+06-3.85575E+05 3.10461E+05 6.45461E+06-7.83469E+05 2.38695E+06
 -1       199-2.69083E+06-7.79610E+06 6.33000E+05 5.76950E+06-1.34872E+06 1.53563E+06
 -1       200 2.64628E+03-1.10544E+07-1.45039E+05 3.34669E+05-5.18858E+05 7.88188E+05
 -1       201 3.91991E+07 1.15903E+08 4.66964E+07-1.14190E+07-2.96548E+07 4.34262E+06
 -1       202 3.71768E+06 3.10863E+07 1.83248E+07-1.26167E+07 2.21862E+07 2.71328E+07
 -1       203-5.10938E+06 3.04749E+07-7.33869E+06-1.29603E+06-1.57122E+07-8.73239E+06
 -1       204 4.25598E+06 1.97677E+07-4.21487E+06 2.80496E+06-1.27929E+06-2.09375E+06
 -1       205 9.29875E+06 9.06489E+06 1.75185E+06 1.26355E+06 3.42780E+06 3.27130E+06
 -1       206 3.74764E+06 3.89096E+06 3.63360E+05 2.87517E+06 1.78183E+06 2.50933E+06
 -1       207 2.41432E+06 1.58993E+06 2.56504E+05 4.25698E+06-1.29183E+06 1.47155E+06
 -1       208-6.76973E+05-8.02530E+05-2.51938E+05 3.65007E+06-1.60529E+06 2.28203E+06
 -1       209-3.58006E+06-2.85556E+06 5.31377E+05 3.53770E+06-2.66103E+06 3.60160E+06
 -1       210-1.87101E+06-7.16036E+06 8.33903E+05 3.26507E+06-2.09769E+05-4.36359E+06
 -1       211 4.84720E+06 2.52244E+06 4.96555E+06 1.38407E+06-5.58075E+06-1.38470E+06
 -1       212-4.90059E+06 2.14494E+08-5.80445E+07-2.48334E+07 3.73288E+06 1.42602E+07
 -1       213 1.67940E+07 1.65155E+07-3.16122E+06 7.20298E+06 3.58799E+07 1.34738E+07
 -1       214 2.80783E+06 3.92717E+06-1.49614E+06-8.92732E+05-1.82033E+05-2.14057E+06
 -1       215 1.81637E+06-1.15416E+04-1.00116E+06 2.70246E+06 1.19896E+06 3.75600E+06
 -1       216-3.04186E+06-1.80128E+06-2.23701E+06 3.80352E+05 2.92826E+06-1.61814E+06
 -1       217-3.91430E+06 1.80063E+07-8.71066E+06-5.51066E+05-3.50120E+06-4.14365E+06
 -1       218-1.72392E+08 2.59456E+08 5.62871E+07-2.49172E+07 3.38000E+08 1.81377E+08
 -1       219-1.54913E+08 2.39431E+07 5.95479E+07-5.37520E+06 3.13215E+07-2.91510E+07
 -1       220-6.33294E+07-3.99245E+07-4.67247E+07 6.66991E+06 1.44057E+07-4.00586E+07
 -1       221 1.41626E+07 3.84007E+06 1.07817E+07-7.65971E+06-1.35287E+07-1.63348E+07
 -1       222 8.55623E+05-1.00466E+06-9.54372E+06-1.61009E+04 1.69111E+07 7.15785E+06
 -1       223 1.83419E+06-9.08898E+05-2.92445E+06 9.77852E+05 4.26812E+06 2.79974E+06
 -1       224 1.15856E+06-7.59227E+05-7.71888E+05 1.19803E+06 1.22239E+05 1.30093E+06
 -1       225 2.74304E+06 2.43219E+06 4.04877E+06 2.18338E+06-2.82950E+06 4.79275E+06
 -1       226-1.42633E+07-4.91547E+06-6.85252E+06-9.89825E+05 1.10882E+06 7.71676E+06
 -1       227-2.79112E+07 6.78551E+05 7.42032E+06-3.00655E+06 1.28965E+06 8.85917E+05
 -1       228-3.41144E+07 2.41776E+07-6.58246E+06-3.33124E+06 2.18877E+07-4.59435E+07
 -1       229 3.98257E+08-2.29431E+08 9.73968E+07 3.40470E+07 2.41095E+08-4.14298E+08
 -1       230 5.39272E+07 5.76087E+07 6.03105E+07 6.64685E+06 9.46940E+06 9.01064E+06
 -1       231 5.27477E+06-3.38669E+06 2.03737E+07 1.34918E+07 1.37104E+07-3.26580E+07
 -1       232-5.04918E+06-1.48781E+07 5.76252E+06-4.95717E+06 2.20774E+07-1.03455E+07
 -1       233 3.93295E+07 7.08158E+07 6.41611E+07 9.08512E+05 1.27674E+07-6.06230E+07
 -1       234 2.09370E+08-4.56912E+08-1.46563E+08 4.88993E+07 4.75891E+08 2.23201E+08
 -1       235-6.48080E+07-3.84481E+07-5.68261E+07 8.91506E+05-5.79739E+07-9.55025E+06
 -1       236 2.73628E+07-2.00930E+07-7.73824E+06 2.16532E+07-2.13512E+07 2.48667E+07
 -1       237 2.28336E+06-1.55522E+06-6.40768E+05 1.42089E+07 1.46475E+06-3.57051E+06
 -1       238-2.74967E+06-5.06007E+06-4.95860E+06 1.86283E+07 4.30296E+06 6.37467E+06
 -1       239 1.95577E+07-3.38755E+07 1.33087E+07 2.26466E+07-2.41909E+07-2.01938E+07
 -1       240-6.05497E+07-6.59635E+07-6.40804E+07 6.83562E+06-5.68776E+06 8.61129E+06
 -1       241 1.64987E+07 1.27357E+07-1.34099E+07-1.92578E+06-2.61613E+07-2.28402E+07
 -1       242-4.10924E+05 7.02118E+06-1.71490E+05 1.82763E+07-3.95339E+06-4.73780E+06
 -1       243 5.63394E+06-5.73202E+05 6.64273E+05 1.25721E+07-2.04091E+06 3.47692E+06
 -1       244 1.70053E+06-7.21054E+06 4.13448E+04 1.13574E+07-1.53260E+06 2.43108E+06
 -1       245-4.18453E+06-1.11128E+07-6.24624E+05 8.82525E+06 2.97250E+06 5.33497E+06
 -1       246 6.98164E+06-1.50747E+07-2.45116E+07 1.09031E+07 2.31129E+07 1.43171E+07
 -1       247-1.13130E+07 1.33210E+07 2.86788E+07-5.57730E+06-7.71667E+06 1.76038E+07
 -1       248 8.23872E+06 1.00567E+07 7.38264E+05 1.28091E+07 2.01274E+05 5.68850E+06
 -1       249 2.84252E+06 6.48521E+06 7.94164E+04 7.85996E+06-2.34231E+06 1.73098E+06
 -1       250 5.07878E+05-2.43340E+06-6.24558E+05 6.70199E+06-1.58746E+06 3.80556E+06
 -1       251 1.11940E+06-7.92996E+06 1.82145E+06 5.21069E+06-3.70163E+06-2.34517E+05
 -1       252-4.54561E+06-1.21030E+07 4.45229E+06 1.84895E+06 6.48247E+05-5.84620E+06
 -1       253 7.01402E+07 7.08293E+07 7.71250E+07 1.27240E+06-3.65015E+07 7.42747E+06
 -1       254-1.88425E+07 4.32827E+07-1.17674E+07-3.96287E+06-3.33193E+07-2.23676E+07
 -1       255 7.87494E+06 2.58077E+06 3.67638E+06-4.77010E+05 5.61591E+06 6.28321E+06
 -1       256 2.05514E+06 2.55328E+06 7.65124E+05 3.15177E+06-2.28549E+06 8.22388E+05
 -1       257-5.90299E+06-5.45946E+05 6.94349E+05 1.82462E+06-4.32271E+06 6.80761E+06
 -1       258 1.21525E+07 3.46127E+06 8.07133E+06 1.90654E+06-6.08335E+06-1.49005E+06
 -1       259-2.61573E+08 5.43768E+08 1.14815E+08-6.71457E+07 5.57178E+08 2.86274E+08
 -1       260-5.22393E+07-8.87843E+07-7.47174E+07 8.54625E+06 1.55611E+07-4.58112E+07
 -1       261 1.19679E+07 2.02703E+07-1.11664E+07 1.11569E+07 2.83279E+07 1.14855E+07
 -1       262-3.82035E+05-3.82407E+06-2.90606E+06-1.75194E+06 1.03519E+05 7.22273E+05
 -1       263-7.85286E+06-7.70823E+06-1.11504E+07 1.10170E+06 1.83210E+06 9.60668E+06
 -1       264-7.37790E+07 3.37540E+07-1.45679E+07-9.88031E+06 3.46885E+07-7.56375E+07
 -1       265-4.68553E+08-1.20485E+09-4.68554E+08-4.13169E+07-1.14971E+08-4.14486E+02
 -1       266-5.68335E+08-1.46143E+09-5.68335E+08-2.58406E+07-2.20209E+08 7.67661E+02
 -1       267-7.11417E+08-1.82936E+09-7.11417E+08-9.33276E+06-3.17482E+08-6.03815E+02
 -1       268-8.07160E+08-2.07555E+09-8.07161E+08-1.12265E+07-3.18506E+08 4.15408E+02
 -1       269-9.00433E+08-2.31540E+09-9.00434E+08-1.80766E+07-2.81839E+08-8.41105E+00
 -1       270-9.70646E+08-2.49594E+09-9.70646E+08 3.64874E+06-3.77849E+08-1.91486E+02
 -1       271-1.00753E+09-2.59079E+09-1.00753E+09 2.56633E+07-3.38301E+08 1.11467E+02
 -1       272-1.03704E+09-2.66668E+09-1.03705E+09-1.91645E+07-2.11738E+08 2.51538E+02
 -1       273-1.12040E+09-2.88103E+09-1.12040E+09-4.17150E+07-2.60962E+08-1.51215E+02
 -1       274-1.13269E+09-2.91264E+09-1.13269E+09-9.47083E+06-5.02020E+08 5.77205E+02
 -1       275-1.06934E+09-2.74974E+09-1.06934E+09 1.02646E+07-3.31940E+08 3.51600E+02
 -1       276-8.65714E+08-2.22612E+09-8.65714E+08 3.08768E+07-4.27654E+08-1.54540E+03
 -1       277-6.30457E+08-1.62118E+09-6.30457E+08 3.98865E+07-2.57041E+08 1.18174E+03
 -1       278-3.06447E+08-7.88007E+08-3.06447E+08 5.36446E+07-6.08413E+07-1.30906E+03
 -1       279-7.13130E+06-1.83370E+07-7.13171E+06 6.92414E+07 2.21101E+08 1.01513E+03
 -1       280-3.47044E+08-9.65998E+08-3.34059E+08-1.33980E+08 1.23297E+08 5.80760E+07
 -1       281-4.57577E+08-1.35742E+09-3.53094E+08-1.83690E+08 7.34439E+07 2.10482E+06
 -1       282-6.13521E+08-1.82194E+09-4.66779E+08-1.35772E+08 1.92695E+07 2.10986E+07
 -1       283-6.87228E+08-2.00364E+09-3.44323E+08-2.59567E+07 4.01799E+07 1.66268E+06
 -1       284-6.73664E+08-2.29142E+09-4.00950E+08-1.05561E+08 3.40618E+07-5.09333E+07
 -1       285-6.33567E+08-2.07091E+09-5.60717E+08 2.26133E+08 6.92305E+07 9.19100E+06
 -1       286-3.86733E+08-1.17910E+09-3.31595E+08 4.02244E+08 8.06017E+07 5.50374E+06
 -1       287-2.50622E+07-1.54197E+08-6.98515E+07 4.05465E+08 9.56585E+07-3.19750E+07
 -1       288 4.60395E+07 9.02103E+07 1.05338E+08-1.55785E+08-1.88115E+08-2.83331E+07
 -1       289 5.27937E+07-2.08756E+06 2.02897E+08-2.76886E+08-2.77744E+08 1.32088E+06
 -1       290 9.18268E+07-1.18928E+08 3.02622E+08-3.69289E+08-2.36793E+08 1.33668E+07
 -1       291-6.40942E+05-4.40361E+08 2.46775E+08-3.20814E+08-2.62816E+08-6.69555E+07
 -1       292-3.79002E+07-6.51021E+08 2.37404E+08-2.68254E+08-1.69547E+08-1.69172E+07
 -1       293 1.54943E+07-8.08125E+08 4.02334E+08-1.69424E+08-2.19042E+08 3.07095E+07
 -1       294-1.55351E+08-1.09945E+09 4.66895E+08-8.54498E+07-3.05752E+08-9.15136E+06
 -1       295-4.39053E+08-1.55567E+09 2.79874E+08-1.73977E+08-4.34318E+08-8.00814E+07
 -1       296 1.13708E+08-1.28385E+09 5.30911E+08-8.02266E+07-3.29245E+08-1.30034E+07
 -1       297 2.95743E+08-8.63021E+08 4.66975E+08 2.15084E+08-2.93091E+08-2.83864E+06
 -1       298 2.36941E+08-5.65620E+08 3.01046E+08 4.69373E+08-3.81237E+08 9.00889E+06
 -1       299 2.20345E+08-2.84367E+08 2.85450E+08 5.96009E+08-2.43382E+08 1.39998E+07
 -1       300 1.40473E+08-9.57987E+07 2.26185E+08 7.17783E+08-2.91181E+08 2.73885E+07
 -1       301 9.25607E+07 1.16736E+07 1.16365E+08 6.85225E+08-1.56675E+08-7.10426E+06
 -1       302 7.63914E+07 4.26566E+07-5.98298E+06 6.28208E+08 9.29468E+07 2.52967E+07
 -1       303 1.28560E+08 1.10709E+09 2.14285E+08-2.62871E+08 3.73797E+07-6.35087E+05
 -1       304 1.65313E+08 7.55121E+08 1.09049E+08-6.00572E+08 1.64878E+07-2.04399E+07
 -1       305 2.90158E+08-4.97794E+07 1.37209E+08-4.52980E+08-2.35802E+07-3.26903E+06
 -1       306 1.70983E+08-3.58646E+08 1.68248E+08-1.69305E+08 3.26287E+07 8.99026E+07
 -1       307 4.52018E+08-4.76983E+08 1.74977E+08 2.97697E+08-4.79403E+07-1.79392E+08
 -1       308 6.78673E+08 3.94185E+08 1.27564E+08 7.85171E+08 5.66064E+07 7.87656E+06
 -1       309 3.38135E+08 6.62952E+08 1.22125E+08 7.29090E+08 9.95929E+07 9.45100E+06
 -1       310 2.41297E+07 3.84662E+08 4.77414E+07 5.00358E+08 1.40900E+08 3.39944E+07
 -1       311 1.66498E+08-7.26051E+07 2.22296E+07-5.05082E+07-1.10944E+07 1.40606E+08
 -1       312 1.31189E+08 3.57327E+08-3.05371E+07-3.71893E+08-4.15476E+07-2.85835E+07
 -1       313-1.07372E+08 9.57470E+08-9.25554E+07-5.11725E+08 3.33128E+07 7.40865E+07
 -1       314-1.61809E+08 1.17966E+09-1.84071E+08-5.15569E+08-7.63170E+07 3.01082E+07
 -1       315 5.39063E+07 1.35010E+09-2.14431E+08-7.32791E+08-3.08124E+07-2.12467E+08
 -1       316 2.32831E+08 3.19215E+08-2.94452E+08-8.40856E+08 4.35868E+06-2.21085E+08
 -1       317 4.11884E+08-9.39617E+07-2.01479E+08-6.22484E+08-8.57307E+07-1.53457E+08
 -1       318 3.54973E+08-1.63381E+08-2.79930E+08-3.80511E+08-7.47484E+07-5.91633E+07
 -1       319 2.45550E+08-1.85251E+08-3.59770E+08-1.87577E+08-2.72279E+08-2.37510E+07
 -1       320 4.15027E+08-3.87072E+08-4.86790E+08 5.15991E+08-2.88031E+08-8.81943E+07
 -1       321 9.02387E+08 1.76689E+08-3.14542E+08 7.71690E+08-1.12145E+08 2.33167E+08
 -1       322 7.66978E+08 1.09066E+09-2.18610E+08 1.07424E+09-9.02554E+07-7.59589E+06
 -1       323 4.12595E+08 1.16186E+09-1.93544E+08 9.03450E+08-1.13826E+08 8.34537E+07
 -1       324 2.87872E+08 1.06432E+09-1.51420E+08 7.43771E+08-4.61703E+07 1.61856E+08
 -1       325-1.75836E+07 6.67310E+08-1.30156E+08 5.36641E+08-1.18161E+08-8.27695E+07
 -1       326-1.75946E+08 4.09814E+08-2.86414E+07 3.14709E+08 1.26086E+08 1.54809E+07
 -1       327-1.00937E+08 3.00884E+07-2.99701E+07-2.30701E+07 6.93970E+07 1.73505E+08
 -1       328-3.11298E+07-3.18591E+08-2.40618E+07-3.85819E+08-1.24768E+08-8.05655E+07
 -1       329-3.16888E+08-1.08697E+08 4.18420E+07 2.47845E+08 4.21877E+07-2.26782E+07
 -1       330-1.96811E+06 7.74168E+08-2.47032E+06-2.40580E+08 2.52790E+07-7.79090E+06
 -1       331 1.65356E+08 1.91348E+09 2.06984E+08 3.67812E+07-1.43146E+07 1.40632E+08
 -1       332 4.75399E+08 1.56914E+09 3.47612E+07 9.21470E+08-4.05724E+08 8.89154E+07
 -1       333-4.39732E+06 1.48117E+09 8.46871E+07 4.39112E+08-9.54785E+07 8.52592E+05
 -1       334-3.75211E+08 2.42565E+08 4.91727E+07 1.72761E+07-1.00784E+08 7.30799E+06
 -1       335-6.64593E+08-3.75837E+08 3.44997E+07-6.52634E+08-8.90428E+07-6.25796E+07
 -1       336 8.22092E+08 3.19703E+08 3.19703E+08 4.56534E+07 6.92567E+02 2.26047E+07
 -1       337 6.79960E+08 2.24119E+08 2.34258E+08 1.95548E+08-4.32770E+07-7.39975E+07
 -1       338-1.03219E+08-1.03898E+08-9.57617E+07 2.84432E+08 6.44161E+06 1.16205E+08
 -1       339-8.81131E+08-1.86367E+08-1.54748E+08 3.20451E+08 5.72793E+07-1.05547E+08
 -1       340-8.40520E+08-1.76749E+07 8.57770E+07 4.32500E+08 6.57388E+06-7.09156E+07
 -1       341-5.99300E+08 6.81044E+07-3.90946E+07 2.58407E+08 9.10114E+06 7.04614E+07
 -1       342 5.05566E+05 3.64392E+08-4.61921E+06 4.63287E+07-6.05134E+07 1.55598E+07
 -1       343 8.74165E+07 4.82769E+08 3.49432E+07 2.25650E+08 2.92546E+08-2.28361E+08
 -1       344-2.48943E+08 4.43125E+08-8.82567E+07 5.45415E+08 4.04100E+08 8.22877E+07
 -1       345-1.52285E+08 8.53881E+08-1.40222E+08 8.96130E+08 1.22689E+08 1.93531E+08
 -1       346-3.85902E+08 1.06787E+09-4.11750E+07 7.35571E+08 3.55890E+08 2.45842E+08
 -1       347-6.73332E+08 1.17320E+09 1.23810E+07-2.09095E+08 3.09722E+08 1.50461E+08
 -1       348-5.83727E+08 3.31579E+08-1.01743E+06-3.71075E+08 2.34002E+08 1.13436E+08
 -1       349-7.04618E+08-3.26825E+08-2.20527E+07-2.60047E+08-6.88731E+07-4.22406E+07
 -1       350-1.10651E+09-2.72475E+08 3.61504E+07-4.95950E+08 5.20556E+06 6.37524E+06
 -1       351-1.44549E+09-1.35549E+08 1.35088E+08-6.68428E+08-6.39626E+07-1.56479E+07
 -1       352-1.58725E+09-3.23802E+08-3.19618E+08-7.69631E+07 4.99868E+07 3.99320E+07
 -1       353-1.22127E+08-1.16750E+08-2.13715E+08 2.30027E+08 2.06581E+06-4.25604E+08
 -1       354 1.45849E+09 5.09608E+08 4.77655E+08 8.90930E+07-6.41590E+07 7.40774E+07
 -1       355 1.95305E+09 7.59519E+08 7.59520E+08-1.93863E+07 1.01470E+02-3.43791E+08
 -1       356 1.18996E+09 4.62763E+08 4.62763E+08 3.16769E+07-9.08034E+02 1.74052E+08
 -1       357-2.95606E+07-8.19914E+07-1.46229E+08 3.25181E+08 4.31722E+06 2.25203E+08
 -1       358-8.86131E+08-9.71564E+07 1.61637E+08 4.85716E+08-7.28905E+07 1.04915E+08
 -1       359-5.09997E+08 1.73754E+08-2.29657E+07-7.20378E+07 1.21194E+08-2.37125E+08
 -1       360 3.82834E+08-1.13007E+09-2.64458E+08 2.43917E+08 1.91490E+07-2.21578E+08
 -1       361 1.07555E+08-7.23050E+08-2.20337E+08-9.42092E+08 3.56076E+08 1.27419E+08
 -1       362-7.64277E+08-2.51576E+08-3.09889E+07-9.68141E+07 3.07425E+08 2.56382E+08
 -1       363-1.33674E+09-8.36898E+07 1.83844E+08-5.63979E+08-4.03162E+07-9.06074E+07
 -1       364-8.99482E+06-7.02852E+07-2.19328E+08 1.55075E+08 1.52234E+07-3.14519E+08
 -1       365 1.78950E+09 6.95918E+08 6.95918E+08-1.90691E+04-3.04531E+02-3.21896E+08
 -1       366 1.59161E+09 6.18962E+08 6.18961E+08 2.07111E+07 7.49189E+02 2.78597E+08
 -1       367 1.15804E+09 3.82130E+08 3.35139E+08 1.94759E+08 2.73925E+07-5.59773E+07
 -1       368 6.14962E+07-1.36245E+08-2.13150E+08 3.46061E+08 3.39011E+07 2.82573E+08
 -1       369-7.15805E+08-3.97617E+08-1.33946E+08 4.44828E+08 3.91201E+06-8.11177E+07
 -1       370-1.05019E+09-3.95458E+08 1.43065E+08 5.80980E+08 1.61006E+08 4.45414E+07
 -1       371-1.39392E+09-2.46869E+08-6.09217E+07 4.38970E+08 5.14435E+06 9.77230E+07
 -1       372-1.12042E+09 2.53586E+08 6.44272E+06 1.60693E+07 1.09564E+08-2.71222E+08
 -1       373 5.91253E+08-3.51447E+08 2.07807E+08-5.60943E+08 3.76725E+07-2.44443E+08
 -1       374 9.02714E+08-7.46165E+08 8.13024E+07-5.81981E+07 1.69115E+08-3.76240E+08
 -1       375 2.98634E+08-1.95830E+07 1.72237E+07 6.11272E+06 2.08456E+07 7.82732E+07
 -1       376-8.37858E+05 5.76928E+07 1.30348E+07-7.05468E+06-1.49598E+06-1.15556E+07
 -1       377-1.12052E+07 2.31493E+07-1.60757E+07-1.52820E+07 6.18859E+06-2.60148E+07
 -1       378-1.65385E+07-2.16941E+07 1.56442E+06 2.11327E+07-6.25992E+06-1.03086E+07
 -1       379 1.31005E+07-1.22234E+07 3.99930E+06 4.01080E+06 2.11661E+05-2.53812E+07
 -1       380-2.26305E+07-3.68078E+07-9.58208E+06-1.83464E+07-4.42518E+06-3.61265E+07
 -1       381-3.53096E+06 4.26128E+07-2.27498E+06 1.59941E+07 8.53476E+06-2.83074E+07
 -1       382 6.84057E+06 8.86085E+07 2.90086E+07-1.00696E+06-8.36609E+06-4.86044E+07
 -1       383 2.15924E+08-8.59222E+07-1.50935E+07 4.30708E+07 4.27266E+07-1.50710E+08
 -1       384 6.82630E+08-1.03851E+09-1.03028E+08-1.50078E+08 4.54893E+08 1.34270E+08
 -1       385 8.75825E+08-5.65862E+08 2.22658E+08-6.49346E+07 1.98682E+08-7.95681E+07
 -1       386-6.77007E+08 2.18884E+08 1.11875E+08 1.98043E+08-1.54453E+08 3.38823E+08
 -1       387-1.87409E+09-2.99717E+08-1.95918E+08-2.28842E+08-1.61759E+08-8.47615E+07
 -1       388-1.09065E+09-3.25241E+08 1.88898E+08-6.07851E+08 1.49674E+08-6.52446E+07
 -1       389-5.70596E+08-2.48452E+08-6.03750E+07-2.35181E+08-1.66017E+06-2.77301E+07
 -1       390 8.29118E+07-9.25647E+07-2.50133E+08 1.02456E+08-5.37759E+06-2.08054E+08
 -1       391 1.21029E+09 4.11252E+08 3.30317E+08 7.88690E+07 4.26506E+07 6.27069E+07
 -1       392 1.66906E+09 6.49080E+08 6.49080E+08 1.61530E+07 1.32129E+02-2.90106E+08
 -1       393 1.85802E+09 7.22565E+08 7.22564E+08 5.15294E+06-8.81556E+02 3.73799E+08
 -1       394 1.68001E+08-2.48378E+08-2.47402E+08 2.04384E+08-8.73203E+06 1.97125E+08
 -1       395-9.60481E+08-5.18551E+08 1.65060E+08 6.74083E+08 4.00352E+07 8.21725E+07
 -1       396-9.53427E+08 6.32534E+07 2.39615E+07 7.30356E+08 2.43150E+08-2.88159E+08
 -1       397 7.54082E+07-2.11706E+08 2.41281E+07 3.36815E+07-1.36281E+08-3.51164E+07
 -1       398-6.67418E+07-4.05550E+07-2.47993E+07 3.10931E+07-1.55838E+07 2.78299E+07
 -1       399 3.98886E+06-5.04710E+06 6.40376E+05 6.34464E+06 4.83587E+05-2.56053E+06
 -1       400 3.29683E+05-8.24763E+06 1.70377E+06 5.21788E+06 2.39833E+06 3.29995E+05
 -1       401-7.13436E+07-5.12425E+07-3.55498E+07-2.12939E+07-1.96926E+07-2.55751E+07
 -1       402 1.45247E+07-3.28423E+08-7.95444E+06 1.37118E+07-7.52103E+07 1.79981E+07
 -1       403-1.79564E+08-3.08141E+08 1.83963E+08-4.57291E+08 1.09412E+08-1.92604E+07
 -1       404 3.39411E+08-1.17542E+08-2.18375E+08 1.72623E+08-6.82223E+05-1.61140E+08
 -1       405 1.39039E+09 5.40708E+08 5.40708E+08 2.00212E+07 2.98834E+02-2.44287E+08
 -1       406 2.01441E+09 7.83384E+08 7.83383E+08-2.13297E+07 3.38779E+02 1.89979E+08
 -1       407 1.43983E+09 4.02692E+08 3.87119E+08-6.31087E+05 8.97392E+07-8.62675E+07
 -1       408 3.06969E+08-3.84747E+08-2.79351E+08 6.09167E+07-5.30575E+06 3.14212E+08
 -1       409-2.11573E+08-6.93777E+08-7.70173E+07 3.95650E+08 2.20242E+07-1.40332E+07
 -1       410-7.10217E+08-8.15985E+08 1.83198E+08 7.49966E+08-4.53484E+07 2.83825E+07
 -1       411-1.17395E+09-5.22469E+08-2.10972E+07 7.81814E+08 2.48676E+07 3.47311E+08
 -1       412-6.36589E+08 1.63467E+07 1.23597E+08 8.46750E+08 1.05347E+08-5.18229E+07
 -1       413-8.60362E+07-1.04379E+07-3.57021E+07-5.86630E+05-4.85963E+07 6.90371E+06
 -1       414 4.46626E+07 6.61702E+07 2.76427E+07-1.92018E+07-2.83736E+07 1.88706E+07
 -1       415 4.22873E+07-2.54245E+07 1.99909E+06 1.36988E+07 9.54864E+06-1.83720E+07
 -1       416-1.78723E+07-2.01727E+07-7.49780E+06 1.78850E+07 4.48914E+06-5.63262E+06
 -1       417 3.84468E+03 1.19464E+06-3.14124E+05 5.41275E+06 5.26342E+05 5.19511E+06
 -1       418 1.06374E+07 8.68042E+06 5.34224E+06 8.60258E+06-4.79511E+05 1.41829E+06
 -1       419-9.32454E+05 2.10630E+06-5.12255E+05 1.18372E+07 1.04960E+06-1.73188E+05
 -1       420-1.86437E+07-2.58056E+07-6.10315E+06-5.76404E+05 9.25058E+06 8.85827E+06
 -1       421 2.54959E+07-4.76404E+07 2.65568E+06 1.47905E+07 2.32573E+07 1.25587E+07
 -1       422 4.06614E+07 6.72808E+07 2.11107E+07 3.19333E+07-2.81256E+07-1.48890E+07
 -1       423-6.35121E+07-6.07423E+06-2.37748E+07-8.57902E+06 1.61080E+07-6.56174E+05
 -1       424 2.22386E+08-1.50272E+08 7.58856E+07-3.13029E+08 4.65371E+07-2.07820E+08
 -1       425 3.30453E+08-1.15339E+08-6.87055E+07-6.84467E+07-7.74612E+07-4.45579E+07
 -1       426 6.01736E+08-3.77917E+07-1.55663E+08 2.94086E+08-2.12107E+07-9.33372E+07
 -1       427 8.89553E+08 2.41051E+08 1.59786E+08 2.05530E+08 3.33577E+06 1.18502E+07
 -1       428 1.06256E+09 4.13219E+08 4.13219E+08 3.36436E+07-2.73572E+00-5.59764E+07
 -1       429 1.58121E+09 6.14918E+08 6.14917E+08-2.31823E+07 4.10126E+02 3.06399E+08
 -1       430 6.70267E+08-5.57646E+08-2.43145E+08-2.34725E+08 2.14418E+07 1.05814E+08
 -1       431-6.04505E+07-9.49118E+08 7.25372E+07 4.75117E+08 2.27153E+08 1.93760E+08
 -1       432-3.58517E+07 2.26899E+06-1.52576E+06 1.74541E+07-3.14231E+07-5.96830E+06
 -1       433 1.99448E+07 1.64092E+07 5.04881E+06-1.15584E+06 4.94344E+06-6.11233E+06
 -1       434 2.33045E+06-1.48491E+06-1.71019E+05 8.68582E+06-1.01969E+06 4.00124E+06
 -1       435-2.39553E+05-4.91759E+06-3.55610E+05 5.85892E+06-4.97353E+05 2.59920E+06
 -1       436 1.83600E+07 1.47407E+07 8.65935E+06 1.80610E+07 6.99070E+06 7.01145E+06
 -1       437-1.98452E+07 6.96729E+06 1.46372E+07-1.79684E+07 2.32586E+07 4.45076E+06
 -1       438 4.05017E+08 9.72883E+07-9.42044E+07 4.13014E+08-1.26372E+08-9.84932E+07
 -1       439 6.58239E+08 2.55982E+08 2.55982E+08 3.22562E+07 4.23854E+02-4.74971E+07
 -1       440 8.90830E+08 3.46433E+08 3.46433E+08-5.90901E+07 8.44307E+01-2.24907E+08
 -1       441 9.44619E+08 2.58868E+07 1.25850E+08-5.29816E+08-7.01863E+07 2.60303E+07
 -1       442 1.03271E+09-4.93133E+08-1.40701E+08-7.40330E+08-6.11385E+07 1.23441E+08
 -1       443 9.24282E+08-3.85299E+08 5.49717E+07 8.00733E+07-1.84613E+08 3.53623E+07
 -1       444 5.34638E+08-4.27200E+08 1.29981E+08 3.60608E+08-1.17556E+08 2.27830E+08
 -1       445 4.69680E+07 3.40847E+07 1.30690E+07-1.20080E+07-4.43217E+07 7.05091E+06
 -1       446 7.40361E+06 1.65222E+05 1.12712E+06 4.35584E+06-9.51524E+06-2.42192E+06
 -1       447-7.98415E+06 3.78719E+06-3.95358E+06 1.09627E+07-7.05680E+06 1.09138E+06
 -1       448 5.01269E+06 2.82438E+06-2.22101E+05 7.01524E+06-4.18019E+06 3.26446E+06
 -1       449 3.26571E+06-3.49502E+05 6.98993E+05 6.35334E+06-2.17777E+06 2.64909E+06
 -1       450 1.50227E+05-3.27813E+06-5.86322E+05 6.15006E+06-1.58196E+06 3.16789E+06
 -1       451 1.15343E+06-3.55435E+06 6.53302E+04 5.89093E+06-1.36586E+06 4.19438E+06
 -1       452 1.84619E+06-4.06678E+06 1.53233E+05 6.52405E+06-2.68640E+06 2.21569E+06
 -1       453-6.97624E+06-4.97731E+06-2.07151E+06 2.47457E+06-4.69286E+06 2.16704E+06
 -1       454 3.82413E+06-1.21523E+07-2.76812E+05 5.21082E+06 1.27833E+06 2.20208E+06
 -1       455 3.27116E+07 1.79826E+07 1.96515E+06 1.90287E+07 9.87960E+05-9.89191E+06
 -1       456 1.44789E+08 1.55050E+08-7.21780E+07 3.57844E+08-6.18441E+07-2.82331E+07
 -1       457 2.15177E+08 1.16316E+08 1.47517E+07 1.87524E+08-7.28010E+06 1.08161E+07
 -1       458 3.00902E+08 1.17017E+08 1.17018E+08 1.21999E+07 7.68889E+00-7.89681E+07
 -1       459-1.25483E+08-4.87991E+07-4.87991E+07-1.12703E+08 1.73673E+03-1.33057E+07
 -1       460-6.76613E+07-4.19996E+06 1.42068E+07-1.27498E+09-5.06425E+08-1.90355E+07
 -1       461 2.50571E+06 1.06964E+07 1.97419E+06-7.81008E+05-3.42240E+07-2.41847E+06
 -1       462 3.31832E+06 7.14428E+06 2.20775E+06 1.16974E+07-5.67424E+06 8.11608E+05
 -1       463 1.76925E+06 1.10539E+06-2.40506E+05 4.92060E+06-9.59124E+05 3.32467E+06
 -1       464 1.14109E+06-1.83059E+06 3.45273E+05 5.07510E+06-1.06334E+06 4.10621E+06
 -1       465-5.12824E+06-1.02886E+07-3.35000E+06 1.73986E+06-2.29187E+06 1.77971E+06
 -1       466 2.58898E+06-1.38961E+07-2.99054E+06 2.99173E+06 5.83416E+06-1.90083E+06
 -1       467 1.56952E+07 1.72674E+08-3.76564E+06 2.35364E+08-4.55817E+07-3.48999E+07
 -1       468 3.56667E+07 1.38700E+07 1.38704E+07 1.25055E+07 6.96891E+01 1.19294E+07
 -1       469-1.14208E+09-4.44141E+08-4.44141E+08-6.15837E+07 1.02027E+02 2.02442E+08
 -1       470-1.13822E+09-7.94511E+07-1.60729E+08-5.22335E+08-7.31248E+07-2.23714E+07
 -1       471-1.12939E+09 5.22463E+08 1.90501E+08-7.15733E+08-6.06568E+07-1.60805E+08
 -1       472-9.49358E+08 4.37574E+08-4.13006E+07 1.15507E+08-2.05838E+08-3.60458E+07
 -1       473-5.43756E+08 4.83901E+08-1.73202E+08 3.85095E+08-1.33346E+08-2.52354E+08
 -1       474-4.72479E+07-2.94131E+07-1.15848E+07-1.83176E+07-3.75778E+07-1.27201E+07
 -1       475-4.47817E+06 1.37512E+07-1.86225E+06 1.57131E+06-5.86393E+06 2.64086E+06
 -1       476 1.20752E+07 4.74138E+06 4.91384E+06 9.29714E+06-8.35255E+06 5.32236E+05
 -1       477-4.39451E+05 3.50710E+06 5.54012E+05 3.49038E+06-3.99538E+06 1.68453E+06
 -1       478 7.15450E+05 3.11517E+06-6.55536E+05 4.22466E+06-2.11008E+06 3.90698E+06
 -1       479 2.44104E+06 2.06336E+06 4.22744E+05 3.93840E+06-2.11179E+06 3.85828E+06
 -1       480 2.59811E+05-1.32848E+06-2.07163E+05 3.66450E+06-2.29908E+06 3.59925E+06
 -1       481-1.39489E+06-3.60678E+06-1.54012E+05 2.73209E+06-2.82107E+06 3.44386E+06
 -1       482 3.04004E+06-4.51816E+06 1.55199E+06 2.74605E+06-2.86641E+06 2.29818E+06
 -1       483-1.30339E+06-3.49951E+06-2.13019E+05 2.47279E+06-3.26512E+06-8.82460E+04
 -1       484-1.26348E+07-1.31037E+07-1.16917E+06 1.29431E+06 1.99696E+06 1.74512E+06
 -1       485-6.52519E+07 4.45937E+07-2.72736E+07-5.74894E+07-9.35796E+06 2.68321E+07
 -1       486-9.83543E+07 4.87693E+07-3.07097E+06-1.77211E+07-2.12794E+07 8.65960E+06
 -1       487-1.02838E+08 1.07824E+08 4.45108E+07 7.85917E+07-1.92012E+07 3.64826E+07
 -1       488-1.47325E+08-6.35169E+06-2.14719E+07 6.34987E+07 2.16673E+07-8.41766E+06
 -1       489-1.75052E+08-6.80758E+07-6.80755E+07 1.16892E+07 1.70289E+02-3.57391E+07
 -1       490-1.79692E+09-6.98804E+08-6.98803E+08-2.19533E+07 4.00998E+02-3.46222E+08
 -1       491-7.37641E+08 5.96908E+08 2.79959E+08-1.79822E+08 1.98553E+07-1.22585E+08
 -1       492 5.54737E+07 1.05114E+09-9.12990E+07 5.26593E+08 2.45077E+08-2.01213E+08
 -1       493 2.34463E+07-7.07876E+06-8.98388E+06 2.58159E+07-8.33063E+06 2.95520E+06
 -1       494-2.03857E+07-1.95458E+07-1.17386E+07-1.01254E+07 7.73469E+06 7.06710E+06
 -1       495 3.55282E+06 5.73212E+06 9.39726E+05 3.49340E+06-1.56799E+06 2.14140E+06
 -1       496-2.40790E+05-1.26718E+06-3.84122E+05 1.62578E+06-5.21304E+05 3.96767E+06
 -1       497-2.40063E+06-3.96231E+06 4.12181E+05 4.24233E+06-2.76016E+04 8.12947E+05
 -1       498 5.36775E+06-2.86083E+06-4.74937E+05-2.47417E+06 2.75623E+06-1.28702E+06
 -1       499 2.10647E+07 1.08587E+08-1.51451E+07-7.16034E+07 2.90736E+07 2.03711E+07
 -1       500-7.86067E+07 6.43688E+07 3.59008E+07 2.12931E+07 2.65263E+06 2.28205E+07
 -1       501-2.41372E+08-9.38670E+07-9.38670E+07 4.79838E+06 5.94255E+01 3.84682E+07
 -1       502-2.17160E+09-8.44511E+08-8.44510E+08-1.73734E+07 4.20128E+02-1.99333E+08
 -1       503-1.55881E+09-4.33053E+08-4.18577E+08 4.59819E+07 8.44994E+07 9.17986E+07
 -1       504-3.55409E+08 4.13368E+08 2.94517E+08 1.45468E+08-8.89443E+06-3.30198E+08
 -1       505 1.93115E+08 7.70186E+08 8.59402E+07 4.82834E+08 2.80824E+07 1.00087E+07
 -1       506 7.15603E+08 9.18797E+08-1.88225E+08 8.41069E+08-4.79167E+07-3.49006E+07
 -1       507 1.20162E+09 5.83554E+08 4.55657E+06 8.48700E+08 1.74920E+07-3.60957E+08
 -1       508 6.36588E+08-4.34838E+06-1.67700E+08 8.88890E+08 8.86883E+07 5.65314E+07
 -1       509 8.07086E+07 7.44999E+06 5.01689E+07 1.60686E+07-1.48700E+07-3.48120E+06
 -1       510-4.63386E+07-8.29292E+07-1.94428E+07-2.88572E+07-3.80803E+07-1.71078E+07
 -1       511-2.88130E+07 5.90936E+07-6.07452E+06-6.29601E+06 2.59509E+07 1.48677E+07
 -1       512 2.21934E+07 2.91277E+07 4.67630E+06 1.27553E+07 9.73808E+06 1.07414E+07
 -1       513 4.32667E+06-5.64467E+06 7.27487E+05-2.44141E+06 4.95933E+04 6.59304E+04
 -1       514-4.45962E+06-6.11763E+06-3.03464E+06-8.44152E+05-9.70790E+05 1.73131E+06
 -1       515 1.34837E+06 3.20612E+06 5.83236E+05 2.06583E+06-1.54546E+05 4.04312E+06
 -1       516 4.94123E+06 4.28483E+06 2.37610E+06 5.12850E+05-5.79833E+05 1.28312E+06
 -1       517-8.43577E+06 1.51510E+06 1.09250E+05 1.62179E+05-8.22655E+05-1.56482E+06
 -1       518-8.50027E+06-1.37462E+07-6.72051E+06 5.41641E+06-6.28459E+06 4.35832E+06
 -1       519 1.58472E+07 5.04450E+05 8.40565E+05 2.15470E+06-4.68150E+06 3.98001E+05
 -1       520 9.38052E+07-1.74904E+07-2.13366E+07-1.13503E+08 1.96752E+07-1.26560E+07
 -1       521 1.77208E+08 5.31014E+07 2.43154E+06-9.92273E+07 9.83628E+06 4.59077E+07
 -1       522 1.21481E+08 8.46751E+07-2.36821E+07-9.87074E+07-2.85909E+06 2.65429E+06
 -1       523 4.96108E+07 7.78952E+07 1.33289E+07-5.47692E+07 2.94229E+06-2.79675E+06
 -1       524-4.00028E+07 3.87752E+07 3.63163E+07-1.08859E+07 2.39353E+06 4.15534E+07
 -1       525-2.02403E+08-5.95659E+07-5.50214E+07-2.17542E+06 1.00161E+07-8.74721E+06
 -1       526-2.78345E+08-1.08246E+08-1.08245E+08 2.27595E+06 1.47360E+01 3.74656E+07
 -1       527-1.90862E+09-7.42240E+08-7.42240E+08 1.10491E+07-1.05524E+03-3.86949E+08
 -1       528-2.04170E+08 2.78451E+08 2.50248E+08 3.14260E+08-1.27118E+06-1.97368E+08
 -1       529 9.37800E+08 5.63930E+08-1.74404E+08 7.66398E+08 4.65946E+07-9.00026E+07
 -1       530 9.65337E+08-1.81778E+06-4.93844E+06 7.58761E+08 2.63224E+08 2.84368E+08
 -1       531-1.95350E+07 3.93805E+08-1.94428E+07-1.87493E+07-1.27229E+08 2.82595E+07
 -1       532 8.57602E+07 6.30282E+07 4.83080E+07 3.54888E+07-2.56968E+07-2.92900E+07
 -1       533 4.34764E+05 9.09409E+06-3.77297E+06 1.71947E+06 3.33322E+06 2.97037E+06
 -1       534 2.46759E+06 1.46978E+06 1.30411E+06 1.46095E+06-1.15691E+06 2.39735E+06
 -1       535 1.09535E+07 5.54343E+06 1.95337E+06-3.22061E+06-2.71846E+06 7.39589E+06
 -1       536-1.34758E+07 3.33229E+07 2.07118E+06-7.36227E+06-1.94741E+07-6.13562E+06
 -1       537 1.44745E+08-3.23611E+07-1.27599E+06-9.90914E+07 3.09837E+07-4.44515E+07
 -1       538 1.50522E+08 4.44698E+07-2.66856E+07-8.37814E+07 6.80341E+06 1.17924E+07
 -1       539-1.84577E+07 2.25640E+07 3.51201E+07-2.15266E+07-2.34814E+06 3.02488E+07
 -1       540-2.63272E+08-1.02384E+08-1.02384E+08-6.30108E+05-9.11972E+01 5.28565E+07
 -1       541-1.52220E+09-5.91966E+08-5.91966E+08 2.97686E+07 8.95070E+02-2.51374E+08
 -1       542-1.10767E+09-3.49526E+08-3.17711E+08 2.72422E+08 1.83470E+07 5.94668E+07
 -1       543-8.37436E+07 1.68491E+08 2.04338E+08 4.81144E+08 3.22378E+07-2.77792E+08
 -1       544 6.63707E+08 4.41193E+08 1.27716E+08 5.51961E+08 1.54906E+07 9.08314E+07
 -1       545 1.00098E+09 4.39313E+08-1.40639E+08 6.65479E+08 1.97236E+08-5.33525E+07
 -1       546 1.32016E+09 1.96036E+08 5.02142E+07 5.04617E+08-2.45325E+07-8.57114E+07
 -1       547 1.08610E+09-4.44774E+08-2.51501E+07 5.31331E+07 7.48119E+07 2.90727E+08
 -1       548-3.84520E+08 6.25156E+08-1.16959E+08-6.09644E+08 2.67096E+08 1.48855E+08
 -1       549-6.66337E+08 1.31626E+09 7.79878E+07-2.00535E+08 4.80257E+08 2.54041E+08
 -1       550-2.62361E+08 1.01864E+08-1.04982E+07-5.45041E+07 4.42523E+07-1.47280E+08
 -1       551-7.34563E+06-1.06257E+08-1.30744E+07 8.05678E+06-7.56129E+06-2.91434E+07
 -1       552 6.59074E+06-4.91250E+07 1.01177E+07-1.62288E+07 1.09432E+07-2.14541E+06
 -1       553 3.11418E+07 4.92344E+07 4.42667E+06 2.27387E+07-7.78081E+06-1.12056E+07
 -1       554-5.14531E+06 1.05193E+07-2.81202E+06-5.11954E+05 3.98826E+05-3.75032E+05
 -1       555 6.03945E+05-4.67456E+06 8.12536E+05-4.82055E+06 3.45050E+05 9.10417E+06
 -1       556 3.20512E+06-6.11379E+06 2.06196E+06 3.31764E+06 9.22100E+05 4.61218E+06
 -1       557 1.23123E+06-7.45484E+06-7.24012E+06 3.50466E+06-1.60432E+06 6.17778E+06
 -1       558-5.28123E+07 3.18124E+06 3.22531E+06-2.78295E+06 2.45706E+06 1.88166E+07
 -1       559-1.85235E+08 8.37889E+07-1.00616E+07-2.70317E+07 3.14130E+07-6.26141E+07
 -1       560-1.52116E+08 1.86318E+07-3.48992E+07 4.82033E+07 3.09888E+07-2.31554E+07
 -1       561 1.60849E+08-7.08815E+07 2.40892E+06 6.35457E+06 3.14803E+06-4.42469E+07
 -1       562 2.18343E+08 1.56993E+07 1.35606E+07-5.21391E+07-2.93224E+06 9.82040E+06
 -1       563 1.64823E+08 3.75195E+07-2.45049E+07-6.85526E+07 2.09451E+07 8.93888E+06
 -1       564 1.17353E+08 4.24161E+07 1.97952E+07-4.71293E+07-1.35033E+05-9.55402E+06
 -1       565-2.79606E+06 9.43777E+06 3.31403E+07-3.19701E+07 3.57048E+06 4.20275E+07
 -1       566-1.73993E+08-6.20610E+07-5.04548E+07-1.77220E+07 3.21838E+06-8.65666E+06
 -1       567-2.39507E+08-9.31418E+07-9.31418E+07-2.02108E+06 7.99632E+01 4.43778E+07
 -1       568-9.50578E+08-3.69670E+08-3.69670E+08 4.21916E+07-1.09307E+03-1.17936E+08
 -1       569 2.09864E+07 1.07929E+08 1.20162E+08 4.79992E+08 3.53008E+06-1.82107E+08
 -1       570 7.72796E+08 1.25653E+08-1.21990E+08 5.12728E+08-9.33666E+07-9.65915E+07
 -1       571 4.87883E+08-3.07882E+08-7.75129E+06-6.01468E+07 2.63658E+08 1.76907E+08
 -1       572-2.09186E+08 9.17641E+08 2.44442E+08 2.98113E+08 1.44978E+08 2.32893E+08
 -1       573-9.92795E+07 5.09044E+07 1.30179E+07-7.87997E+07 1.88910E+07-3.00728E+07
 -1       574 8.44116E+07-3.61632E+07 5.23357E+05 1.94896E+07 3.06616E+07-4.19147E+07
 -1       575 1.51560E+08 1.78630E+06-2.56095E+07-5.73816E+07-1.03560E+07 1.39792E+07
 -1       576 7.25997E+06 6.27012E+06 2.49942E+07-2.44554E+07 2.18802E+06 3.91769E+07
 -1       577-2.05201E+08-7.98005E+07-7.98005E+07-2.78236E+06-9.38134E+01 3.30011E+07
 -1       578-4.09827E+08-1.59377E+08-1.59378E+08 5.75097E+07 8.87862E+02 1.04099E+08
 -1       579-3.97539E+08-1.10631E+08-1.48526E+08 2.93408E+08-3.12786E+07 8.27779E+07
 -1       580 9.50396E+07 1.23478E+08 4.87091E+07 4.50131E+08 9.02219E+06-1.47557E+07
 -1       581 6.27524E+08 1.33562E+08 1.05271E+08 4.19574E+08 6.74488E+07 1.26510E+08
 -1       582 6.22752E+08-5.75279E+07-4.49284E+07 4.08395E+08 4.44296E+07 7.54014E+07
 -1       583 4.52260E+08-1.45439E+08 2.85236E+07 1.89212E+08-2.42181E+06-7.88157E+07
 -1       584 5.72393E+07-3.40538E+08 9.09422E+06-4.45214E+07-3.20728E+07-4.35706E+07
 -1       585 2.06265E+08-8.28205E+08-1.88358E+06 4.36038E+07 3.16460E+08 2.41775E+08
 -1       586 5.11015E+08-1.40684E+09 5.27084E+06-9.20429E+07 3.22670E+08 4.94530E+07
 -1       587 2.19053E+08-1.13133E+09 3.77090E+07-8.40624E+08 3.58759E+08 2.20765E+08
 -1       588-9.75512E+06-7.81638E+08 1.08600E+08-7.97123E+08 3.44083E+07 1.91443E+08
 -1       589-8.74062E+06-8.41649E+07 1.13650E+07 8.14631E+07 1.05481E+06-1.69371E+07
 -1       590 1.61534E+07-1.07619E+08 5.77437E+06 8.65695E+07 3.56029E+07-2.44427E+07
 -1       591 6.44547E+07-1.32111E+08 6.44681E+06 5.63037E+06 3.42960E+07-1.11823E+07
 -1       592 2.79566E+07-6.39720E+07 1.01584E+06-3.60088E+06 2.14774E+07-3.65659E+07
 -1       593 2.52577E+07-1.45896E+07-2.03241E+05 5.86735E+06-5.21793E+06 7.25114E+06
 -1       594 1.10996E+08 3.92845E+06 2.61756E+06-3.08888E+07-4.73350E+06 8.41509E+06
 -1       595 1.50363E+08-6.38896E+06-1.56195E+07-5.93113E+07 5.95035E+05-6.49499E+06
 -1       596 1.59059E+08 2.44771E+07 2.89895E+07-2.47442E+07 8.35340E+06-9.96430E+06
 -1       597 1.59028E+07 1.25347E+07 1.90935E+07-1.44737E+07-1.57307E+06 3.07613E+07
 -1       598-1.38550E+08-4.81534E+07-4.67115E+07-1.30110E+07-9.50918E+06-9.35139E+06
 -1       599-1.78089E+08-6.92569E+07-6.92570E+07-4.61724E+06 7.01278E+01 2.35173E+07
 -1       600 2.02003E+08 5.20761E+07-2.60954E+07 1.30997E+08 1.12284E+08 3.24049E+07
 -1       601-1.04191E+08-1.02054E+09-6.83668E+06-3.44854E+08-6.17133E+07-3.33891E+07
 -1       602-1.58107E+08-1.81432E+09-1.19392E+08-4.93985E+08-5.07597E+07-6.04399E+07
 -1       603-2.41139E+08-1.30528E+09-4.45881E+07-6.63024E+08-3.03395E+08 5.80199E+07
 -1       604-3.50410E+07-1.38055E+08-5.43909E+06 7.79859E+07-3.41984E+07-4.21190E+06
 -1       605-1.31329E+07-1.62005E+08-9.58528E+06 6.05022E+07-6.93249E+06 1.06405E+07
 -1       606 9.04183E+06-6.13510E+07-1.94787E+06 3.17105E+07-9.82052E+06 1.73452E+06
 -1       607 5.87091E+07 1.86217E+07-4.70941E+06-5.48358E+07-4.93785E+05 9.95281E+04
 -1       608-1.85742E+08 1.13404E+08-1.15379E+07-2.63830E+08-8.39687E+07-1.42267E+08
 -1       609-2.21956E+08-5.67483E+08 4.71959E+07-5.37343E+08-2.26614E+07-4.11407E+07
 -1       610-1.47335E+07-1.36768E+09 1.40684E+08-5.59899E+08 1.05424E+07-4.32502E+06
 -1       611-3.99497E+07-1.26588E+09 2.03085E+08-5.14492E+08-1.05493E+08-8.21071E+07
 -1       612-2.53246E+08-1.21431E+09 1.98758E+08-5.60154E+08-5.07423E+07 7.14406E+07
 -1       613-9.93774E+07-1.16802E+09 1.73281E+08-6.18751E+08-1.64630E+08 1.29064E+08
 -1       614 4.64035E+07-1.20328E+09 1.22704E+08-7.08543E+08-1.75608E+08-8.96249E+07
 -1       615-1.07856E+06-1.17068E+08 1.55960E+07 9.41438E+07-2.37088E+07 1.30469E+07
 -1       616-1.65255E+07-1.04578E+08 1.71875E+07 8.39446E+07-1.90024E+07-1.58727E+07
 -1       617-3.64993E+07-1.01434E+08 1.48947E+07 7.72261E+07-3.01334E+06-1.13986E+07
 -1       618-9.92084E+06-8.85087E+07 1.34916E+07 6.35535E+07-1.19688E+07 1.13399E+07
 -1       619 5.90323E+06-8.39564E+07 6.73291E+06 5.43338E+07 5.96849E+06-3.32139E+06
 -1       620-1.61954E+07-3.34748E+07 1.99029E+06 2.47976E+07 3.03385E+06-1.13698E+07
 -1       621-2.11677E+07 1.78944E+07 2.29154E+06-2.13766E+07-2.00754E+07 1.09469E+07
 -1       622-2.45088E+08-1.39002E+09-2.66112E+08-1.62027E+08 1.09360E+08 6.89993E+07
 -1       623-2.44448E+08-8.23059E+08-1.01369E+08-3.59622E+08-2.98915E+07 1.89068E+07
 -1       624-1.22094E+08-2.08743E+08-8.53418E+07-6.21365E+08-7.16863E+07-7.46071E+07
 -1       625-2.08912E+07-3.69399E+06-9.59596E+06 8.81080E+07-1.23269E+07 7.24189E+06
 -1       626-3.12128E+07-5.87670E+07-6.97757E+06 6.31377E+07-2.20528E+06-3.69418E+06
 -1       627-1.34144E+07-7.64596E+07-1.35716E+07 4.26640E+07 1.71601E+07-7.58395E+06
 -1       628-1.07330E+08-6.38149E+07-1.92245E+08-4.63623E+07-3.26963E+08-3.48118E+06
 -1       629-5.10779E+07-4.57284E+07-2.06573E+08-1.21477E+08-3.18183E+08 2.00622E+07
 -1       630-1.29952E+08-4.72694E+07-2.64232E+08-1.90981E+08-3.15050E+08 1.28906E+06
 -1       631-3.53623E+08 2.62646E+08-3.48800E+08-1.61641E+08-2.58682E+08 1.72815E+06
 -1       632-3.38888E+08 8.45164E+08-2.90285E+08 6.27518E+07-3.93414E+08-6.28727E+07
 -1       633-4.44879E+07 7.09842E+08-2.26400E+08 5.46726E+08-1.92387E+08-2.21309E+08
 -1       634 2.91432E+08 3.74156E+08-2.06990E+08 5.36377E+08-1.09494E+08-8.01318E+07
 -1       635 3.75376E+08 2.62922E+08-8.02584E+07 2.89749E+08-1.37976E+08-4.29436E+07
 -1       636 2.50189E+08 1.82100E+08-3.56759E+06 6.81444E+07 2.17625E+07-4.31141E+07
 -1       637 8.40045E+07 1.27358E+08-3.01732E+07-7.41800E+05-3.14171E+07 2.37567E+07
 -1       638-2.28937E+07 1.08906E+08-3.00177E+07 1.14091E+07-4.50765E+07 5.51014E+06
 -1       639-4.78712E+07 3.74059E+07-3.85221E+07 4.25253E+07-2.46525E+07-2.00724E+06
 -1       640-2.06370E+07 2.99187E+06-2.20232E+07 5.16128E+07-2.89645E+07-5.18972E+05
 -1       641-1.02800E+07 1.76103E+05-1.40711E+07 4.89085E+07-2.02660E+07-1.14026E+06
 -1       642-1.40222E+07-1.56140E+06-9.76489E+06 4.44323E+07-8.42029E+06-6.41597E+05
 -1       643 4.11929E+08 1.25412E+09 3.94333E+08-8.37810E+07 5.61474E+07-9.46733E+07
 -1       644 5.20338E+08 1.45559E+09 4.45954E+08-9.83802E+07 9.96530E+07 5.66993E+07
 -1       645 3.26957E+08 1.53750E+09 3.06026E+08 1.71479E+08 5.50513E+07-4.85935E+06
 -1       646 3.06195E+08 6.16628E+08 6.17131E+07 2.81707E+08 4.18416E+07-5.51240E+07
 -1       647 1.16384E+08 1.80634E+08 2.08610E+07 4.64929E+07-5.48292E+06 5.21436E+07
 -1       648 4.51769E+07 1.81399E+08 3.63907E+07-9.20586E+06 9.08158E+06 1.42612E+07
 -1       649 4.40675E+07 1.32453E+08 4.08846E+07 2.87601E+07 1.04847E+07-4.61761E+06
 -1       650 1.37313E+07 5.60897E+07 1.68492E+07 3.22856E+07 7.02932E+06 5.90970E+06
 -1       651 6.26785E+08 1.61173E+09 6.26786E+08-4.42641E+07-2.32682E+08 3.14764E+02
 -1       652 7.07562E+08 1.81945E+09 7.07562E+08-1.78343E+07-3.03030E+08-5.58619E+02
 -1       653 8.04551E+08 2.06884E+09 8.04551E+08-2.18593E+06-3.76037E+08 5.49698E+02
 -1       654 7.82108E+08 2.01113E+09 7.82108E+08 6.29068E+06-3.93361E+08-4.53846E+02
 -1       655 7.29764E+08 1.87654E+09 7.29765E+08 4.78273E+07-9.22994E+07 7.84853E+02
 -1       656 5.25200E+08 1.35051E+09 5.25200E+08 6.34217E+07-1.79264E+08 6.81110E+02
 -1       657 3.36436E+08 8.65120E+08 3.36436E+08 1.93757E+07-1.76160E+08-7.51846E+01
 -1       658 1.85216E+08 4.76271E+08 1.85217E+08 1.10034E+07 1.63188E+06 4.64172E+01
 -1       659 8.51949E+07 2.19073E+08 8.51956E+07 1.03474E+07-9.87570E+07 2.47622E+02
 -1       660 7.76197E+07 1.99594E+08 7.76199E+07-2.59703E+06-2.32882E+07-9.27223E+01
 -1       661 8.61289E+07 2.21475E+08 8.61291E+07-4.04163E+06-1.24166E+07-6.78231E+01
 -1       662 8.21511E+07 2.11245E+08 8.21511E+07 1.12115E+06-4.45476E+07 7.69843E+01
 -1       663 7.34323E+07 1.88826E+08 7.34323E+07 2.59832E+06-2.97641E+07-8.62483E+01
 -1       664 4.73843E+07 1.21845E+08 4.73843E+07 4.39966E+06-1.51706E+07 1.07796E+02
 -1       665 2.25320E+07 5.79393E+07 2.25320E+07 7.07243E+06 8.93449E+06-8.42662E+01
 -1       666-9.38661E-05-2.52187E-04-8.33934E-05-5.51790E-05-1.13845E+08 9.54693E+02
 -1       667-4.55398E-05-1.14515E-04-4.78802E-05-2.22009E-05-3.12264E+08 4.34770E+02
 -1       668 1.14366E-06-7.12276E-06 1.09691E-05-1.49580E-05-2.74598E+08 2.46857E+02
 -1       669 1.49794E-05 3.83854E-05 1.54767E-05-5.10924E-06-3.24526E+08-3.78662E+02
 -1       670 1.08723E-05 4.44055E-06 3.38987E-05-1.12504E-05-2.46509E+08 2.08160E+02
 -1       671-3.83416E-05-8.06227E-05-5.58924E-05-2.65613E-06-3.25329E+08-2.85935E+01
 -1       672-5.27087E-05-1.13770E-04-7.47666E-05-9.70066E-06-2.53447E+08-1.19268E+03
 -1       673-8.81432E-05-2.50772E-04-6.53956E-05 3.47197E-05 2.20438E+08-1.47178E+03
 -1       674-6.76885E-06-1.28362E-04 5.21503E-05 6.30319E-06-1.90905E+08-2.42386E+07
 -1       675-8.92580E-06-1.01701E-04-1.54776E-05-3.93689E-05-2.41916E+08 1.64250E+07
 -1       676 5.09256E-05-2.84641E-05 7.44481E-05-7.44732E-06-1.72000E+08-1.26386E+07
 -1       677 1.15508E-04 8.57736E-05 1.90704E-04-3.40889E-05-3.03280E+08-4.56833E+06
 -1       678 6.12040E-05 4.40478E-05 1.38703E-04 3.86412E-05-3.27211E+08-1.80052E+07
 -1       679-8.11415E-06-2.66507E-05-5.84389E-05-8.53091E-06-3.87468E+08 3.57698E+06
 -1       680 4.81482E-05-6.43767E-05 1.52044E-04-1.39549E-05-2.95650E+08 2.37464E+07
 -1       681-3.96557E-06-2.13433E-04-2.14002E-05-1.11237E-05 9.21531E+07 2.10343E+07
 -1       682 6.38068E-05 1.87233E-05 1.06292E-04-1.66947E-05-5.53207E+06 1.35106E+08
 -1       683-2.14496E-05-8.81255E-05-2.05865E-04-3.55553E-05 3.35929E+07 6.91416E+07
 -1       684 1.59691E-06-1.68530E-04 2.52190E-05 2.03575E-05-3.85100E+07-2.13800E+08
 -1       685 1.83797E-04 1.48501E-04 4.67900E-04-3.96315E-05-9.78776E+07-1.51513E+08
 -1       686 1.82338E-04 7.76350E-05 2.55957E-04 2.38195E-05-2.92413E+08-2.52014E+07
 -1       687-1.20372E-04-2.75277E-04-3.63468E-04-5.49555E-05-3.10834E+08-9.23096E+07
 -1       688 2.18786E-05-2.62832E-05-3.74808E-04 2.21009E-05-1.00713E+08-6.62061E+06
 -1       689 6.22142E-05-1.34284E-04 8.10715E-05 4.94532E-07-4.90460E+07 1.67289E+08
 -1       690-2.00669E-05-2.05806E-04-3.27128E-04 4.20883E-05 1.29831E+08 2.13213E+07
 -1       691 1.54421E-04 1.00467E-04 2.48995E-04-1.19954E-05-1.16280E+08-7.77345E+07
 -1       692-4.06653E-05-1.86302E-05-2.56989E-05 5.21541E-07-1.06694E+03 2.19731E+07
 -1       693-9.66601E-05-3.95747E-05-8.18102E-05 1.76392E-06 3.83944E+06 1.18955E+08
 -1       694 2.24660E-05 7.97523E-05 1.47438E-04 1.67162E-05 1.09196E+07-7.37332E+07
 -1       695-8.16192E-05 1.33137E-05 5.41426E-05-1.00833E-05-5.56268E+07 1.16081E+07
 -1       696 1.09524E-05-3.47465E-04 1.08368E-04-4.15593E-05 4.09494E+08 8.16769E+07
 -1       697 4.17132E-04 4.01065E-04 1.31355E-03 2.72915E-05 1.29464E+08 1.97060E+08
 -1       698 1.96050E-05-1.73779E-04 1.07560E-04-4.70610E-05 3.15141E+08 1.56068E+08
 -1       699-1.48146E-04-1.55156E-04-1.55368E-04 4.83072E-05-6.60536E+07-3.62963E+07
 -1       700 2.28907E-05 1.69116E-04 1.11099E-04 3.85734E-05-6.10474E+07-1.62246E+07
 -1       701-2.04179E-04-2.45683E-06-8.92952E-06 1.31037E-06 3.70835E+05-4.30479E+08
 -1       702-3.77446E-04-2.36392E-04-4.67621E-04 2.19774E-05-5.31618E+02-3.41327E+08
 -1       703-4.01586E-06 5.86733E-07 6.36140E-06 7.66944E-07-7.16253E+02 2.75365E+08
 -1       704 1.10711E-05-1.42492E-05-5.28868E-05 1.00899E-05 3.20498E+07 2.87193E+08
 -1       705-2.73106E-05-4.49293E-05-7.86348E-05-2.43944E-05 1.63404E+08 4.82607E+07
 -1       706 7.07060E-05 4.62600E-05-1.77404E-04 2.21319E-05 1.13835E+08-2.75800E+08
 -1       707 1.81340E-05-5.25671E-04-2.49303E-04-1.32756E-04 1.27225E+08-3.38403E+08
 -1       708 4.97873E-05 2.96836E-05 7.03143E-06 1.72348E-05-1.07737E+07-4.99166E+07
 -1       709 1.21970E-05-6.24988E-06-1.01462E-05 9.07021E-07-2.41428E+07 1.46534E+07
 -1       710 3.08683E-05 5.14596E-06 1.39935E-05-5.28141E-06-3.23881E+07-5.92131E+07
 -1       711 7.45850E-06 3.34962E-05-5.46093E-06-2.02337E-05-1.92312E+07-1.93379E+07
 -1       712-3.11460E-04-6.13668E-04-1.63095E-04 3.00246E-04 4.19918E+08 8.73255E+07
 -1       713-1.70238E-04 2.98545E-05-6.64191E-05-1.05139E-04-1.54893E+08 3.43491E+08
 -1       714 6.05757E-05 2.44412E-04 4.43811E-04 1.77833E-05 1.46785E+08-7.26614E+07
 -1       715-8.58540E-05-2.05408E-05-1.00101E-04 6.24545E-06-6.78212E+06-2.12991E+08
 -1       716-1.63078E-04-1.17056E-04-2.54877E-04-5.57164E-06 2.83338E+02-2.85945E+08
 -1       717 7.47889E-05 2.92975E-05 3.09260E-05-1.41938E-05 8.72633E+02 1.85648E+08
 -1       718 1.24561E-04 9.23066E-05 2.95966E-04-4.48804E-06-6.14421E+06 3.19361E+08
 -1       719 1.13500E-04 1.05331E-04 3.03561E-05-3.23256E-05-4.75105E+07 3.63765E+07
 -1       720 3.52561E-05 1.40745E-04 4.08165E-04 1.90735E-06 1.06161E+08-5.71008E+07
 -1       721-4.85772E-06-7.08200E-05 1.17358E-05-3.35020E-06-2.20127E+07 1.58621E+07
 -1       722-1.53144E-05-7.56575E-06 7.07799E-06-1.32698E-05 3.94476E+07-5.88929E+07
 -1       723 9.20206E-06 1.16171E-05 2.03345E-05 4.00301E-06-4.49108E+05 1.29869E+07
 -1       724-9.04163E-07 3.49326E-06-7.95643E-06 9.21586E-06-1.71294E+06-7.35427E+06
 -1       725-3.80861E-05-3.68711E-05-9.10324E-06 2.53374E-05 6.70319E+07 4.40737E+07
 -1       726-2.62482E-06-7.76745E-05-7.20831E-05-1.26528E-05 5.74297E+07-9.68099E+06
 -1       727 2.18473E-04 2.01581E-04 4.42818E-04 1.30516E-05 3.76139E+07-2.14045E+08
 -1       728 5.28855E-05 4.02884E-05 8.33223E-07 2.65548E-05-2.10696E+07-9.18931E+07
 -1       729-4.51375E-05-4.78784E-05-1.26460E-04 6.66920E-06 2.20539E+02-5.06978E+07
 -1       730-6.34789E-06-3.63961E-06-7.98330E-06-2.60882E-05-3.64689E+02-2.29820E+08
 -1       731 4.22597E-05 1.09915E-05 6.67915E-05-2.06580E-05-5.78615E+07 1.22367E+08
 -1       732-1.90541E-04-9.39518E-05-4.07662E-04 1.06096E-05-1.26161E+08 2.34435E+08
 -1       733-2.37200E-05-3.05134E-05-4.39909E-05-4.11464E-06-5.72110E+07 3.58817E+07
 -1       734-1.16569E-05-8.89689E-06-2.48360E-05-9.91658E-06-1.04631E+07 6.65045E+06
 -1       735-1.59999E-05-8.16515E-06-4.31221E-05-5.99753E-06-1.89993E+06 1.44803E+06
 -1       736-1.57504E-05-7.97017E-06-3.19677E-05 8.13889E-06-1.20886E+06 5.46234E+06
 -1       737-1.91094E-05-2.26052E-05-6.81406E-05 1.42807E-05-1.15886E+07-1.43082E+06
 -1       738-1.48808E-05-5.96105E-07 6.00972E-06 3.07227E-07-2.23370E+07-3.11311E+07
 -1       739 8.19098E-06 1.46879E-05 3.56080E-05-9.81684E-06-5.88401E+07-2.56040E+07
 -1       740-7.58097E-06-1.41244E-05-4.32609E-05 2.06877E-05-2.75298E+02-7.63390E+07
 -1       741-5.45755E-05-2.64002E-05-4.03229E-05-2.46323E-05-3.40109E+02 2.08511E+08
 -1       742-9.36029E-05-4.17655E-05 3.70116E-05-4.00816E-05-5.79183E+07-1.59665E+08
 -1       743-5.46090E-05 7.83503E-05 2.53040E-06 2.38046E-05-1.41593E+08-2.61069E+08
 -1       744 2.19921E-05 2.07288E-05 5.74398E-05-1.86148E-06-6.45495E+07-3.90165E+07
 -1       745 5.57685E-06 5.98313E-06 1.08629E-05-1.55892E-05-1.63004E+07-5.11443E+06
 -1       746 1.36204E-05 1.03016E-05 2.88719E-05-7.13937E-06-1.67116E+06 5.52930E+06
 -1       747-5.95806E-06-1.22798E-05-8.44717E-06 4.07116E-06-2.74148E+06 2.75625E+06
 -1       748 5.81592E-06 1.07449E-06 5.61999E-06 1.17875E-05-1.93600E+06 4.57660E+06
 -1       749-1.02724E-05 1.28041E-06-2.31738E-05 5.60554E-06 3.83433E+06 8.62042E+06
 -1       750 2.12560E-05 2.62819E-06 1.64937E-05-6.52694E-06-1.03675E+07 2.79212E+07
 -1       751-3.59997E-05-3.55756E-05-3.10255E-06 2.11216E-05-1.81549E+07 3.63617E+07
 -1       752-1.44932E-05-3.95346E-07 1.33757E-05 9.70531E-06 2.81233E+02-3.64650E+07
 -1       753 2.14800E-05 7.76676E-06 5.24888E-06-1.91634E-05 7.91908E+02-1.94652E+08
 -1       754 4.81764E-05 8.03266E-07-2.11515E-05-2.89017E-05-1.04090E+07-3.35645E+08
 -1       755 1.49364E-04 2.21765E-04 6.08801E-04-3.46377E-05-4.95188E+07-4.35924E+07
 -1       756-1.14411E-04 8.83229E-05 2.05442E-04-2.37972E-05 9.10512E+07 6.16046E+07
 -1       757-2.46638E-05 6.29285E-05-5.40940E-05 1.31305E-05 3.38969E+07-1.48850E+07
 -1       758 1.99414E-05 1.37589E-05-2.80989E-05-2.70302E-05 8.06045E+07 5.11273E+07
 -1       759-1.62674E-06-1.23490E-05 1.29980E-05-7.59902E-06-4.81095E+06-6.70991E+06
 -1       760-4.48126E-08-8.23942E-06-9.32172E-06-8.00930E-07 1.95137E+06 6.77552E+06
 -1       761 1.89503E-05 1.51800E-05 1.83108E-05 1.68660E-05 2.92508E+06-9.60512E+06
 -1       762 6.35581E-06 7.00962E-05 1.44746E-05 3.21458E-06-9.74015E+05 8.94275E+05
 -1       763 4.35710E-05 3.01842E-05 9.57799E-05-1.40360E-05 2.00114E+07-1.33082E+07
 -1       764-5.74666E-05-4.56289E-05-2.27030E-05 2.84393E-05-3.19257E+06 3.76338E+06
 -1       765-3.62811E-05-2.38260E-05-7.86961E-05 1.43263E-05 2.29390E+06 4.22400E+07
 -1       766 6.01634E-06 9.82778E-06 2.92524E-05 4.16735E-06 1.08909E+02 3.68491E+07
 -1       767 7.84062E-05 2.43261E-05 9.01474E-06-2.26833E-05-9.07089E+02-2.48337E+08
 -1       768 8.34595E-05 1.13940E-05 2.63248E-05-3.08678E-05 2.97889E+07-2.82378E+08
 -1       769 1.89887E-04 5.83965E-05 1.76573E-04-1.48420E-05 2.00968E+08-5.65997E+07
 -1       770 2.90337E-04 2.73221E-04 4.70236E-04 8.72530E-05 7.88975E+07 2.94769E+08
 -1       771 3.88832E-04 7.73063E-04 3.50853E-04-3.23745E-04 4.14676E+08 2.32784E+08
 -1       772-5.82759E-05-7.82649E-05-1.20944E-04 2.26777E-05-1.78807E+07 5.16768E+06
 -1       773-2.66168E-05 4.58368E-06-2.52946E-05 6.75873E-06-4.50820E+07-3.32278E+07
 -1       774-1.95656E-05 4.81340E-06 1.15054E-05-2.69047E-06 1.09073E+06 1.71742E+07
 -1       775-3.53077E-05-6.96024E-06 2.78613E-05-2.07506E-05-5.08270E+06-1.29169E+06
 -1       776-3.86372E-05 5.35546E-04 1.21704E-04 1.47904E-04 2.92049E+07-5.24183E+07
 -1       777-8.64071E-05-3.90432E-05 4.99977E-05-3.78556E-05 3.48063E+06-4.51870E+07
 -1       778-3.46592E-06 8.63336E-07 1.51632E-06 9.71556E-06 2.11599E+07 9.39450E+06
 -1       779 1.05822E-05-4.09014E-06-2.86628E-05 5.09033E-06 3.35546E+06 4.27120E+07
 -1       780 4.41410E-05 2.47010E-05 4.41424E-05 2.62965E-06-7.89704E+01 4.38520E+07
 -1       781 2.52433E-04 9.50294E-05 8.72500E-05-4.30271E-05-1.20696E+03 1.03886E+08
 -1       782 2.56535E-04 7.03256E-05 2.10248E-04 1.00583E-07 5.76931E+06-1.64695E+07
 -1       783 2.21835E-04 9.73238E-05 4.99027E-04-2.33186E-05 4.94480E+07 7.76049E+07
 -1       784 2.88529E-04 2.71991E-04 4.43398E-04-4.10452E-05-2.58980E+07-3.96991E+07
 -1       785 1.33707E-04 4.04348E-04 2.21850E-04 9.56804E-05 3.29006E+08 5.17575E+07
 -1       786-9.54084E-05-2.29806E-04-4.98715E-04-4.69610E-05 3.63707E+07 1.92695E+08
 -1       787-2.48663E-05-5.45457E-05-6.48804E-05 3.07141E-05 1.24511E+06-1.71395E+07
 -1       788 1.19829E-04 3.64097E-04 1.43428E-04-3.92552E-05 3.45992E+07-1.15715E+07
 -1       789 9.85995E-05 2.20441E-05 3.24075E-05 2.77305E-05-4.78486E+06 6.56554E+06
 -1       790 2.15006E-05-3.62463E-05-1.30764E-05-4.25475E-06 1.21055E+06-6.71062E+06
 -1       791 4.00487E-05-2.82079E-05-6.18324E-05-3.38355E-06-1.91256E+06 3.12332E+07
 -1       792 8.65161E-05 3.74392E-05 4.70653E-05 1.25512E-05-1.37180E+02 2.33307E+07
 -1       793 1.05072E-04 1.13025E-04 3.92070E-04-1.61231E-05-8.03980E+07-1.33523E+08
 -1       794-2.02022E-04-1.82837E-05-3.50610E-04-3.11024E-05 1.17013E+07-4.89918E+05
 -1       795-1.51308E-04-4.21708E-05-4.72452E-04 1.48150E-05-5.47105E+07 7.07588E+07
 -1       796 7.35000E-05 1.58915E-05 1.64997E-04 5.52479E-05-1.82033E+08-9.23693E+07
 -1       797 2.66496E-05 5.79460E-05 3.36709E-05-1.54502E-05-2.44799E+07 1.31282E+07
 -1       798 1.38243E-07 1.24565E-04 5.44802E-05-3.03646E-06-3.37144E+06-1.15680E+07
 -1       799-5.93175E-05 3.50123E-05 1.93064E-05 2.84472E-05 6.13442E+06-3.74405E+06
 -1       800-4.31001E-05-3.90930E-05-7.16412E-05 2.41678E-06-1.90792E+07 1.05192E+07
 -1       801-3.83705E-06 1.65306E-04 4.38467E-05-2.31061E-06-3.31416E+08-4.66578E+06
 -1       802-4.46737E-05 2.73154E-05-7.33789E-05 2.48710E-06-3.20194E+08-1.13445E+06
 -1       803-6.21701E-05-9.56918E-05-1.37262E-04-9.09778E-06-3.93504E+08-6.50978E+07
 -1       804 4.13787E-06 3.02158E-05 2.92845E-05 8.36095E-07-1.02870E+08-7.75433E+07
 -1       805-2.16789E-05-1.57347E-05-2.51946E-05 2.19303E-06 2.38608E+07-4.02562E+07
 -1       806-2.11832E-05 1.60908E-05-2.36828E-05 9.67062E-07-4.50470E+07 6.32192E+06
 -1       807-9.30985E-06 7.17905E-05-1.11077E-05 1.66934E-05-2.94159E+07-1.08766E+05
 -1       808-1.07992E-05 1.06414E-04-2.69101E-05-5.14032E-06-8.66143E+06-4.44768E+05
 -1       809-7.83801E-06 1.35720E-04-1.64479E-04-2.14111E-05-2.30259E+08-1.07043E+03
 -1       810 4.30197E-05 1.07557E-04 4.62905E-05 1.22376E-06-3.72430E+08 1.30614E+02
 -1       811 2.64682E-05 1.50427E-05 8.05147E-05-4.10015E-06-8.50283E+07 4.54080E-01
 -1       812 7.37514E-06-5.54882E-06 3.23276E-05-1.07225E-05-1.69537E+08-9.99380E+02
 -1       813 3.59630E-06 7.76350E-06 4.71622E-06 4.53729E-07-9.66587E+07 5.87542E+02
 -1       814 9.72068E-06 2.28686E-05 1.19046E-05-6.56547E-06-1.15061E+07 1.28795E+02
 -1       815 3.17558E-05 7.77598E-05 3.56878E-05 1.43680E-06-2.94770E+07 1.77710E+01
 -1       816 6.57681E-05 1.66725E-04 6.81402E-05 2.48761E-05 9.02512E+06 1.42942E+02
 -1       817 4.68553E+08 1.20485E+09 4.68554E+08 4.13169E+07-1.14971E+08-4.14486E+02
 -1       818 5.68335E+08 1.46143E+09 5.68335E+08 2.58406E+07-2.20209E+08 7.67661E+02
 -1       819 7.11417E+08 1.82936E+09 7.11417E+08 9.33276E+06-3.17482E+08-6.03815E+02
 -1       820 8.07160E+08 2.07555E+09 8.07161E+08 1.12265E+07-3.18506E+08 4.15408E+02
 -1       821 9.00433E+08 2.31540E+09 9.00434E+08 1.80766E+07-2.81839E+08-8.41106E+00
 -1       822 9.70646E+08 2.49594E+09 9.70646E+08-3.64874E+06-3.77849E+08-1.91486E+02
 -1       823 1.00753E+09 2.59079E+09 1.00753E+09-2.56633E+07-3.38301E+08 1.11467E+02
 -1       824 1.03704E+09 2.66668E+09 1.03705E+09 1.91645E+07-2.11738E+08 2.51538E+02
 -1       825 1.12040E+09 2.88103E+09 1.12040E+09 4.17150E+07-2.60962E+08-1.51215E+02
 -1       826 1.13269E+09 2.91264E+09 1.13269E+09 9.47083E+06-5.02020E+08 5.77205E+02
 -1       827 1.06934E+09 2.74974E+09 1.06934E+09-1.02646E+07-3.31940E+08 3.51600E+02
 -1       828 8.65714E+08 2.22612E+09 8.65714E+08-3.08768E+07-4.27654E+08-1.54540E+03
 -1       829 6.30457E+08 1.62118E+09 6.30457E+08-3.98865E+07-2.57041E+08 1.18174E+03
 -1       830 3.06447E+08 7.88007E+08 3.06447E+08-5.36446E+07-6.08413E+07-1.30906E+03
 -1       831 7.13130E+06 1.83370E+07 7.13171E+06-6.92414E+07 2.21101E+08 1.01513E+03
 -1       832 3.47044E+08 9.65998E+08 3.34059E+08 1.33980E+08 1.23297E+08 5.80760E+07
 -1       833 4.57577E+08 1.35742E+09 3.53094E+08 1.83690E+08 7.34439E+07 2.10482E+06
 -1       834 6.13521E+08 1.82194E+09 4.66779E+08 1.35772E+08 1.92695E+07 2.10986E+07
 -1       835 6.87228E+08 2.00364E+09 3.44323E+08 2.59567E+07 4.01799E+07 1.66268E+06
 -1       836 6.73664E+08 2.29142E+09 4.00950E+08 1.05561E+08 3.40618E+07-5.09333E+07
 -1       837 6.33567E+08 2.07091E+09 5.60717E+08-2.26133E+08 6.92305E+07 9.19100E+06
 -1       838 3.86733E+08 1.17910E+09 3.31595E+08-4.02244E+08 8.06017E+07 5.50374E+06
 -1       839 2.50622E+07 1.54197E+08 6.98515E+07-4.05465E+08 9.56585E+07-3.19750E+07
 -1       840-4.60395E+07-9.02103E+07-1.05338E+08 1.55785E+08-1.88115E+08-2.83331E+07
 -1       841-5.27937E+07 2.08756E+06-2.02897E+08 2.76886E+08-2.77744E+08 1.32088E+06
 -1       842-9.18268E+07 1.18928E+08-3.02622E+08 3.69289E+08-2.36793E+08 1.33668E+07
 -1       843 6.40942E+05 4.40361E+08-2.46775E+08 3.20814E+08-2.62816E+08-6.69555E+07
 -1       844 3.79002E+07 6.51021E+08-2.37404E+08 2.68254E+08-1.69547E+08-1.69172E+07
 -1       845-1.54943E+07 8.08125E+08-4.02334E+08 1.69424E+08-2.19042E+08 3.07095E+07
 -1       846 1.55351E+08 1.09945E+09-4.66895E+08 8.54498E+07-3.05752E+08-9.15136E+06
 -1       847 4.39053E+08 1.55567E+09-2.79874E+08 1.73977E+08-4.34318E+08-8.00814E+07
 -1       848-1.13708E+08 1.28385E+09-5.30911E+08 8.02266E+07-3.29245E+08-1.30034E+07
 -1       849-2.95743E+08 8.63021E+08-4.66975E+08-2.15084E+08-2.93091E+08-2.83864E+06
 -1       850-2.36941E+08 5.65620E+08-3.01046E+08-4.69373E+08-3.81237E+08 9.00889E+06
 -1       851-2.20345E+08 2.84367E+08-2.85450E+08-5.96009E+08-2.43382E+08 1.39998E+07
 -1       852-1.40473E+08 9.57987E+07-2.26185E+08-7.17783E+08-2.91181E+08 2.73885E+07
 -1       853-9.25607E+07-1.16736E+07-1.16365E+08-6.85225E+08-1.56675E+08-7.10426E+06
 -1       854-7.63914E+07-4.26566E+07 5.98298E+06-6.28208E+08 9.29468E+07 2.52967E+07
 -1       855-1.28560E+08-1.10709E+09-2.14285E+08 2.62871E+08 3.73797E+07-6.35087E+05
 -1       856-1.65313E+08-7.55121E+08-1.09049E+08 6.00572E+08 1.64878E+07-2.04399E+07
 -1       857-2.90158E+08 4.97794E+07-1.37209E+08 4.52980E+08-2.35802E+07-3.26903E+06
 -1       858-1.70983E+08 3.58646E+08-1.68248E+08 1.69305E+08 3.26287E+07 8.99026E+07
 -1       859-4.52018E+08 4.76983E+08-1.74977E+08-2.97697E+08-4.79403E+07-1.79392E+08
 -1       860-6.78673E+08-3.94185E+08-1.27564E+08-7.85171E+08 5.66064E+07 7.87656E+06
 -1       861-3.38135E+08-6.62952E+08-1.22125E+08-7.29090E+08 9.95929E+07 9.45100E+06
 -1       862-2.41297E+07-3.84662E+08-4.77414E+07-5.00358E+08 1.40900E+08 3.39944E+07
 -1       863-1.66498E+08 7.26051E+07-2.22296E+07 5.05082E+07-1.10944E+07 1.40606E+08
 -1       864-1.31189E+08-3.57327E+08 3.05371E+07 3.71893E+08-4.15476E+07-2.85835E+07
 -1       865 1.07372E+08-9.57470E+08 9.25554E+07 5.11725E+08 3.33128E+07 7.40865E+07
 -1       866 1.61809E+08-1.17966E+09 1.84071E+08 5.15569E+08-7.63170E+07 3.01082E+07
 -1       867-5.39063E+07-1.35010E+09 2.14431E+08 7.32791E+08-3.08124E+07-2.12467E+08
 -1       868-2.32831E+08-3.19215E+08 2.94452E+08 8.40856E+08 4.35868E+06-2.21085E+08
 -1       869-4.11884E+08 9.39617E+07 2.01479E+08 6.22484E+08-8.57307E+07-1.53457E+08
 -1       870-3.54973E+08 1.63381E+08 2.79930E+08 3.80511E+08-7.47484E+07-5.91633E+07
 -1       871-2.45550E+08 1.85251E+08 3.59770E+08 1.87577E+08-2.72279E+08-2.37510E+07
 -1       872-4.15027E+08 3.87072E+08 4.86790E+08-5.15991E+08-2.88031E+08-8.81943E+07
 -1       873-9.02387E+08-1.76689E+08 3.14542E+08-7.71690E+08-1.12145E+08 2.33167E+08
 -1       874-7.66978E+08-1.09066E+09 2.18610E+08-1.07424E+09-9.02554E+07-7.59589E+06
 -1       875-4.12595E+08-1.16186E+09 1.93544E+08-9.03450E+08-1.13826E+08 8.34537E+07
 -1       876-2.87872E+08-1.06432E+09 1.51420E+08-7.43771E+08-4.61703E+07 1.61856E+08
 -1       877 1.75836E+07-6.67310E+08 1.30156E+08-5.36641E+08-1.18161E+08-8.27695E+07
 -1       878 1.75946E+08-4.09814E+08 2.86414E+07-3.14709E+08 1.26086E+08 1.54809E+07
 -1       879 1.00937E+08-3.00884E+07 2.99701E+07 2.30701E+07 6.93970E+07 1.73505E+08
 -1       880 3.11298E+07 3.18591E+08 2.40618E+07 3.85819E+08-1.24768E+08-8.05655E+07
 -1       881 3.16888E+08 1.08697E+08-4.18420E+07-2.47845E+08 4.21877E+07-2.26782E+07
 -1       882 1.96811E+06-7.74168E+08 2.47032E+06 2.40580E+08 2.52790E+07-7.79090E+06
 -1       883-1.65356E+08-1.91348E+09-2.06984E+08-3.67812E+07-1.43146E+07 1.40632E+08
 -1       884-4.75399E+08-1.56914E+09-3.47612E+07-9.21470E+08-4.05724E+08 8.89154E+07
 -1       885 4.39732E+06-1.48117E+09-8.46871E+07-4.39112E+08-9.54785E+07 8.52592E+05
 -1       886 3.75211E+08-2.42565E+08-4.91727E+07-1.72761E+07-1.00784E+08 7.30799E+06
 -1       887 6.64593E+08 3.75837E+08-3.44997E+07 6.52634E+08-8.90428E+07-6.25796E+07
 -1       888-8.22092E+08-3.19703E+08-3.19703E+08-4.56534E+07 6.92567E+02 2.26047E+07
 -1       889-6.79960E+08-2.24119E+08-2.34258E+08-1.95548E+08-4.32770E+07-7.39975E+07
 -1       890 1.03219E+08 1.03898E+08 9.57617E+07-2.84432E+08 6.44161E+06 1.16205E+08
 -1       891 8.81131E+08 1.86367E+08 1.54748E+08-3.20451E+08 5.72793E+07-1.05547E+08
 -1       892 8.40520E+08 1.76749E+07-8.57770E+07-4.32500E+08 6.57388E+06-7.09156E+07
 -1       893 5.99300E+08-6.81044E+07 3.90946E+07-2.58407E+08 9.10114E+06 7.04614E+07
 -1       894-5.05566E+05-3.64392E+08 4.61921E+06-4.63287E+07-6.05134E+07 1.55598E+07
 -1       895-8.74165E+07-4.82769E+08-3.49432E+07-2.25650E+08 2.92546E+08-2.28361E+08
 -1       896 2.48943E+08-4.43125E+08 8.82567E+07-5.45415E+08 4.04100E+08 8.22877E+07
 -1       897 1.52285E+08-8.53881E+08 1.40222E+08-8.96130E+08 1.22689E+08 1.93531E+08
 -1       898 3.85902E+08-1.06787E+09 4.11750E+07-7.35571E+08 3.55890E+08 2.45842E+08
 -1       899 6.73332E+08-1.17320E+09-1.23810E+07 2.09095E+08 3.09722E+08 1.50461E+08
 -1       900 5.83727E+08-3.31579E+08 1.01743E+06 3.71075E+08 2.34002E+08 1.13436E+08
 -1       901 7.04618E+08 3.26825E+08 2.20527E+07 2.60047E+08-6.88731E+07-4.22406E+07
 -1       902 1.10651E+09 2.72475E+08-3.61504E+07 4.95950E+08 5.20556E+06 6.37524E+06
 -1       903 1.44549E+09 1.35549E+08-1.35088E+08 6.68428E+08-6.39626E+07-1.56479E+07
 -1       904 1.58725E+09 3.23802E+08 3.19618E+08 7.69631E+07 4.99868E+07 3.99320E+07
 -1       905 1.22127E+08 1.16750E+08 2.13715E+08-2.30027E+08 2.06581E+06-4.25604E+08
 -1       906-1.45849E+09-5.09608E+08-4.77655E+08-8.90930E+07-6.41590E+07 7.40774E+07
 -1       907-1.95305E+09-7.59519E+08-7.59520E+08 1.93863E+07 1.01470E+02-3.43791E+08
 -1       908-1.18996E+09-4.62763E+08-4.62763E+08-3.16769E+07-9.08034E+02 1.74052E+08
 -1       909 2.95606E+07 8.19914E+07 1.46229E+08-3.25181E+08 4.31722E+06 2.25203E+08
 -1       910 8.86131E+08 9.71564E+07-1.61637E+08-4.85716E+08-7.28905E+07 1.04915E+08
 -1       911 5.09997E+08-1.73754E+08 2.29657E+07 7.20378E+07 1.21194E+08-2.37125E+08
 -1       912-3.82834E+08 1.13007E+09 2.64458E+08-2.43917E+08 1.91490E+07-2.21578E+08
 -1       913-1.07555E+08 7.23050E+08 2.20337E+08 9.42092E+08 3.56076E+08 1.27419E+08
 -1       914 7.64277E+08 2.51576E+08 3.09889E+07 9.68141E+07 3.07425E+08 2.56382E+08
 -1       915 1.33674E+09 8.36898E+07-1.83844E+08 5.63979E+08-4.03162E+07-9.06074E+07
 -1       916 8.99482E+06 7.02852E+07 2.19328E+08-1.55075E+08 1.52234E+07-3.14519E+08
 -1       917-1.78950E+09-6.95918E+08-6.95918E+08 1.90691E+04-3.04531E+02-3.21896E+08
 -1       918-1.59161E+09-6.18962E+08-6.18961E+08-2.07111E+07 7.49189E+02 2.78597E+08
 -1       919-1.15804E+09-3.82130E+08-3.35139E+08-1.94759E+08 2.73925E+07-5.59773E+07
 -1       920-6.14962E+07 1.36245E+08 2.13150E+08-3.46061E+08 3.39011E+07 2.82573E+08
 -1       921 7.15805E+08 3.97617E+08 1.33946E+08-4.44828E+08 3.91201E+06-8.11177E+07
 -1       922 1.05019E+09 3.95458E+08-1.43065E+08-5.80980E+08 1.61006E+08 4.45414E+07
 -1       923 1.39392E+09 2.46869E+08 6.09217E+07-4.38970E+08 5.14435E+06 9.77230E+07
 -1       924 1.12042E+09-2.53586E+08-6.44272E+06-1.60693E+07 1.09564E+08-2.71222E+08
 -1       925-5.91253E+08 3.51447E+08-2.07807E+08 5.60943E+08 3.76725E+07-2.44443E+08
 -1       926-9.02714E+08 7.46165E+08-8.13024E+07 5.81981E+07 1.69115E+08-3.76240E+08
 -1       927-2.98634E+08 1.95830E+07-1.72237E+07-6.11272E+06 2.08456E+07 7.82732E+07
 -1       928 8.37858E+05-5.76928E+07-1.30348E+07 7.05468E+06-1.49598E+06-1.15556E+07
 -1       929 1.12052E+07-2.31493E+07 1.60757E+07 1.52820E+07 6.18859E+06-2.60148E+07
 -1       930 1.65385E+07 2.16941E+07-1.56442E+06-2.11327E+07-6.25992E+06-1.03086E+07
 -1       931-1.31005E+07 1.22234E+07-3.99930E+06-4.01080E+06 2.11661E+05-2.53812E+07
 -1       932 2.26305E+07 3.68078E+07 9.58208E+06 1.83464E+07-4.42518E+06-3.61265E+07
 -1       933 3.53096E+06-4.26128E+07 2.27498E+06-1.59941E+07 8.53476E+06-2.83074E+07
 -1       934-6.84057E+06-8.86085E+07-2.90086E+07 1.00696E+06-8.36609E+06-4.86044E+07
 -1       935-2.15924E+08 8.59222E+07 1.50935E+07-4.30708E+07 4.27266E+07-1.50710E+08
 -1       936-6.82630E+08 1.03851E+09 1.03028E+08 1.50078E+08 4.54893E+08 1.34270E+08
 -1       937-8.75825E+08 5.65862E+08-2.22658E+08 6.49346E+07 1.98682E+08-7.95681E+07
 -1       938 6.77007E+08-2.18884E+08-1.11875E+08-1.98043E+08-1.54453E+08 3.38823E+08
 -1       939 1.87409E+09 2.99717E+08 1.95918E+08 2.28842E+08-1.61759E+08-8.47615E+07
 -1       940 1.09065E+09 3.25241E+08-1.88898E+08 6.07851E+08 1.49674E+08-6.52446E+07
 -1       941 5.70596E+08 2.48452E+08 6.03750E+07 2.35181E+08-1.66017E+06-2.77301E+07
 -1       942-8.29118E+07 9.25647E+07 2.50133E+08-1.02456E+08-5.37759E+06-2.08054E+08
 -1       943-1.21029E+09-4.11252E+08-3.30317E+08-7.88690E+07 4.26506E+07 6.27069E+07
 -1       944-1.66906E+09-6.49080E+08-6.49080E+08-1.61530E+07 1.32129E+02-2.90106E+08
 -1       945-1.85802E+09-7.22565E+08-7.22564E+08-5.15294E+06-8.81556E+02 3.73799E+08
 -1       946-1.68001E+08 2.48378E+08 2.47402E+08-2.04384E+08-8.73203E+06 1.97125E+08
 -1       947 9.60481E+08 5.18551E+08-1.65060E+08-6.74083E+08 4.00352E+07 8.21725E+07
 -1       948 9.53427E+08-6.32534E+07-2.39615E+07-7.30356E+08 2.43150E+08-2.88159E+08
 -1       949-7.54082E+07 2.11706E+08-2.41281E+07-3.36815E+07-1.36281E+08-3.51164E+07
 -1       950 6.67418E+07 4.05550E+07 2.47993E+07-3.10931E+07-1.55838E+07 2.78299E+07
 -1       951-3.98886E+06 5.04710E+06-6.40376E+05-6.34464E+06 4.83587E+05-2.56053E+06
 -1       952-3.29683E+05 8.24763E+06-1.70377E+06-5.21788E+06 2.39833E+06 3.29995E+05
 -1       953 7.13436E+07 5.12425E+07 3.55498E+07 2.12939E+07-1.96926E+07-2.55751E+07
 -1       954-1.45247E+07 3.28423E+08 7.95444E+06-1.37118E+07-7.52103E+07 1.79981E+07
 -1       955 1.79564E+08 3.08141E+08-1.83963E+08 4.57291E+08 1.09412E+08-1.92604E+07
 -1       956-3.39411E+08 1.17542E+08 2.18375E+08-1.72623E+08-6.82223E+05-1.61140E+08
 -1       957-1.39039E+09-5.40708E+08-5.40708E+08-2.00212E+07 2.98834E+02-2.44287E+08
 -1       958-2.01441E+09-7.83384E+08-7.83383E+08 2.13297E+07 3.38779E+02 1.89979E+08
 -1       959-1.43983E+09-4.02692E+08-3.87119E+08 6.31087E+05 8.97392E+07-8.62675E+07
 -1       960-3.06969E+08 3.84747E+08 2.79351E+08-6.09167E+07-5.30575E+06 3.14212E+08
 -1       961 2.11573E+08 6.93777E+08 7.70173E+07-3.95650E+08 2.20242E+07-1.40332E+07
 -1       962 7.10217E+08 8.15985E+08-1.83198E+08-7.49966E+08-4.53484E+07 2.83825E+07
 -1       963 1.17395E+09 5.22469E+08 2.10972E+07-7.81814E+08 2.48676E+07 3.47311E+08
 -1       964 6.36589E+08-1.63467E+07-1.23597E+08-8.46750E+08 1.05347E+08-5.18229E+07
 -1       965 8.60362E+07 1.04379E+07 3.57021E+07 5.86630E+05-4.85963E+07 6.90371E+06
 -1       966-4.46626E+07-6.61702E+07-2.76427E+07 1.92018E+07-2.83736E+07 1.88706E+07
 -1       967-4.22873E+07 2.54245E+07-1.99909E+06-1.36988E+07 9.54864E+06-1.83720E+07
 -1       968 1.78723E+07 2.01727E+07 7.49780E+06-1.78850E+07 4.48914E+06-5.63262E+06
 -1       969-3.84468E+03-1.19464E+06 3.14124E+05-5.41275E+06 5.26342E+05 5.19511E+06
 -1       970-1.06374E+07-8.68042E+06-5.34224E+06-8.60258E+06-4.79511E+05 1.41829E+06
 -1       971 9.32454E+05-2.10630E+06 5.12255E+05-1.18372E+07 1.04960E+06-1.73188E+05
 -1       972 1.86437E+07 2.58056E+07 6.10315E+06 5.76404E+05 9.25058E+06 8.85827E+06
 -1       973-2.54959E+07 4.76404E+07-2.65568E+06-1.47905E+07 2.32573E+07 1.25587E+07
 -1       974-4.06614E+07-6.72808E+07-2.11107E+07-3.19333E+07-2.81256E+07-1.48890E+07
 -1       975 6.35121E+07 6.07423E+06 2.37748E+07 8.57902E+06 1.61080E+07-6.56174E+05
 -1       976-2.22386E+08 1.50272E+08-7.58856E+07 3.13029E+08 4.65371E+07-2.07820E+08
 -1       977-3.30453E+08 1.15339E+08 6.87055E+07 6.84467E+07-7.74612E+07-4.45579E+07
 -1       978-6.01736E+08 3.77917E+07 1.55663E+08-2.94086E+08-2.12107E+07-9.33372E+07
 -1       979-8.89553E+08-2.41051E+08-1.59786E+08-2.05530E+08 3.33577E+06 1.18502E+07
 -1       980-1.06256E+09-4.13219E+08-4.13219E+08-3.36436E+07-2.73574E+00-5.59764E+07
 -1       981-1.58121E+09-6.14918E+08-6.14917E+08 2.31823E+07 4.10126E+02 3.06399E+08
 -1       982-6.70267E+08 5.57646E+08 2.43145E+08 2.34725E+08 2.14418E+07 1.05814E+08
 -1       983 6.04505E+07 9.49118E+08-7.25372E+07-4.75117E+08 2.27153E+08 1.93760E+08
 -1       984 3.58517E+07-2.26899E+06 1.52576E+06-1.74541E+07-3.14231E+07-5.96830E+06
 -1       985-1.99448E+07-1.64092E+07-5.04881E+06 1.15584E+06 4.94344E+06-6.11233E+06
 -1       986-2.33045E+06 1.48491E+06 1.71019E+05-8.68582E+06-1.01969E+06 4.00124E+06
 -1       987 2.39553E+05 4.91759E+06 3.55610E+05-5.85892E+06-4.97353E+05 2.59920E+06
 -1       988-1.83600E+07-1.47407E+07-8.65935E+06-1.80610E+07 6.99070E+06 7.01145E+06
 -1       989 1.98452E+07-6.96729E+06-1.46372E+07 1.79684E+07 2.32586E+07 4.45076E+06
 -1       990-4.05017E+08-9.72883E+07 9.42044E+07-4.13014E+08-1.26372E+08-9.84932E+07
 -1       991-6.58239E+08-2.55982E+08-2.55982E+08-3.22562E+07 4.23854E+02-4.74971E+07
 -1       992-8.90830E+08-3.46433E+08-3.46433E+08 5.90901E+07 8.44307E+01-2.24907E+08
 -1       993-9.44619E+08-2.58868E+07-1.25850E+08 5.29816E+08-7.01863E+07 2.60303E+07
 -1       994-1.03271E+09 4.93133E+08 1.40701E+08 7.40330E+08-6.11385E+07 1.23441E+08
 -1       995-9.24282E+08 3.85299E+08-5.49717E+07-8.00733E+07-1.84613E+08 3.53623E+07
 -1       996-5.34638E+08 4.27200E+08-1.29981E+08-3.60608E+08-1.17556E+08 2.27830E+08
 -1       997-4.69680E+07-3.40847E+07-1.30690E+07 1.20080E+07-4.43217E+07 7.05091E+06
 -1       998-7.40361E+06-1.65222E+05-1.12712E+06-4.35584E+06-9.51524E+06-2.42192E+06
 -1       999 7.98415E+06-3.78719E+06 3.95358E+06-1.09627E+07-7.05680E+06 1.09138E+06
 -1      1000-5.01269E+06-2.82438E+06 2.22101E+05-7.01524E+06-4.18019E+06 3.26446E+06
 -1      1001-3.26571E+06 3.49502E+05-6.98993E+05-6.35334E+06-2.17777E+06 2.64909E+06
 -1      1002-1.50227E+05 3.27813E+06 5.86322E+05-6.15006E+06-1.58196E+06 3.16789E+06
 -1      1003-1.15343E+06 3.55435E+06-6.53302E+04-5.89093E+06-1.36586E+06 4.19438E+06
 -1      1004-1.84619E+06 4.06678E+06-1.53233E+05-6.52405E+06-2.68640E+06 2.21569E+06
 -1      1005 6.97624E+06 4.97731E+06 2.07151E+06-2.47457E+06-4.69286E+06 2.16704E+06
 -1      1006-3.82413E+06 1.21523E+07 2.76812E+05-5.21082E+06 1.27833E+06 2.20208E+06
 -1      1007-3.27116E+07-1.79826E+07-1.96515E+06-1.90287E+07 9.87960E+05-9.89191E+06
 -1      1008-1.44789E+08-1.55050E+08 7.21780E+07-3.57844E+08-6.18441E+07-2.82331E+07
 -1      1009-2.15177E+08-1.16316E+08-1.47517E+07-1.87524E+08-7.28010E+06 1.08161E+07
 -1      1010-3.00902E+08-1.17017E+08-1.17018E+08-1.21999E+07 7.68888E+00-7.89681E+07
 -1      1011 1.25483E+08 4.87991E+07 4.87991E+07 1.12703E+08 1.73673E+03-1.33057E+07
 -1      1012 6.76613E+07 4.19996E+06-1.42068E+07 1.27498E+09-5.06425E+08-1.90355E+07
 -1      1013-2.50571E+06-1.06964E+07-1.97419E+06 7.81008E+05-3.42240E+07-2.41847E+06
 -1      1014-3.31832E+06-7.14428E+06-2.20775E+06-1.16974E+07-5.67424E+06 8.11608E+05
 -1      1015-1.76925E+06-1.10539E+06 2.40506E+05-4.92060E+06-9.59124E+05 3.32467E+06
 -1      1016-1.14109E+06 1.83059E+06-3.45273E+05-5.07510E+06-1.06334E+06 4.10621E+06
 -1      1017 5.12824E+06 1.02886E+07 3.35000E+06-1.73986E+06-2.29187E+06 1.77971E+06
 -1      1018-2.58898E+06 1.38961E+07 2.99054E+06-2.99173E+06 5.83416E+06-1.90083E+06
 -1      1019-1.56952E+07-1.72674E+08 3.76564E+06-2.35364E+08-4.55817E+07-3.48999E+07
 -1      1020-3.56667E+07-1.38700E+07-1.38704E+07-1.25055E+07 6.96891E+01 1.19294E+07
 -1      1021 1.14208E+09 4.44141E+08 4.44141E+08 6.15837E+07 1.02027E+02 2.02442E+08
 -1      1022 1.13822E+09 7.94511E+07 1.60729E+08 5.22335E+08-7.31248E+07-2.23714E+07
 -1      1023 1.12939E+09-5.22463E+08-1.90501E+08 7.15733E+08-6.06568E+07-1.60805E+08
 -1      1024 9.49358E+08-4.37574E+08 4.13006E+07-1.15507E+08-2.05838E+08-3.60458E+07
 -1      1025 5.43756E+08-4.83901E+08 1.73202E+08-3.85095E+08-1.33346E+08-2.52354E+08
 -1      1026 4.72479E+07 2.94131E+07 1.15848E+07 1.83176E+07-3.75778E+07-1.27201E+07
 -1      1027 4.47817E+06-1.37512E+07 1.86225E+06-1.57131E+06-5.86393E+06 2.64086E+06
 -1      1028-1.20752E+07-4.74138E+06-4.91384E+06-9.29714E+06-8.35255E+06 5.32236E+05
 -1      1029 4.39451E+05-3.50710E+06-5.54012E+05-3.49038E+06-3.99538E+06 1.68453E+06
 -1      1030-7.15450E+05-3.11517E+06 6.55536E+05-4.22466E+06-2.11008E+06 3.90698E+06
 -1      1031-2.44104E+06-2.06336E+06-4.22744E+05-3.93840E+06-2.11179E+06 3.85828E+06
 -1      1032-2.59811E+05 1.32848E+06 2.07163E+05-3.66450E+06-2.29908E+06 3.59925E+06
 -1      1033 1.39489E+06 3.60678E+06 1.54012E+05-2.73209E+06-2.82107E+06 3.44386E+06
 -1      1034-3.04004E+06 4.51816E+06-1.55199E+06-2.74605E+06-2.86641E+06 2.29818E+06
 -1      1035 1.30339E+06 3.49951E+06 2.13019E+05-2.47279E+06-3.26512E+06-8.82460E+04
 -1      1036 1.26348E+07 1.31037E+07 1.16917E+06-1.29431E+06 1.99696E+06 1.74512E+06
 -1      1037 6.52519E+07-4.45937E+07 2.72736E+07 5.74894E+07-9.35796E+06 2.68321E+07
 -1      1038 9.83543E+07-4.87693E+07 3.07097E+06 1.77211E+07-2.12794E+07 8.65960E+06
 -1      1039 1.02838E+08-1.07824E+08-4.45108E+07-7.85917E+07-1.92012E+07 3.64826E+07
 -1      1040 1.47325E+08 6.35169E+06 2.14719E+07-6.34987E+07 2.16673E+07-8.41766E+06
 -1      1041 1.75052E+08 6.80758E+07 6.80755E+07-1.16892E+07 1.70289E+02-3.57391E+07
 -1      1042 1.79692E+09 6.98804E+08 6.98803E+08 2.19533E+07 4.00998E+02-3.46222E+08
 -1      1043 7.37641E+08-5.96908E+08-2.79959E+08 1.79822E+08 1.98553E+07-1.22585E+08
 -1      1044-5.54737E+07-1.05114E+09 9.12990E+07-5.26593E+08 2.45077E+08-2.01213E+08
 -1      1045-2.34463E+07 7.07876E+06 8.98388E+06-2.58159E+07-8.33063E+06 2.95520E+06
 -1      1046 2.03857E+07 1.95458E+07 1.17386E+07 1.01254E+07 7.73469E+06 7.06710E+06
 -1      1047-3.55282E+06-5.73212E+06-9.39726E+05-3.49340E+06-1.56799E+06 2.14140E+06
 -1      1048 2.40790E+05 1.26718E+06 3.84122E+05-1.62578E+06-5.21304E+05 3.96767E+06
 -1      1049 2.40063E+06 3.96231E+06-4.12181E+05-4.24233E+06-2.76016E+04 8.12947E+05
 -1      1050-5.36775E+06 2.86083E+06 4.74937E+05 2.47417E+06 2.75623E+06-1.28702E+06
 -1      1051-2.10647E+07-1.08587E+08 1.51451E+07 7.16034E+07 2.90736E+07 2.03711E+07
 -1      1052 7.86067E+07-6.43688E+07-3.59008E+07-2.12931E+07 2.65263E+06 2.28205E+07
 -1      1053 2.41372E+08 9.38670E+07 9.38670E+07-4.79838E+06 5.94255E+01 3.84682E+07
 -1      1054 2.17160E+09 8.44511E+08 8.44510E+08 1.73734E+07 4.20128E+02-1.99333E+08
 -1      1055 1.55881E+09 4.33053E+08 4.18577E+08-4.59819E+07 8.44994E+07 9.17986E+07
 -1      1056 3.55409E+08-4.13368E+08-2.94517E+08-1.45468E+08-8.89443E+06-3.30198E+08
 -1      1057-1.93115E+08-7.70186E+08-8.59402E+07-4.82834E+08 2.80824E+07 1.00087E+07
 -1      1058-7.15603E+08-9.18797E+08 1.88225E+08-8.41069E+08-4.79167E+07-3.49006E+07
 -1      1059-1.20162E+09-5.83554E+08-4.55657E+06-8.48700E+08 1.74920E+07-3.60957E+08
 -1      1060-6.36588E+08 4.34838E+06 1.67700E+08-8.88890E+08 8.86883E+07 5.65314E+07
 -1      1061-8.07086E+07-7.44999E+06-5.01689E+07-1.60686E+07-1.48700E+07-3.48120E+06
 -1      1062 4.63386E+07 8.29292E+07 1.94428E+07 2.88572E+07-3.80803E+07-1.71078E+07
 -1      1063 2.88130E+07-5.90936E+07 6.07452E+06 6.29601E+06 2.59509E+07 1.48677E+07
 -1      1064-2.21934E+07-2.91277E+07-4.67630E+06-1.27553E+07 9.73808E+06 1.07414E+07
 -1      1065-4.32667E+06 5.64467E+06-7.27487E+05 2.44141E+06 4.95933E+04 6.59304E+04
 -1      1066 4.45962E+06 6.11763E+06 3.03464E+06 8.44152E+05-9.70790E+05 1.73131E+06
 -1      1067-1.34837E+06-3.20612E+06-5.83236E+05-2.06583E+06-1.54546E+05 4.04312E+06
 -1      1068-4.94123E+06-4.28483E+06-2.37610E+06-5.12850E+05-5.79833E+05 1.28312E+06
 -1      1069 8.43577E+06-1.51510E+06-1.09250E+05-1.62179E+05-8.22655E+05-1.56482E+06
 -1      1070 8.50027E+06 1.37462E+07 6.72051E+06-5.41641E+06-6.28459E+06 4.35832E+06
 -1      1071-1.58472E+07-5.04450E+05-8.40565E+05-2.15470E+06-4.68150E+06 3.98001E+05
 -1      1072-9.38052E+07 1.74904E+07 2.13366E+07 1.13503E+08 1.96752E+07-1.26560E+07
 -1      1073-1.77208E+08-5.31014E+07-2.43154E+06 9.92273E+07 9.83628E+06 4.59077E+07
 -1      1074-1.21481E+08-8.46751E+07 2.36821E+07 9.87074E+07-2.85909E+06 2.65429E+06
 -1      1075-4.96108E+07-7.78952E+07-1.33289E+07 5.47692E+07 2.94229E+06-2.79675E+06
 -1      1076 4.00028E+07-3.87752E+07-3.63163E+07 1.08859E+07 2.39353E+06 4.15534E+07
 -1      1077 2.02403E+08 5.95659E+07 5.50214E+07 2.17542E+06 1.00161E+07-8.74721E+06
 -1      1078 2.78345E+08 1.08246E+08 1.08245E+08-2.27595E+06 1.47360E+01 3.74656E+07
 -1      1079 1.90862E+09 7.42240E+08 7.42240E+08-1.10491E+07-1.05524E+03-3.86949E+08
 -1      1080 2.04170E+08-2.78451E+08-2.50248E+08-3.14260E+08-1.27118E+06-1.97368E+08
 -1      1081-9.37800E+08-5.63930E+08 1.74404E+08-7.66398E+08 4.65946E+07-9.00026E+07
 -1      1082-9.65337E+08 1.81778E+06 4.93844E+06-7.58761E+08 2.63224E+08 2.84368E+08
 -1      1083 1.95350E+07-3.93805E+08 1.94428E+07 1.87493E+07-1.27229E+08 2.82595E+07
 -1      1084-8.57602E+07-6.30282E+07-4.83080E+07-3.54888E+07-2.56968E+07-2.92900E+07
 -1      1085-4.34764E+05-9.09409E+06 3.77297E+06-1.71947E+06 3.33322E+06 2.97037E+06
 -1      1086-2.46759E+06-1.46978E+06-1.30411E+06-1.46095E+06-1.15691E+06 2.39735E+06
 -1      1087-1.09535E+07-5.54343E+06-1.95337E+06 3.22061E+06-2.71846E+06 7.39589E+06
 -1      1088 1.34758E+07-3.33229E+07-2.07118E+06 7.36227E+06-1.94741E+07-6.13562E+06
 -1      1089-1.44745E+08 3.23611E+07 1.27599E+06 9.90914E+07 3.09837E+07-4.44515E+07
 -1      1090-1.50522E+08-4.44698E+07 2.66856E+07 8.37814E+07 6.80341E+06 1.17924E+07
 -1      1091 1.84577E+07-2.25640E+07-3.51201E+07 2.15266E+07-2.34814E+06 3.02488E+07
 -1      1092 2.63272E+08 1.02384E+08 1.02384E+08 6.30108E+05-9.11972E+01 5.28565E+07
 -1      1093 1.52220E+09 5.91966E+08 5.91966E+08-2.97686E+07 8.95070E+02-2.51374E+08
 -1      1094 1.10767E+09 3.49526E+08 3.17711E+08-2.72422E+08 1.83470E+07 5.94668E+07
 -1      1095 8.37436E+07-1.68491E+08-2.04338E+08-4.81144E+08 3.22378E+07-2.77792E+08
 -1      1096-6.63707E+08-4.41193E+08-1.27716E+08-5.51961E+08 1.54906E+07 9.08314E+07
 -1      1097-1.00098E+09-4.39313E+08 1.40639E+08-6.65479E+08 1.97236E+08-5.33525E+07
 -1      1098-1.32016E+09-1.96036E+08-5.02142E+07-5.04617E+08-2.45325E+07-8.57114E+07
 -1      1099-1.08610E+09 4.44774E+08 2.51501E+07-5.31331E+07 7.48119E+07 2.90727E+08
 -1      1100 3.84520E+08-6.25156E+08 1.16959E+08 6.09644E+08 2.67096E+08 1.48855E+08
 -1      1101 6.66337E+08-1.31626E+09-7.79878E+07 2.00535E+08 4.80257E+08 2.54041E+08
 -1      1102 2.62361E+08-1.01864E+08 1.04982E+07 5.45041E+07 4.42523E+07-1.47280E+08
 -1      1103 7.34563E+06 1.06257E+08 1.30744E+07-8.05678E+06-7.56129E+06-2.91434E+07
 -1      1104-6.59074E+06 4.91250E+07-1.01177E+07 1.62288E+07 1.09432E+07-2.14541E+06
 -1      1105-3.11418E+07-4.92344E+07-4.42667E+06-2.27387E+07-7.78081E+06-1.12056E+07
 -1      1106 5.14531E+06-1.05193E+07 2.81202E+06 5.11954E+05 3.98826E+05-3.75032E+05
 -1      1107-6.03945E+05 4.67456E+06-8.12536E+05 4.82055E+06 3.45050E+05 9.10417E+06
 -1      1108-3.20512E+06 6.11379E+06-2.06196E+06-3.31764E+06 9.22100E+05 4.61218E+06
 -1      1109-1.23123E+06 7.45484E+06 7.24012E+06-3.50466E+06-1.60432E+06 6.17778E+06
 -1      1110 5.28123E+07-3.18124E+06-3.22531E+06 2.78295E+06 2.45706E+06 1.88166E+07
 -1      1111 1.85235E+08-8.37889E+07 1.00616E+07 2.70317E+07 3.14130E+07-6.26141E+07
 -1      1112 1.52116E+08-1.86318E+07 3.48992E+07-4.82033E+07 3.09888E+07-2.31554E+07
 -1      1113-1.60849E+08 7.08815E+07-2.40892E+06-6.35457E+06 3.14803E+06-4.42469E+07
 -1      1114-2.18343E+08-1.56993E+07-1.35606E+07 5.21391E+07-2.93224E+06 9.82040E+06
 -1      1115-1.64823E+08-3.75195E+07 2.45049E+07 6.85526E+07 2.09451E+07 8.93888E+06
 -1      1116-1.17353E+08-4.24161E+07-1.97952E+07 4.71293E+07-1.35033E+05-9.55402E+06
 -1      1117 2.79606E+06-9.43777E+06-3.31403E+07 3.19701E+07 3.57048E+06 4.20275E+07
 -1      1118 1.73993E+08 6.20610E+07 5.04548E+07 1.77220E+07 3.21838E+06-8.65666E+06
 -1      1119 2.39507E+08 9.31418E+07 9.31418E+07 2.02108E+06 7.99633E+01 4.43778E+07
 -1      1120 9.50578E+08 3.69670E+08 3.69670E+08-4.21916E+07-1.09307E+03-1.17936E+08
 -1      1121-2.09864E+07-1.07929E+08-1.20162E+08-4.79992E+08 3.53008E+06-1.82107E+08
 -1      1122-7.72796E+08-1.25653E+08 1.21990E+08-5.12728E+08-9.33666E+07-9.65915E+07
 -1      1123-4.87883E+08 3.07882E+08 7.75129E+06 6.01468E+07 2.63658E+08 1.76907E+08
 -1      1124 2.09186E+08-9.17641E+08-2.44442E+08-2.98113E+08 1.44978E+08 2.32893E+08
 -1      1125 9.92795E+07-5.09044E+07-1.30179E+07 7.87997E+07 1.88910E+07-3.00728E+07
 -1      1126-8.44116E+07 3.61632E+07-5.23357E+05-1.94896E+07 3.06616E+07-4.19147E+07
 -1      1127-1.51560E+08-1.78630E+06 2.56095E+07 5.73816E+07-1.03560E+07 1.39792E+07
 -1      1128-7.25997E+06-6.27012E+06-2.49942E+07 2.44554E+07 2.18802E+06 3.91769E+07
 -1      1129 2.05201E+08 7.98005E+07 7.98005E+07 2.78236E+06-9.38134E+01 3.30011E+07
 -1      1130 4.09827E+08 1.59377E+08 1.59378E+08-5.75097E+07 8.87862E+02 1.04099E+08
 -1      1131 3.97539E+08 1.10631E+08 1.48526E+08-2.93408E+08-3.12786E+07 8.27779E+07
 -1      1132-9.50396E+07-1.23478E+08-4.87091E+07-4.50131E+08 9.02219E+06-1.47557E+07
 -1      1133-6.27524E+08-1.33562E+08-1.05271E+08-4.19574E+08 6.74488E+07 1.26510E+08
 -1      1134-6.22752E+08 5.75279E+07 4.49284E+07-4.08395E+08 4.44296E+07 7.54014E+07
 -1      1135-4.52260E+08 1.45439E+08-2.85236E+07-1.89212E+08-2.42181E+06-7.88157E+07
 -1      1136-5.72393E+07 3.40538E+08-9.09422E+06 4.45214E+07-3.20728E+07-4.35706E+07
 -1      1137-2.06265E+08 8.28205E+08 1.88358E+06-4.36038E+07 3.16460E+08 2.41775E+08
 -1      1138-5.11015E+08 1.40684E+09-5.27084E+06 9.20429E+07 3.22670E+08 4.94530E+07
 -1      1139-2.19053E+08 1.13133E+09-3.77090E+07 8.40624E+08 3.58759E+08 2.20765E+08
 -1      1140 9.75512E+06 7.81638E+08-1.08600E+08 7.97123E+08 3.44083E+07 1.91443E+08
 -1      1141 8.74062E+06 8.41649E+07-1.13650E+07-8.14631E+07 1.05481E+06-1.69371E+07
 -1      1142-1.61534E+07 1.07619E+08-5.77437E+06-8.65695E+07 3.56029E+07-2.44427E+07
 -1      1143-6.44547E+07 1.32111E+08-6.44681E+06-5.63037E+06 3.42960E+07-1.11823E+07
 -1      1144-2.79566E+07 6.39720E+07-1.01584E+06 3.60088E+06 2.14774E+07-3.65659E+07
 -1      1145-2.52577E+07 1.45896E+07 2.03241E+05-5.86735E+06-5.21793E+06 7.25114E+06
 -1      1146-1.10996E+08-3.92845E+06-2.61756E+06 3.08888E+07-4.73350E+06 8.41509E+06
 -1      1147-1.50363E+08 6.38896E+06 1.56195E+07 5.93113E+07 5.95035E+05-6.49499E+06
 -1      1148-1.59059E+08-2.44771E+07-2.89895E+07 2.47442E+07 8.35340E+06-9.96430E+06
 -1      1149-1.59028E+07-1.25347E+07-1.90935E+07 1.44737E+07-1.57307E+06 3.07613E+07
 -1      1150 1.38550E+08 4.81534E+07 4.67115E+07 1.30110E+07-9.50918E+06-9.35139E+06
 -1      1151 1.78089E+08 6.92569E+07 6.92570E+07 4.61724E+06 7.01278E+01 2.35173E+07
 -1      1152-2.02003E+08-5.20761E+07 2.60954E+07-1.30997E+08 1.12284E+08 3.24049E+07
 -1      1153 1.04191E+08 1.02054E+09 6.83668E+06 3.44854E+08-6.17133E+07-3.33891E+07
 -1      1154 1.58107E+08 1.81432E+09 1.19392E+08 4.93985E+08-5.07597E+07-6.04399E+07
 -1      1155 2.41139E+08 1.30528E+09 4.45881E+07 6.63024E+08-3.03395E+08 5.80199E+07
 -1      1156 3.50410E+07 1.38055E+08 5.43909E+06-7.79859E+07-3.41984E+07-4.21190E+06
 -1      1157 1.31329E+07 1.62005E+08 9.58528E+06-6.05022E+07-6.93249E+06 1.06405E+07
 -1      1158-9.04183E+06 6.13510E+07 1.94787E+06-3.17105E+07-9.82052E+06 1.73452E+06
 -1      1159-5.87091E+07-1.86217E+07 4.70941E+06 5.48358E+07-4.93785E+05 9.95281E+04
 -1      1160 1.85742E+08-1.13404E+08 1.15379E+07 2.63830E+08-8.39687E+07-1.42267E+08
 -1      1161 2.21956E+08 5.67483E+08-4.71959E+07 5.37343E+08-2.26614E+07-4.11407E+07
 -1      1162 1.47335E+07 1.36768E+09-1.40684E+08 5.59899E+08 1.05424E+07-4.32502E+06
 -1      1163 3.99497E+07 1.26588E+09-2.03085E+08 5.14492E+08-1.05493E+08-8.21071E+07
 -1      1164 2.53246E+08 1.21431E+09-1.98758E+08 5.60154E+08-5.07423E+07 7.14406E+07
 -1      1165 9.93774E+07 1.16802E+09-1.73281E+08 6.18751E+08-1.64630E+08 1.29064E+08
 -1      1166-4.64035E+07 1.20328E+09-1.22704E+08 7.08543E+08-1.75608E+08-8.96249E+07
 -1      1167 1.07856E+06 1.17068E+08-1.55960E+07-9.41438E+07-2.37088E+07 1.30469E+07
 -1      1168 1.65255E+07 1.04578E+08-1.71875E+07-8.39446E+07-1.90024E+07-1.58727E+07
 -1      1169 3.64993E+07 1.01434E+08-1.48947E+07-7.72261E+07-3.01334E+06-1.13986E+07
 -1      1170 9.92084E+06 8.85087E+07-1.34916E+07-6.35535E+07-1.19688E+07 1.13399E+07
 -1      1171-5.90323E+06 8.39564E+07-6.73291E+06-5.43338E+07 5.96849E+06-3.32139E+06
 -1      1172 1.61954E+07 3.34748E+07-1.99029E+06-2.47976E+07 3.03385E+06-1.13698E+07
 -1      1173 2.11677E+07-1.78944E+07-2.29154E+06 2.13766E+07-2.00754E+07 1.09469E+07
 -1      1174 2.45088E+08 1.39002E+09 2.66112E+08 1.62027E+08 1.09360E+08 6.89993E+07
 -1      1175 2.44448E+08 8.23059E+08 1.01369E+08 3.59622E+08-2.98915E+07 1.89068E+07
 -1      1176 1.22094E+08 2.08743E+08 8.53418E+07 6.21365E+08-7.16863E+07-7.46071E+07
 -1      1177 2.08912E+07 3.69399E+06 9.59596E+06-8.81080E+07-1.23269E+07 7.24189E+06
 -1      1178 3.12128E+07 5.87670E+07 6.97757E+06-6.31377E+07-2.20528E+06-3.69418E+06
 -1      1179 1.34144E+07 7.64596E+07 1.35716E+07-4.26640E+07 1.71601E+07-7.58395E+06
 -1      1180 1.07330E+08 6.38149E+07 1.92245E+08 4.63623E+07-3.26963E+08-3.48118E+06
 -1      1181 5.10779E+07 4.57284E+07 2.06573E+08 1.21477E+08-3.18183E+08 2.00622E+07
 -1      1182 1.29952E+08 4.72694E+07 2.64232E+08 1.90981E+08-3.15050E+08 1.28906E+06
 -1      1183 3.53623E+08-2.62646E+08 3.48800E+08 1.61641E+08-2.58682E+08 1.72815E+06
 -1      1184 3.38888E+08-8.45164E+08 2.90285E+08-6.27518E+07-3.93414E+08-6.28727E+07
 -1      1185 4.44879E+07-7.09842E+08 2.26400E+08-5.46726E+08-1.92387E+08-2.21309E+08
 -1      1186-2.91432E+08-3.74156E+08 2.06990E+08-5.36377E+08-1.09494E+08-8.01318E+07
 -1      1187-3.75376E+08-2.62922E+08 8.02584E+07-2.89749E+08-1.37976E+08-4.29436E+07
 -1      1188-2.50189E+08-1.82100E+08 3.56759E+06-6.81444E+07 2.17625E+07-4.31141E+07
 -1      1189-8.40045E+07-1.27358E+08 3.01732E+07 7.41800E+05-3.14171E+07 2.37567E+07
 -1      1190 2.28937E+07-1.08906E+08 3.00177E+07-1.14091E+07-4.50765E+07 5.51014E+06
 -1      1191 4.78712E+07-3.74059E+07 3.85221E+07-4.25253E+07-2.46525E+07-2.00724E+06
 -1      1192 2.06370E+07-2.99187E+06 2.20232E+07-5.16128E+07-2.89645E+07-5.18972E+05
 -1      1193 1.02800E+07-1.76103E+05 1.40711E+07-4.89085E+07-2.02660E+07-1.14026E+06
 -1      1194 1.40222E+07 1.56140E+06 9.76489E+06-4.44323E+07-8.42029E+06-6.41597E+05
 -1      1195-4.11929E+08-1.25412E+09-3.94333E+08 8.37810E+07 5.61474E+07-9.46733E+07
 -1      1196-5.20338E+08-1.45559E+09-4.45954E+08 9.83802E+07 9.96530E+07 5.66993E+07
 -1      1197-3.26957E+08-1.53750E+09-3.06026E+08-1.71479E+08 5.50513E+07-4.85935E+06
 -1      1198-3.06195E+08-6.16628E+08-6.17131E+07-2.81707E+08 4.18416E+07-5.51240E+07
 -1      1199-1.16384E+08-1.80634E+08-2.08610E+07-4.64929E+07-5.48292E+06 5.21436E+07
 -1      1200-4.51769E+07-1.81399E+08-3.63907E+07 9.20586E+06 9.08158E+06 1.42612E+07
 -1      1201-4.40675E+07-1.32453E+08-4.08846E+07-2.87601E+07 1.04847E+07-4.61761E+06
 -1      1202-1.37313E+07-5.60897E+07-1.68492E+07-3.22856E+07 7.02932E+06 5.90970E+06
 -1      1203-6.26785E+08-1.61173E+09-6.26786E+08 4.42641E+07-2.32682E+08 3.14764E+02
 -1      1204-7.07562E+08-1.81945E+09-7.07562E+08 1.78343E+07-3.03030E+08-5.58619E+02
 -1      1205-8.04551E+08-2.06884E+09-8.04551E+08 2.18593E+06-3.76037E+08 5.49698E+02
 -1      1206-7.82108E+08-2.01113E+09-7.82108E+08-6.29068E+06-3.93361E+08-4.53846E+02
 -1      1207-7.29764E+08-1.87654E+09-7.29765E+08-4.78273E+07-9.22994E+07 7.84853E+02
 -1      1208-5.25200E+08-1.35051E+09-5.25200E+08-6.34217E+07-1.79264E+08 6.81110E+02
 -1      1209-3.36436E+08-8.65120E+08-3.36436E+08-1.93757E+07-1.76160E+08-7.51846E+01
 -1      1210-1.85216E+08-4.76271E+08-1.85217E+08-1.10034E+07 1.63188E+06 4.64172E+01
 -1      1211-8.51949E+07-2.19073E+08-8.51956E+07-1.03474E+07-9.87570E+07 2.47622E+02
 -1      1212-7.76197E+07-1.99594E+08-7.76199E+07 2.59703E+06-2.32882E+07-9.27223E+01
 -1      1213-8.61289E+07-2.21475E+08-8.61291E+07 4.04163E+06-1.24166E+07-6.78231E+01
 -1      1214-8.21511E+07-2.11245E+08-8.21511E+07-1.12115E+06-4.45476E+07 7.69843E+01
 -1      1215-7.34323E+07-1.88826E+08-7.34323E+07-2.59832E+06-2.97641E+07-8.62483E+01
 -1      1216-4.73843E+07-1.21845E+08-4.73843E+07-4.39966E+06-1.51706E+07 1.07796E+02
 -1      1217-2.25320E+07-5.79393E+07-2.25320E+07-7.07243E+06 8.93449E+06-8.42662E+01
 -1      1218-3.98257E+08 2.29431E+08-9.73968E+07-3.40470E+07 2.41095E+08-4.14298E+08
 -1      1219-5.39272E+07-5.76087E+07-6.03105E+07-6.64685E+06 9.46940E+06 9.01064E+06
 -1      1220-5.27477E+06 3.38669E+06-2.03737E+07-1.34918E+07 1.37104E+07-3.26580E+07
 -1      1221 5.04918E+06 1.48781E+07-5.76252E+06 4.95717E+06 2.20774E+07-1.03455E+07
 -1      1222-3.93295E+07-7.08158E+07-6.41611E+07-9.08512E+05 1.27674E+07-6.06230E+07
 -1      1223-2.09370E+08 4.56912E+08 1.46563E+08-4.88993E+07 4.75891E+08 2.23201E+08
 -1      1224 6.48080E+07 3.84481E+07 5.68261E+07-8.91506E+05-5.79739E+07-9.55025E+06
 -1      1225-2.73628E+07 2.00930E+07 7.73824E+06-2.16532E+07-2.13512E+07 2.48667E+07
 -1      1226-2.28336E+06 1.55522E+06 6.40768E+05-1.42089E+07 1.46475E+06-3.57051E+06
 -1      1227 2.74967E+06 5.06007E+06 4.95860E+06-1.86283E+07 4.30296E+06 6.37467E+06
 -1      1228-1.95577E+07 3.38755E+07-1.33087E+07-2.26466E+07-2.41909E+07-2.01938E+07
 -1      1229 6.05497E+07 6.59635E+07 6.40804E+07-6.83562E+06-5.68776E+06 8.61129E+06
 -1      1230-1.64987E+07-1.27357E+07 1.34099E+07 1.92578E+06-2.61613E+07-2.28402E+07
 -1      1231 4.10924E+05-7.02118E+06 1.71490E+05-1.82763E+07-3.95339E+06-4.73780E+06
 -1      1232-5.63394E+06 5.73202E+05-6.64273E+05-1.25721E+07-2.04091E+06 3.47692E+06
 -1      1233-1.70053E+06 7.21054E+06-4.13448E+04-1.13574E+07-1.53260E+06 2.43108E+06
 -1      1234 4.18453E+06 1.11128E+07 6.24624E+05-8.82525E+06 2.97250E+06 5.33497E+06
 -1      1235-6.98164E+06 1.50747E+07 2.45116E+07-1.09031E+07 2.31129E+07 1.43171E+07
 -1      1236 1.13130E+07-1.33210E+07-2.86788E+07 5.57730E+06-7.71667E+06 1.76038E+07
 -1      1237-8.23872E+06-1.00567E+07-7.38264E+05-1.28091E+07 2.01274E+05 5.68850E+06
 -1      1238-2.84252E+06-6.48521E+06-7.94164E+04-7.85996E+06-2.34231E+06 1.73098E+06
 -1      1239-5.07878E+05 2.43340E+06 6.24558E+05-6.70199E+06-1.58746E+06 3.80556E+06
 -1      1240-1.11940E+06 7.92996E+06-1.82145E+06-5.21069E+06-3.70163E+06-2.34517E+05
 -1      1241 4.54561E+06 1.21030E+07-4.45229E+06-1.84895E+06 6.48247E+05-5.84620E+06
 -1      1242-7.01402E+07-7.08293E+07-7.71250E+07-1.27240E+06-3.65015E+07 7.42747E+06
 -1      1243 1.88425E+07-4.32827E+07 1.17674E+07 3.96287E+06-3.33193E+07-2.23676E+07
 -1      1244-7.87494E+06-2.58077E+06-3.67638E+06 4.77010E+05 5.61591E+06 6.28321E+06
 -1      1245-2.05514E+06-2.55328E+06-7.65124E+05-3.15177E+06-2.28549E+06 8.22388E+05
 -1      1246 5.90299E+06 5.45946E+05-6.94349E+05-1.82462E+06-4.32271E+06 6.80761E+06
 -1      1247-1.21525E+07-3.46127E+06-8.07133E+06-1.90654E+06-6.08335E+06-1.49005E+06
 -1      1248 2.61573E+08-5.43768E+08-1.14815E+08 6.71457E+07 5.57178E+08 2.86274E+08
 -1      1249 5.22393E+07 8.87843E+07 7.47174E+07-8.54625E+06 1.55611E+07-4.58112E+07
 -1      1250-1.19679E+07-2.02703E+07 1.11664E+07-1.11569E+07 2.83279E+07 1.14855E+07
 -1      1251 3.82035E+05 3.82407E+06 2.90606E+06 1.75194E+06 1.03519E+05 7.22273E+05
 -1      1252 7.85286E+06 7.70823E+06 1.11504E+07-1.10170E+06 1.83210E+06 9.60668E+06
 -1      1253 7.37790E+07-3.37540E+07 1.45679E+07 9.88031E+06 3.46885E+07-7.56375E+07
 -1      1254-2.01498E+08 1.35803E+08-4.98582E+07-1.45277E+07 1.47611E+08-2.55908E+08
 -1      1255-1.61947E+08 5.97735E+06 4.48360E+07-2.25819E+07 1.27576E+07-1.59720E+07
 -1      1256-8.36168E+07-3.17943E+07-3.72882E+07-1.89684E+07 7.09180E+06 8.07047E+06
 -1      1257 3.87529E+05 9.65466E+06 1.68617E+07-1.38979E+06-1.02713E+07-4.97871E+06
 -1      1258-1.55442E+07-4.40230E+06-1.31024E+07-6.42635E+06 9.17882E+06-2.24853E+07
 -1      1259-8.34283E+06-1.86016E+06-5.33838E+06-7.79439E+06 5.53797E+06-1.78190E+07
 -1      1260-5.28616E+06-1.44692E+05-5.17118E+06-8.29189E+06 1.31124E+07-1.04836E+07
 -1      1261 7.86635E+06 2.80953E+06 8.95411E+06-1.44314E+07-1.18563E+07-3.16619E+07
 -1      1262-4.97054E+07-3.24577E+07-3.94586E+07-5.10318E+06 1.11633E+07-5.06980E+07
 -1      1263-1.24082E+08 2.00231E+07 4.97073E+07-1.19400E+07 2.89397E+07-4.41351E+07
 -1      1264-1.29988E+08 2.27249E+08 7.63491E+07-2.16575E+07 2.94386E+08 1.36023E+08
 -1      1265-1.68553E+07 1.23748E+08-4.70884E+07-7.37294E+06-3.60931E+07-2.25069E+07
 -1      1266-1.48006E+07 3.44521E+05-1.37648E+07-3.04488E+07 2.19098E+07-1.64662E+07
 -1      1267-1.14979E+07 9.52699E+05-5.08873E+05-1.53138E+07 9.52419E+05 4.13896E+06
 -1      1268-4.64566E+06 3.29941E+06-3.02765E+06-1.93597E+07 9.43966E+05-4.25895E+06
 -1      1269 1.46749E+07 1.54565E+07 4.36210E+05-1.54681E+07 2.89085E+07 1.16617E+07
 -1      1270-3.44867E+06 1.83469E+08-4.73986E+07-2.82966E+07 2.40887E+07 9.39614E+06
 -1      1271 2.92493E+07 5.13104E+07 3.48776E+07-4.44827E+06-4.87773E+07-8.13429E+06
 -1      1272-9.40901E+06-7.57875E+06 3.13374E+06-1.43909E+07 8.70550E+06-2.61638E+07
 -1      1273-1.67427E+07 9.93987E+06 5.15570E+06-2.96830E+07-9.81430E+06 1.15409E+07
 -1      1274-1.07120E+07 6.53603E+06-1.31290E+06-2.67587E+07-1.99910E+06 5.01366E+06
 -1      1275-5.44844E+06 3.71239E+06-2.71023E+05-2.30451E+07 5.88307E+05-7.27143E+05
 -1      1276-5.08671E+06 4.69657E+06-5.90860E+04-2.40675E+07 2.66296E+06 7.60868E+05
 -1      1277 1.70534E+06 9.65764E+06 2.52039E+06-2.56785E+07 3.11706E+06 3.50960E+06
 -1      1278-1.10533E+06 1.75185E+07-3.88734E+06-2.46188E+07-3.74205E+05-1.80776E+06
 -1      1279-7.60936E+06 2.54945E+07-8.41753E+06-3.05165E+07-1.07749E+07-8.04735E+06
 -1      1280 3.02852E+06 2.97908E+07 1.75850E+07-3.22724E+07 1.97592E+07 2.34042E+07
 -1      1281 3.41664E+07 1.03567E+08 3.95803E+07-2.08272E+07-5.11819E+06 5.99227E+06
 -1      1282-3.23298E+06-1.05494E+07-7.14470E+06-1.44118E+07-3.41592E+07 1.00094E+07
 -1      1283-1.16491E+07-9.60020E+05 3.64586E+06-2.46521E+07-4.72418E+06 1.71287E+06
 -1      1284-6.55602E+06 3.12633E+06 4.17461E+04-2.09100E+07-4.10123E+05 1.88853E+06
 -1      1285-8.40827E+05 1.07001E+07 2.58228E+05-1.94325E+07 9.24040E+04 3.01008E+06
 -1      1286-2.60834E+06 2.19922E+07 9.59176E+05-2.33731E+07-5.01678E+06-1.15347E+05
 -1      1287-1.12075E+07 1.37342E+07-1.80185E+07 2.93112E+05 1.20475E+06-1.07082E+07
 -1      1288 2.56719E+06-3.52730E+06 1.24462E+07-8.18287E+06-2.24871E+07-1.50396E+07
 -1      1289-3.62634E+06-6.12043E+06-6.28635E+05-1.92659E+07-8.35613E+06 1.30217E+06
 -1      1290-5.67233E+06-8.34640E+06 2.09740E+05-2.58574E+07-3.41057E+06-2.25621E+06
 -1      1291-7.37005E+06-3.97605E+06 6.01592E+05-2.00509E+07-2.27336E+06 8.17157E+05
 -1      1292-7.85529E+06 9.09890E+05-2.99461E+05-1.87668E+07-1.77720E+06 2.36650E+06
 -1      1293-3.81061E+06 6.16250E+06 1.36588E+05-1.76356E+07-1.76036E+06 2.10859E+06
 -1      1294-2.11243E+06 1.09598E+07 2.21272E+05-1.68043E+07-1.15425E+06 2.25203E+06
 -1      1295-5.02916E+04 1.41680E+07 4.45604E+05-1.60286E+07-1.10781E+06 2.23200E+06
 -1      1296 2.37974E+06 1.85107E+07 1.12718E+06-1.51837E+07 8.72524E+05 2.84379E+06
 -1      1297 1.85348E+06 2.94561E+07-1.52063E+05-9.20464E+06-4.31499E+06 4.15179E+05
 -1      1298 5.27306E+06 3.36601E+07 1.71754E+07-3.17454E+06 1.44695E+07 9.75681E+06
 -1      1299-7.66874E+05-1.76799E+07-2.87626E+06-6.47935E+06-1.68488E+07-1.34000E+06
 -1      1300-6.43367E+06-1.38659E+07-1.04669E+06-2.13726E+07 1.43988E+05 3.49854E+04
 -1      1301-5.98803E+06-3.86470E+06-1.24557E+05-1.51380E+07-8.58636E+05 2.24029E+06
 -1      1302-1.87579E+06 6.43660E+06 1.41503E+04-1.33105E+07-5.94905E+05 2.53083E+06
 -1      1303 2.65208E+06 1.66386E+07 9.36638E+05-1.12354E+07 5.15815E+05 1.95801E+06
 -1      1304 1.34672E+06 2.16558E+07 4.04923E+06-3.72508E+06 7.96419E+06 7.15882E+05
 -1      1305-5.69108E+06-3.58072E+07-2.13168E+07-7.08832E+06-1.12097E+07 1.24615E+07
 -1      1306-3.59273E+06-3.15578E+07 2.22563E+05-1.34248E+07-9.48044E+06-2.33022E+05
 -1      1307-6.44919E+06-1.78010E+07-1.03646E+06-1.64244E+07-9.10916E+05 2.55399E+06
 -1      1308-5.60005E+06-1.30666E+07-6.56779E+05-1.22430E+07-2.02301E+06 2.57140E+06
 -1      1309-4.86683E+06-9.64778E+06-3.80054E+05-1.15210E+07-1.97131E+06 1.84961E+06
 -1      1310-3.84400E+06-3.25260E+06-9.78560E+04-1.06214E+07-1.92215E+06 2.45408E+06
 -1      1311-1.05460E+06 3.22985E+06 2.73688E+05-9.73726E+06-1.37982E+06 2.80652E+06
 -1      1312 5.78081E+05 7.86517E+06-3.34726E+05-8.70826E+06-2.07070E+06 1.76535E+06
 -1      1313 1.30628E+06 1.16998E+07-8.81255E+05-7.65722E+06-2.67620E+06 6.06930E+05
 -1      1314 2.02581E+06 1.50452E+07 1.76243E+06-5.13410E+06-1.58732E+06 1.51955E+06
 -1      1315-1.01693E+06 1.38815E+07-4.28380E+06-2.45982E+06 5.83332E+05-4.28015E+06
 -1      1316 1.30396E+07-1.32750E+07 2.02744E+07-1.10374E+07-2.41530E+07-1.32274E+07
 -1      1317-5.73892E+05-2.35751E+07-1.93567E+06-5.49532E+06-7.27935E+06-7.85792E+05
 -1      1318-6.51182E+06-9.89943E+06 8.25528E+04-7.34998E+06-5.91635E+04 2.50219E+06
 -1      1319-1.48749E+06 3.85575E+05-3.10461E+05-6.45461E+06-7.83469E+05 2.38695E+06
 -1      1320 2.69083E+06 7.79610E+06-6.33000E+05-5.76950E+06-1.34872E+06 1.53563E+06
 -1      1321-2.64628E+03 1.10544E+07 1.45039E+05-3.34669E+05-5.18858E+05 7.88188E+05
 -1      1322-3.91991E+07-1.15903E+08-4.66964E+07 1.14190E+07-2.96548E+07 4.34262E+06
 -1      1323-3.71768E+06-3.10863E+07-1.83248E+07 1.26167E+07 2.21862E+07 2.71328E+07
 -1      1324 5.10938E+06-3.04749E+07 7.33869E+06 1.29603E+06-1.57122E+07-8.73239E+06
 -1      1325-4.25598E+06-1.97677E+07 4.21487E+06-2.80496E+06-1.27929E+06-2.09375E+06
 -1      1326-9.29875E+06-9.06489E+06-1.75185E+06-1.26355E+06 3.42780E+06 3.27130E+06
 -1      1327-3.74764E+06-3.89096E+06-3.63360E+05-2.87517E+06 1.78183E+06 2.50933E+06
 -1      1328-2.41432E+06-1.58993E+06-2.56504E+05-4.25698E+06-1.29183E+06 1.47155E+06
 -1      1329 6.76973E+05 8.02530E+05 2.51938E+05-3.65007E+06-1.60529E+06 2.28203E+06
 -1      1330 3.58006E+06 2.85556E+06-5.31377E+05-3.53770E+06-2.66103E+06 3.60160E+06
 -1      1331 1.87101E+06 7.16036E+06-8.33903E+05-3.26507E+06-2.09769E+05-4.36359E+06
 -1      1332-4.84720E+06-2.52244E+06-4.96555E+06-1.38407E+06-5.58075E+06-1.38470E+06
 -1      1333 4.90059E+06-2.14494E+08 5.80445E+07 2.48334E+07 3.73288E+06 1.42602E+07
 -1      1334-1.67940E+07-1.65155E+07 3.16122E+06-7.20298E+06 3.58799E+07 1.34738E+07
 -1      1335-2.80783E+06-3.92717E+06 1.49614E+06 8.92732E+05-1.82033E+05-2.14057E+06
 -1      1336-1.81637E+06 1.15416E+04 1.00116E+06-2.70246E+06 1.19896E+06 3.75600E+06
 -1      1337 3.04186E+06 1.80128E+06 2.23701E+06-3.80352E+05 2.92826E+06-1.61814E+06
 -1      1338 3.91430E+06-1.80063E+07 8.71066E+06 5.51066E+05-3.50120E+06-4.14365E+06
 -1      1339 1.72392E+08-2.59456E+08-5.62871E+07 2.49172E+07 3.38000E+08 1.81377E+08
 -1      1340 1.54913E+08-2.39431E+07-5.95479E+07 5.37520E+06 3.13215E+07-2.91510E+07
 -1      1341 6.33294E+07 3.99245E+07 4.67247E+07-6.66991E+06 1.44057E+07-4.00586E+07
 -1      1342-1.41626E+07-3.84007E+06-1.07817E+07 7.65971E+06-1.35287E+07-1.63348E+07
 -1      1343-8.55623E+05 1.00466E+06 9.54372E+06 1.61009E+04 1.69111E+07 7.15785E+06
 -1      1344-1.83419E+06 9.08898E+05 2.92445E+06-9.77852E+05 4.26812E+06 2.79974E+06
 -1      1345-1.15856E+06 7.59227E+05 7.71888E+05-1.19803E+06 1.22239E+05 1.30093E+06
 -1      1346-2.74304E+06-2.43219E+06-4.04877E+06-2.18338E+06-2.82950E+06 4.79275E+06
 -1      1347 1.42633E+07 4.91547E+06 6.85252E+06 9.89825E+05 1.10882E+06 7.71676E+06
 -1      1348 2.79112E+07-6.78551E+05-7.42032E+06 3.00655E+06 1.28965E+06 8.85917E+05
 -1      1349 3.41144E+07-2.41776E+07 6.58246E+06 3.33124E+06 2.18877E+07-4.59435E+07
 -1      1350-1.63378E+08 1.22900E+08-1.69064E+07-1.82909E+07 5.56616E+07-1.00781E+08
 -1      1351-8.74036E+07-2.02670E+07-1.12937E+07-2.54937E+07 4.14284E+06 1.27168E+07
 -1      1352-1.03112E+07 1.93442E+06 3.01996E+06-1.00589E+07 2.13077E+06-6.41990E+06
 -1      1353-1.07430E+06 3.09765E+06 3.47449E+06-1.48231E+07 2.91494E+06-1.04964E+07
 -1      1354-4.34754E+07-1.92386E+07-1.38378E+07-1.34878E+07 6.87137E+06-3.51700E+07
 -1      1355-1.21767E+08 1.81291E+08 2.54954E+07-2.65909E+07 1.17255E+08 4.98153E+07
 -1      1356 1.82287E+07 4.89476E+07 1.29034E+07-1.14548E+07-3.52180E+07-5.53141E+06
 -1      1357-2.07180E+07 7.83692E+06 8.42748E+05-3.85348E+07-1.68269E+06-1.32958E+06
 -1      1358-9.12446E+06 4.54046E+06-1.92092E+06-3.04632E+07 4.40402E+05-1.02911E+05
 -1      1359-5.94798E+05 1.14912E+07-1.08461E+06-3.34267E+07 1.15122E+06 1.05628E+06
 -1      1360-3.21974E+06 3.33844E+07-1.53790E+06-3.94189E+07 2.81484E+06-6.28194E+05
 -1      1361 2.24612E+07 1.13164E+08 1.17286E+07-2.85680E+07-1.21814E+07 3.62709E+06
 -1      1362-9.25559E+05-9.41799E+06 1.47504E+06-1.50366E+07-1.72078E+07-3.56703E+06
 -1      1363-8.12232E+06-1.01027E+07 1.25312E+06-3.33227E+07-1.96776E+06-5.43934E+05
 -1      1364-9.76181E+06 1.52639E+06 2.87516E+05-2.49655E+07-1.27367E+06 1.50515E+06
 -1      1365-2.75154E+06 1.41366E+07 8.89332E+04-2.22220E+07-8.48418E+05 1.15613E+06
 -1      1366 3.22036E+06 2.61997E+07 2.44372E+06-2.01839E+07 2.56922E+05 1.16588E+06
 -1      1367-9.52908E+05 3.51134E+07-1.39186E+06-5.02970E+06 1.37627E+06 1.74576E+06
 -1      1368 1.60906E+06-3.69858E+07 9.86734E+05-1.17740E+07-1.47126E+07 2.15401E+06
 -1      1369-8.55356E+06-2.56571E+07-2.65205E+06-2.11411E+07-1.12897E+06 5.64032E+05
 -1      1370-6.47858E+06-1.22466E+07-1.32964E+05-1.52687E+07-1.39734E+06 7.22476E+05
 -1      1371-1.74190E+06 3.90063E+06-2.27999E+05-1.27976E+07-9.36916E+05 1.53536E+06
 -1      1372 2.62764E+06 1.60738E+07-1.72157E+05-1.02525E+07-1.06476E+06 5.10026E+05
 -1      1373-4.01040E+05 1.87299E+07-2.12700E+06-3.41958E+06-2.70874E+05-1.25309E+06
 -1      1374-2.63335E+07-1.26978E+08-1.43183E+07 1.38205E+07-2.89347E+07 3.74787E+06
 -1      1375-3.32871E+05-3.86310E+07 6.12269E+05 1.49337E+06 1.52584E+06-7.84425E+04
 -1      1376-9.72936E+06-1.13261E+07 1.52768E+06-2.07032E+06 1.01244E+06 1.56741E+06
 -1      1377-2.56464E+06-1.69894E+06 2.14099E+05-5.51199E+06-2.73263E+05 1.18794E+06
 -1      1378 4.42109E+06 4.54610E+06 1.37369E+05-4.50988E+06-1.18708E+06 5.41737E+05
 -1      1379-3.04311E+06-9.73107E+04-2.31092E+06-1.51368E+06-4.78277E+06-1.06362E+06
 -1      1380 1.59079E+08-2.07306E+08-1.77368E+07 2.29738E+07 1.29230E+08 7.24002E+07
 -1      1381 5.59905E+07 2.37607E+07 1.66103E+07-3.22015E+06 8.41523E+06-3.04491E+07
 -1      1382-7.37899E+06-2.70469E+06-1.85670E+06 1.80398E+06 3.54899E+06-1.15045E+06
 -1      1383-4.78635E+06-1.00722E+06-2.18856E+06-2.07271E+06 9.52348E+04 2.16988E+06
 -1      1384 1.51285E+07 3.00529E+06 1.79675E+06 7.50010E+05 3.68774E+05 5.65055E+06
 -1      1385 2.74564E+07-2.20724E+07 2.04711E+06 3.12058E+06 8.83913E+06-1.72137E+07
 -1      1386-1.43186E+08 1.02544E+08-1.17771E+07-2.43349E+07 4.27392E+07-6.16423E+07
 -1      1387-1.58976E+08-5.78254E+06 1.79436E+07-3.43500E+07-4.83796E+06-5.66152E+06
 -1      1388-1.06226E+08-2.29255E+07-1.64020E+07-3.08310E+07 4.60868E+06 7.01325E+05
 -1      1389-1.91782E+07 6.21024E+06 1.57560E+06-1.29893E+07-8.29907E+05-8.69411E+06
 -1      1390-9.61698E+06 3.05688E+06 4.08588E+06-1.47388E+07 1.80744E+06 1.71846E+06
 -1      1391-1.14289E+07-2.37504E+06-5.52930E+06-1.80807E+07 4.90317E+05-4.68732E+06
 -1      1392 1.13622E+06 3.80602E+06 3.36864E+06-2.12857E+07 2.33150E+05-7.44990E+06
 -1      1393 3.67051E+06 3.60784E+06 1.52848E+06-2.53726E+07 2.05553E+06-2.87145E+06
 -1      1394-4.88215E+07-1.88003E+07-1.44456E+07-2.53224E+07 1.38732E+07-1.26139E+07
 -1      1395-1.07022E+08 1.28357E+07 1.67974E+07-3.10260E+07-9.93672E+06-1.05615E+07
 -1      1396-9.89158E+07 1.60985E+08 1.79967E+07-3.47496E+07 7.00730E+07 4.12640E+07
 -1      1397-7.83174E+06 1.11850E+08-1.64479E+07-2.25686E+07-8.65980E+06 9.61029E+06
 -1      1398-3.86119E+07-1.60383E+06-3.96628E+06-4.25507E+07 5.28677E+06-4.48704E+06
 -1      1399-1.17255E+07 5.16893E+06 3.41627E+06-2.83404E+07 2.73153E+05 5.48581E+06
 -1      1400-6.25801E+05 8.82436E+06 1.61594E+06-3.36484E+07-1.10160E+06-3.13818E+05
 -1      1401 2.36923E+06 1.61230E+07 1.40590E+06-3.94504E+07 1.05423E+07 9.74132E+06
 -1      1402 1.16759E+07 1.86770E+08-1.93298E+07-4.37875E+07 7.21445E+06-4.81668E+06
 -1      1403 1.88337E+07 5.78353E+07 1.42020E+07-2.14526E+07-1.33699E+07-1.16624E+07
 -1      1404-7.98352E+06 7.51623E+06 1.07526E+05-3.62629E+07 8.44267E+06-9.73209E+06
 -1      1405-2.23777E+07 7.68241E+06 1.56694E+06-4.78094E+07-6.36289E+06 1.94513E+06
 -1      1406-2.05117E+07 7.40447E+06 1.13713E+06-3.99756E+07-2.46049E+06 1.89790E+06
 -1      1407-1.25779E+07 5.92831E+06-2.16714E+06-3.80243E+07 1.18206E+06-3.33162E+06
 -1      1408-6.17861E+06 1.02998E+07 6.00621E+05-3.93536E+07 1.16125E+06-1.52306E+06
 -1      1409-1.67630E+06 1.49726E+07-8.85630E+05-4.15119E+07 8.63482E+05 7.18298E+05
 -1      1410-3.46245E+06 2.60652E+07-4.87928E+05-4.33278E+07-6.62194E+05-4.73421E+06
 -1      1411-1.90687E+06 3.76530E+07-2.59721E+06-4.87368E+07-9.64182E+05-6.84972E+06
 -1      1412 6.84735E+06 6.38118E+07 5.39973E+06-4.56383E+07 5.20148E+06 5.36478E+06
 -1      1413 2.65504E+07 1.39971E+08 1.76424E+07-3.52801E+07-1.66002E+04 3.74598E+06
 -1      1414-4.21441E+06-7.06931E+06-1.06589E+06-2.51726E+07-9.42638E+05-1.21630E+06
 -1      1415-1.69744E+07 1.05242E+06 3.69886E+05-4.34452E+07-4.49288E+06 8.18844E+05
 -1      1416-1.22761E+07 4.71256E+06-5.57996E+05-3.36872E+07 8.81960E+05-8.20851E+05
 -1      1417-2.59839E+06 1.77598E+07 1.26338E+05-3.28779E+07 8.68074E+04 8.04237E+05
 -1      1418-5.31146E+05 3.96816E+07-1.58531E+06-3.38740E+07-2.52447E+06-2.62855E+06
 -1      1419-5.98368E+06 4.76069E+07-1.42302E+06-1.00451E+07 8.83323E+06-1.97431E+06
 -1      1420-1.02958E+06-1.25462E+07 2.72568E+06-2.22099E+07-1.01325E+07-9.39772E+05
 -1      1421-7.88764E+06-1.40149E+07-1.50888E+06-3.36957E+07-1.87258E+06 1.10210E+06
 -1      1422-1.13323E+07-1.19120E+07 6.70804E+05-4.11210E+07-1.29593E+06-1.61585E+06
 -1      1423-1.23214E+07-5.79561E+06-2.64847E+04-3.39363E+07-5.00814E+05-4.25578E+05
 -1      1424-1.18747E+07 1.90623E+06 4.42632E+05-3.11316E+07-5.84339E+05 1.29006E+06
 -1      1425-7.20414E+06 9.21974E+06-3.00153E+05-2.91434E+07-9.74439E+05 1.64172E+05
 -1      1426-3.29610E+06 1.73972E+07-6.60856E+04-2.76011E+07-9.12083E+05-3.61383E+05
 -1      1427 9.64755E+05 2.49423E+07 6.41174E+05-2.56595E+07 6.84551E+05 8.67290E+05
 -1      1428 3.66649E+06 3.37634E+07 2.26855E+06-2.51965E+07 2.55594E+06 1.52060E+06
 -1      1429 3.51381E+05 4.17631E+07-3.49010E+06-1.75168E+07-5.07014E+06 2.95591E+05
 -1      1430-7.85090E+05 4.25377E+07-2.01071E+06-7.50233E+06-4.08216E+06 1.31679E+06
 -1      1431-1.62233E+06-3.16772E+07-1.51625E+06-1.93033E+07-5.07479E+06-2.42005E+05
 -1      1432-1.01645E+07-2.21097E+07 3.34601E+04-3.39923E+07-4.24189E+04-9.32759E+04
 -1      1433-9.91046E+06-6.36802E+06 1.41107E+04-2.52669E+07 2.86534E+05 1.15139E+05
 -1      1434-2.67944E+06 1.09676E+07 1.08817E+05-2.17034E+07-5.79400E+03 8.55283E+04
 -1      1435 3.32421E+06 2.62651E+07-1.62724E+05-1.87428E+07 1.35131E+06 5.25454E+05
 -1      1436 2.47697E+06 3.72028E+07 2.94229E+06-6.25903E+06 1.46008E+06-1.98701E+03
 -1      1437 1.11291E+06-4.55574E+07 9.22737E+05-1.65611E+07-1.17617E+07 9.48116E+05
 -1      1438-2.66657E+06-4.41742E+07 3.60358E+06-2.23578E+07-3.89860E+06-2.38755E+04
 -1      1439-1.00355E+07-3.33361E+07-2.21368E+06-2.61449E+07 4.93898E+05 1.15850E+06
 -1      1440-1.05350E+07-2.33310E+07-6.40931E+05-2.12234E+07 5.29753E+04 1.06494E+06
 -1      1441-8.31689E+06-1.49237E+07 1.50629E+04-1.90195E+07-9.72091E+05-1.16795E+06
 -1      1442-5.73686E+06-4.63200E+06 2.29442E+05-1.73020E+07-8.38913E+05-2.11985E+05
 -1      1443-2.21098E+06 4.75418E+06-3.22501E+05-1.58465E+07-3.81815E+05 5.19109E+05
 -1      1444 1.25350E+06 1.30042E+07 2.10552E+04-1.41812E+07-5.05773E+05-2.97099E+05
 -1      1445 3.84852E+06 2.00537E+07-6.31319E+03-1.28774E+07-3.37641E+05-7.68246E+05
 -1      1446 3.28512E+06 2.42866E+07 3.16065E+05-8.97038E+06-1.70787E+06 2.47383E+05
 -1      1447-2.65276E+05 2.33574E+07-2.91143E+06-4.45015E+06-4.61582E+05-5.95236E+05
 -1      1448 6.14997E+06-5.23807E+07 1.39595E+06-1.25429E+07 5.04877E+06-2.32734E+06
 -1      1449-4.92539E+06-4.30394E+07 1.54113E+06-1.40957E+07-5.06333E+06-2.87755E+06
 -1      1450-9.65597E+06-1.65022E+07-1.93977E+05-1.10852E+07 8.11754E+05 8.72606E+05
 -1      1451-1.97360E+06 7.00660E+05 1.90737E+05-1.07962E+07 5.64707E+01 1.21967E+05
 -1      1452 4.45456E+06 1.23079E+07-1.45546E+05-8.76319E+06 3.00194E+04 2.44036E+05
 -1      1453 1.40915E+06 1.85836E+07 8.18038E+04-2.21279E+06 2.19648E+06-4.17933E+05
 -1      1454-3.16284E+07-1.58071E+08-2.00962E+07 1.40539E+07-6.90307E+06 5.86558E+06
 -1      1455-1.03806E+07-7.19643E+07-4.99028E+06 9.95666E+06 8.97711E+06 8.43426E+06
 -1      1456-2.81159E+06-4.31304E+07 1.76857E+06 1.65638E+06-3.98979E+06-6.11986E+06
 -1      1457-4.78839E+06-2.89820E+07 2.58184E+05-6.11712E+05-1.37421E+06-3.88688E+06
 -1      1458-1.11827E+07-1.52271E+07 1.15779E+06-2.71757E+06 1.58553E+06 2.15561E+06
 -1      1459-7.64465E+06-8.14245E+06-4.76995E+05-4.82855E+06 7.28754E+05 6.31160E+05
 -1      1460-2.78820E+06-1.86943E+06 5.38731E+05-6.76070E+06-2.88972E+05-3.07951E+05
 -1      1461 1.79150E+06 2.09325E+06-1.98155E+05-6.37015E+06-7.03159E+05 6.88341E+05
 -1      1462 4.89802E+06 5.81803E+06-1.63321E+05-5.50340E+06-1.06617E+06 1.05099E+06
 -1      1463 2.32430E+06 8.81430E+06-3.08346E+05-3.56181E+06 3.17763E+05-1.38014E+06
 -1      1464-2.79262E+06 9.74782E+05-2.63531E+06-1.30824E+06-2.28846E+06-2.05915E+06
 -1      1465-1.04358E+07-2.12132E+08 2.27175E+07 2.71774E+07 1.81653E+06-7.77590E+06
 -1      1466-4.26383E+06-1.80746E+07 2.66477E+05 3.32379E+06 1.10122E+07 8.46892E+06
 -1      1467-1.13758E+07-9.61094E+06-2.27441E+06 9.55002E+05-1.03180E+06-2.93194E+06
 -1      1468-5.25686E+06-1.46777E+06-7.21837E+05-4.38334E+06 2.37927E+05 9.17730E+05
 -1      1469 7.80896E+06 3.21724E+06 4.44746E+05-2.31061E+06 1.19153E+06-1.20921E+06
 -1      1470 2.54306E+06-1.42163E+07 3.08218E+06 1.08675E+06-5.09660E+05 1.36266E+06
 -1      1471 1.35538E+08-1.78748E+08-1.24158E+07 2.35463E+07 8.03433E+07 5.41735E+07
 -1      1472 1.39573E+08-1.25508E+07-2.14090E+07 1.24626E+07-1.04133E+07-6.11220E+06
 -1      1473 6.29557E+07 2.32370E+07 1.88756E+07 3.44619E+06 1.51245E+07-9.93155E+06
 -1      1474-1.28150E+07-5.82021E+06-1.89186E+06 7.91696E+06 1.91775E+06 2.95573E+06
 -1      1475-1.13216E+07-3.09317E+06-1.32887E+06 3.03244E+06 6.44025E+05-4.03706E+06
 -1      1476-5.24750E+06 1.30037E+06 3.55475E+06-2.37273E+05 3.15960E+05-3.64378E+05
 -1      1477-7.63287E+06-1.84488E+06-2.98976E+06-2.71535E+06 4.66637E+05 2.00664E+06
 -1      1478 2.66005E+05-1.31371E+06-5.21283E+05-3.30992E+06-1.83436E+05 1.12782E+05
 -1      1479 1.89345E+07 3.61784E+06 2.72995E+06 1.15434E+05 4.10325E+05 1.25618E+06
 -1      1480 2.79973E+07 1.56937E+06-2.91258E+06 2.87776E+06-1.51483E+06-2.05106E+05
 -1      1481 2.41316E+07-1.85496E+07 1.32378E+06 3.34668E+06 6.98620E+06-1.03801E+07
 -3
    1PSTEP                        39           1           1          
    1PGM                1.000000E+00                                  
    1PGK                2.078485E+12                                  
    1PHID                         -1                                  
    1PSUBC                         0                                  
    1PMODE                        10                                  
  100CL  110 229452.8963        1481                     2   10MODAL      1
 -4  TOSTRAIN    6    1
 -5  EXX         1    4    1    1
 -5  EYY         1    4    2    2
 -5  EZZ         1    4    3    3
 -5  EXY         1    4    1    2
 -5  EYZ         1    4    2    3
 -5  EZX         1    4    3    1
 -1         1 9.91766E+02-8.58432E+02 2.33806E+00 1.83228E+02 3.21801E+02-4.64131E+02
 -1         2 9.55184E+02-1.98274E+02-3.76918E+02 2.58635E+02-3.64270E+01-4.26279E+01
 -1         3 5.60082E+02-6.71187E+01-1.16237E+02 2.32139E+02 3.47007E+01 5.28057E+00
 -1         4 1.25637E+02-6.55234E+01-3.06272E+01 9.78020E+01-6.24871E+00-6.54616E+01
 -1         5 6.83350E+01-2.70917E+01-3.48395E+01 1.10975E+02 1.36090E+01 1.29390E+01
 -1         6 5.42100E+01-1.39604E+01 9.78937E+00 1.36137E+02 3.69180E+00-3.52928E+01
 -1         7 5.13344E+00-1.49686E+01-1.16753E+01 1.60269E+02 1.75548E+00-5.60934E+01
 -1         8-1.31314E+01-1.26595E+01 2.99682E+00 1.91041E+02 1.54769E+01-2.16203E+01
 -1         9 2.32428E+02 6.38522E+00-2.64030E+01 1.90662E+02 1.04457E+02-9.49753E+01
 -1        10 6.78350E+02-2.24110E+02-2.53939E+02 2.33608E+02-7.48177E+01-7.95215E+01
 -1        11 8.76652E+02-1.08025E+03-3.63054E+00 2.61644E+02 5.27608E+02 3.10694E+02
 -1        12 2.03203E+02-6.97934E+02 2.68077E+02 1.69928E+02-6.52032E+01 7.23598E+01
 -1        13 2.17955E+02-6.06945E+01-4.29066E+01 3.20382E+02 3.98063E+01-3.37848E+01
 -1        14 8.31140E+01-4.40913E+01-3.08948E+01 2.13386E+02 2.05668E+00 4.13049E+01
 -1        15 2.08770E+01-5.02772E+01 3.99798E+00 2.53352E+02-8.29438E+00-2.36286E+00
 -1        16 1.49344E+01-8.86230E+01 2.21877E+01 2.97038E+02 7.93775E+01 7.33464E+01
 -1        17 2.07102E+02-1.11125E+03 4.40557E+02 3.29694E+02 5.43206E+01-3.62667E+01
 -1        18 7.86330E+00-2.85796E+02 4.27369E+01 1.61525E+02-1.00668E+02-8.78112E+01
 -1        19 5.95186E+01-5.71854E+01-1.40215E+00 2.73038E+02 6.35683E+01-7.32769E+01
 -1        20 1.46868E+02-7.94672E+01-3.34214E+01 3.59977E+02-4.79088E+01 1.46457E+01
 -1        21 1.34726E+02-7.54668E+01-2.82774E+01 3.00993E+02-1.85260E+01 1.42901E+01
 -1        22 8.01828E+01-5.91584E+01 1.79551E+00 2.86301E+02 8.90023E+00-2.50852E+01
 -1        23 5.42983E+01-6.97741E+01 3.25471E+00 2.96309E+02 8.74350E+00-1.14678E+01
 -1        24 3.30627E+01-9.22940E+01 2.71094E+01 3.12560E+02 6.50151E+00 5.40836E+00
 -1        25 6.24946E+01-1.59831E+02 4.00983E+01 3.26233E+02-4.98593E+00-3.56458E+01
 -1        26 6.89558E+01-2.28907E+02 7.41536E+01 3.66959E+02-7.25972E+00-5.15743E+01
 -1        27 7.37169E+01-3.55192E+02 8.46167E+01 3.43630E+02 3.91641E+01 4.03937E+01
 -1        28 1.03420E+02-7.50569E+02 1.70491E+02 2.65639E+02-1.24990E-01 2.82050E+01
 -1        29 1.13915E+01 3.28872E+01-1.23150E+01 1.89535E+02-7.09751E+00-9.15803E+00
 -1        30 1.02192E+02-3.35394E+01-2.84003E+01 3.27116E+02-3.38287E+01 6.16541E+00
 -1        31 7.90550E+01-4.88594E+01-9.17521E+00 2.53644E+02 6.64064E+00-6.18053E+00
 -1        32 4.47442E+01-1.08541E+02 2.42286E+01 2.47551E+02 6.53609E-01 6.05543E+00
 -1        33 6.58713E+01-2.36907E+02 7.38085E+01 2.55052E+02-1.90078E+01-1.97914E+01
 -1        34 1.11266E+02-2.92240E+02 7.69266E+01 7.56338E+01 6.65090E+01-1.48654E+01
 -1        35-1.01186E+01 7.65946E+01-3.83935E+01 1.67228E+02-7.62918E+01-7.07593E+00
 -1        36 2.08294E+01 6.69638E+01-2.71990E+01 2.53709E+02-1.40994E+01 8.29817E+00
 -1        37 4.81455E+01 5.25103E+01-4.22305E+01 3.09617E+02-9.75757E+00-1.21664E+01
 -1        38 6.28894E+01 1.37542E+01-2.96840E+01 2.55521E+02-3.77084E+00-3.20435E+00
 -1        39 7.37196E+01-3.00424E+01-1.90223E+01 2.34403E+02-4.39973E+00 9.71342E+00
 -1        40 5.70684E+01-6.65938E+01 5.08543E+00 2.19433E+02-7.33695E+00 1.23612E+00
 -1        41 4.79342E+01-1.07874E+02 2.36141E+01 2.07820E+02-6.86745E+00-2.72100E+00
 -1        42 3.64624E+01-1.44074E+02 3.88988E+01 1.93201E+02 5.15426E+00 6.53019E+00
 -1        43 3.77791E+01-1.88833E+02 4.83048E+01 1.89715E+02 1.92447E+01 1.14493E+01
 -1        44 6.09709E+01-2.50835E+02 8.98951E+01 1.31892E+02-3.81752E+01 2.22563E+00
 -1        45 7.13685E+01-2.54826E+02 8.05967E+01 5.64881E+01-3.07362E+01 9.91469E+00
 -1        46-4.51284E+01 1.81167E+02-4.59271E+01 1.45342E+02-3.82102E+01-1.82216E+00
 -1        47 2.34301E+01 1.13371E+02-5.33543E+01 2.55942E+02-3.19390E-01-7.02313E-01
 -1        48 4.78316E+01 2.11591E+01-2.68946E+01 1.90245E+02 2.15743E+00 8.66926E-01
 -1        49 3.40049E+01-6.87494E+01 1.30110E+01 1.63414E+02-4.36254E-02 6.43978E-01
 -1        50 2.34379E+01-1.49293E+02 4.96925E+01 1.41122E+02 1.01745E+01 3.95636E+00
 -1        51 5.15508E+01-2.09914E+02 4.80473E+01 4.71268E+01 1.09936E+01-1.49610E-02
 -1        52-8.00625E+01 2.71338E+02-7.86306E+01 1.24695E+02-8.85589E+01 7.13876E+00
 -1        53-5.11364E+01 2.61391E+02-9.83470E+01 1.68341E+02-2.93541E+01-1.79768E-01
 -1        54 4.80002E-01 1.75919E+02-5.84140E+01 1.96856E+02 3.71876E+00 8.72281E+00
 -1        55 2.24872E+01 1.18834E+02-5.20091E+01 1.59800E+02 3.98873E-01 8.01836E+00
 -1        56 2.43675E+01 7.41128E+01-3.83672E+01 1.43206E+02-7.31927E+00-8.79400E+00
 -1        57 2.64949E+01 1.81760E+01-1.84278E+01 1.30274E+02-6.31652E+00-1.59612E+00
 -1        58 2.03050E+01-3.21386E+01 6.08587E+00 1.19315E+02-2.87484E+00 3.90859E+00
 -1        59 1.40798E+01-7.43960E+01 2.33594E+01 1.06776E+02-3.80817E+00-2.23698E+00
 -1        60 1.03808E+01-1.11634E+02 3.94054E+01 9.69596E+01-2.54224E+00-5.78444E+00
 -1        61 2.11979E+01-1.36931E+02 4.35531E+01 6.75417E+01-1.28593E+01 1.86265E+00
 -1        62 3.52361E+01-1.42628E+02 5.51601E+01 3.35070E+01-3.47544E+00-4.48178E+00
 -1        63-1.20151E+02 3.20550E+02-8.43562E+01 9.44409E+01 3.80143E+01-1.75235E+01
 -1        64-3.93772E+01 2.47599E+02-8.80663E+01 1.06132E+02-3.81239E+01-2.16662E+01
 -1        65 2.93002E+01 8.08484E+01-4.19430E+01 8.34652E+01 6.11203E+00 6.57021E+00
 -1        66 1.30776E+01-7.05801E+00-3.21859E+00 8.12889E+01 4.25191E-04 9.18343E-01
 -1        67-6.17110E+00-6.53025E+01 2.84650E+01 6.59817E+01 2.26028E-01 1.83745E+00
 -1        68 2.24540E+01-1.06860E+02 3.24481E+01 1.66610E+01 1.65382E+01-3.14679E+00
 -1        69-1.07403E+02 8.44638E+02-1.94234E+02-1.05818E+02-5.19761E+01 4.41643E+01
 -1        70-6.56865E+01 3.98002E+02-1.06272E+02-7.49678E+01 6.75923E+01 6.35050E+01
 -1        71-5.15865E+01 2.51990E+02-8.60724E+01-1.24716E+01-3.00408E+01-4.60789E+01
 -1        72-1.91428E+01 1.63021E+02-5.71405E+01 4.60583E+00-1.03470E+01-2.92659E+01
 -1        73 4.26076E+01 7.30595E+01-5.03090E+01 2.04617E+01 1.19381E+01 1.62305E+01
 -1        74 3.07718E+01 3.45200E+01-2.31964E+01 3.63562E+01 5.48709E+00 4.75226E+00
 -1        75 1.42094E+01 7.29162E+00-1.08404E+01 5.09041E+01-2.17579E+00-2.31869E+00
 -1        76-7.41688E+00-9.68889E+00 7.56402E+00 4.79635E+01-5.29437E+00 5.18281E+00
 -1        77-1.94983E+01-2.64254E+01 1.86107E+01 4.14374E+01-8.02767E+00 7.91331E+00
 -1        78 3.37436E-01-4.85284E+01 2.01597E+01 2.68183E+01 2.39257E+00-1.03917E+01
 -1        79 1.36922E+01-1.46741E+01 1.25077E+01 9.85028E+00-1.72307E+01-1.55042E+01
 -1        80-2.50589E+02 1.26806E+03-5.00215E+02-2.04630E+02 1.36774E+01-5.85480E+01
 -1        81-4.24971E+00 9.97375E+01-3.83603E+01-2.50262E+01 8.29154E+01 6.37660E+01
 -1        82 4.73408E+01 3.40522E+01-2.11875E+01-7.19061E+00-7.76884E+00-2.20758E+01
 -1        83 2.73163E+01-1.21333E+00-6.82975E+00 3.30039E+01 1.79145E+00 6.90996E+00
 -1        84-3.99036E+01-5.33058E+00 1.55446E+01 1.73975E+01 8.97153E+00-9.10462E+00
 -1        85-3.32976E+01 9.28901E+01-3.73569E+01-8.18262E+00-3.83744E+00 1.02600E+01
 -1        86-1.11214E+03 1.25425E+03 1.86628E+00-1.77290E+02 6.04938E+02 4.07895E+02
 -1        87-8.76951E+02 2.68451E+02 3.35148E+02-9.38358E+01-7.84060E+01-4.60213E+01
 -1        88-3.00966E+02-1.90705E+00 3.09314E+01-2.59478E+01 1.13879E+02-7.47787E+01
 -1        89 6.26799E+01 1.00135E+01-1.95646E+01-5.96100E+01 1.44395E+01 2.22549E+01
 -1        90 5.93144E+01-2.64099E+00-1.59251E+01-2.28325E+01 4.84913E+00-3.03967E+01
 -1        91 3.88643E+01-1.04373E+01-2.74114E+01 1.78653E+00 2.37899E+00-2.74355E+00
 -1        92 3.69363E+01-6.64387E+00 1.97640E+00 2.04450E+01 3.51350E+00 1.51088E+01
 -1        93-4.58707E+00 7.30723E+00 1.34074E+00 2.49218E+01-1.38117E+00 8.49185E-01
 -1        94-1.00924E+02 1.44012E+01 2.10864E+01-8.69148E-01 3.08951E+00 9.45826E+00
 -1        95-1.66902E+02 3.20844E+01 6.58308E+01-2.16679E+01-1.14058E+01-1.54433E+00
 -1        96-1.70323E+02 1.51042E+02 1.40702E+00-2.51985E+01 5.26020E+01-7.81558E+01
 -1        97 1.13563E+03-1.01988E+03 3.27795E+01 1.37720E+02 4.19099E+02-7.58821E+02
 -1        98 4.62156E+02-4.33429E+01-1.10906E+02 1.91953E+02 3.11931E+01 9.57503E+01
 -1        99 6.88142E+01-2.33880E+01-3.15615E+01 7.57373E+01 1.60434E+01-4.83381E+01
 -1       100 1.71441E+01-1.42682E+01-1.71056E+01 1.11609E+02 2.19478E+01-7.90319E+01
 -1       101 2.01259E+02 1.87702E+01-2.18951E+01 1.01555E+02 5.17374E+01-2.64809E+02
 -1       102 1.05687E+03-1.22498E+03-5.19340E+01 2.00214E+02 8.82859E+02 3.75080E+02
 -1       103-5.35555E+00-2.36651E+02 3.47408E+01 8.62477E+01-2.65171E+02-4.16482E+01
 -1       104 1.36167E+02-7.88352E+01-2.61733E+01 2.90145E+02-1.26697E+01-1.00110E+01
 -1       105 5.79878E+01-4.49010E+01 3.74945E+00 2.29370E+02 3.31597E+00-7.74861E-01
 -1       106 2.06391E+01-7.03614E+01 2.43271E+01 2.51683E+02 8.66804E+00 7.95318E+00
 -1       107 7.13927E+01-2.04215E+02 5.87294E+01 2.96801E+02 2.11941E+01-4.72993E+00
 -1       108 7.35804E+01-6.09356E+02 1.54390E+02 2.15100E+02-9.17187E+01 2.73098E+01
 -1       109-7.63803E+00 5.63050E+01-2.57132E+01 1.13217E+02-1.29565E+02-2.68577E+01
 -1       110 3.32026E+01 4.81137E+01-3.73890E+01 2.50900E+02-1.48161E+01-4.09550E+00
 -1       111 6.04100E+01-2.45835E+01-1.52555E+01 1.87975E+02-9.58996E+00 1.13329E+01
 -1       112 3.96158E+01-8.75421E+01 1.82288E+01 1.67319E+02-6.38809E+00 8.70495E+00
 -1       113 2.82340E+01-1.44787E+02 3.40817E+01 1.51973E+02 1.93447E+00 8.77840E+00
 -1       114 6.11467E+01-2.10411E+02 6.44517E+01 3.78707E+01 1.03625E+01 1.31446E+01
 -1       115-6.87576E+01 2.21839E+02-6.40718E+01 8.86516E+01-1.10777E+02 1.62185E+01
 -1       116 3.68828E+00 1.32468E+02-4.07466E+01 1.59180E+02-8.50045E+00 4.24683E+00
 -1       117 1.77194E+01 6.11493E+01-3.00594E+01 1.14964E+02-1.05211E+01 5.43982E+00
 -1       118 1.62955E+01-2.61894E+01 4.89673E+00 9.63584E+01-7.05442E+00 1.15604E+01
 -1       119 1.07343E+01-9.05077E+01 3.18151E+01 7.71952E+01-8.01700E+00 3.84020E+00
 -1       120 2.97051E+01-1.14340E+02 4.27005E+01 2.57474E+01-2.03953E+00-9.43506E+00
 -1       121-7.78214E+01 6.79976E+02-1.68288E+02-1.04060E+02-2.17861E+02 2.82192E+01
 -1       122-6.06609E+01 2.27701E+02-6.77773E+01-1.12442E+01 1.14887E+01-5.90626E-01
 -1       123 4.10929E+01 5.31155E+01-4.36660E+01 1.55883E+01 7.62304E+00 1.18017E+01
 -1       124 1.26405E+01 6.12231E+00-8.28177E+00 4.15021E+01-2.05751E+00 8.94448E+00
 -1       125-1.82924E+01-1.92337E+01 1.39614E+01 3.39568E+01-8.93800E+00 4.07896E+00
 -1       126 1.39342E+01-8.24599E+00 8.42117E+00 1.13971E+01-3.60114E+01-8.00844E+00
 -1       127-1.30642E+03 1.45225E+03 2.49011E+01-1.72979E+02 9.73023E+02 5.45131E+02
 -1       128-2.62862E+02-2.01910E+01 3.36471E+01 2.42458E+01 6.33617E+01-2.29264E+02
 -1       129 3.58929E+01 6.98201E-01-5.68662E+00-1.35829E+01 2.67218E+01-8.66223E+00
 -1       130 2.28914E+01-5.56329E+00 3.33154E+00 1.56063E+01 7.17062E-01 1.63379E+01
 -1       131-8.10819E+01 1.01987E+01 1.92983E+01-5.64713E+00 2.77665E+00 4.25453E+01
 -1       132-1.94491E+02 1.78432E+02-3.17409E+00-2.34961E+01 6.65535E+01-1.29609E+02
 -1       133 1.32684E+03-1.21284E+03 1.85078E+02 1.09385E+02 1.11142E+03-1.92684E+03
 -1       134 1.03632E+03-2.28049E+02-5.20632E+02 1.70028E+02 9.60574E+01-1.20260E+02
 -1       135 3.78081E+02-1.21124E+01 2.92537E+01 1.42821E+02 5.33971E+01 6.07659E+01
 -1       136 4.13944E+01-2.83817E+01-8.26464E+01 1.04643E+01-7.73371E+01-3.74867E+01
 -1       137 6.26050E+01-2.12867E+01 4.42198E+01 4.83866E+01 6.91112E+01-1.69301E+02
 -1       138 3.72190E+01-1.15916E+01 1.45973E+01 5.86872E+01 4.16977E+01-1.34167E+02
 -1       139 2.23395E+01-1.63727E+01 2.14737E+01 6.24330E+01 9.87285E+01-7.89357E+01
 -1       140-2.68973E+01 1.11777E+01-3.50874E+01 1.08660E+02-8.92712E+01-2.38395E+02
 -1       141 1.73934E+02 4.40692E+01 9.67822E+01 3.84239E+01 8.40533E+01-3.81726E+02
 -1       142 8.44747E+02-2.40283E+02-4.63788E+02 8.99015E+01 2.17899E+02-3.32311E+02
 -1       143 1.26468E+03-1.42510E+03-2.88919E+02 1.63068E+02 2.21655E+03 1.02417E+03
 -1       144 2.25412E+02-8.33249E+02 4.53049E+02 5.55139E+01-2.71760E+02-1.69464E+02
 -1       145 6.49584E+01-4.90755E+01 5.71593E+01 2.29262E+02 1.64968E+02-1.23981E+02
 -1       146 6.83658E+01-2.53800E+01-1.43752E+01 1.15304E+02 7.17115E+00 3.11640E+01
 -1       147 2.77750E+01-3.20467E+01 1.55924E+01 1.45767E+02 7.10751E+00-3.20674E+01
 -1       148-6.01464E+01-6.60319E+01 4.70622E+01 1.16466E+02 2.17664E+02 8.78059E+01
 -1       149 2.44401E+02-1.16298E+03 5.75319E+02 2.13056E+02 1.81374E+02 7.07474E+01
 -1       150-3.00982E+01-1.96205E+02-7.24756E+01 3.34928E+01-3.67264E+02-6.12464E+01
 -1       151 4.80259E+01 3.42451E+01-4.64136E+01 1.08355E+02 6.55473E+01-1.96998E+02
 -1       152 1.23350E+02-7.75543E+01-4.15323E+01 2.23496E+02-7.38959E+01 8.68964E+01
 -1       153 7.16145E+01-5.82530E+01 8.44883E-01 2.01477E+02-1.50521E+01 3.77499E+01
 -1       154 3.77178E+01-3.12579E+01-1.26512E+00 1.73516E+02 4.42961E+00-5.47496E+00
 -1       155 3.75600E+01-3.61023E+01-2.95013E-01 1.81214E+02 2.00506E+01 5.72889E+00
 -1       156 1.00265E+01-4.98496E+01 3.88966E+00 1.93344E+02 2.34696E+01 2.64253E+01
 -1       157 2.89532E+01-1.11273E+02 4.99001E+01 1.85365E+02-2.81755E+00-1.36114E+01
 -1       158 7.28878E+01-1.76365E+02 7.89728E+01 2.29771E+02-8.11289E+01-6.05918E+01
 -1       159 6.02159E+01-1.41288E+02-4.93858E+01 2.42992E+02 1.48775E+02 1.76220E+02
 -1       160 3.47934E+01-4.87753E+02-5.97018E+00 1.56817E+02-3.85370E+01 4.51183E+01
 -1       161-1.01257E+01 4.49625E+01 1.93273E+01 1.08512E+02-2.57199E+02 7.53646E+01
 -1       162 7.29480E+01-7.53467E+00-4.22143E+01 1.85616E+02-3.55703E+01 1.28969E+01
 -1       163 4.37828E+01-2.91196E+01-5.89447E+00 1.57440E+02-3.08799E+00 1.42195E+01
 -1       164 2.29950E+01-6.39012E+01 1.47198E+01 1.46315E+02 6.95748E-01 2.26642E+01
 -1       165 5.31454E+01-1.32082E+02 2.62842E+01 1.75986E+02-3.77734E+01-8.68497E-01
 -1       166 5.88701E+01-1.28926E+02 1.10153E+02-2.20696E+00 9.07107E+00-8.06261E+01
 -1       167-4.11226E-01 4.54767E+01-7.47941E+01 6.16122E+01-1.69315E+02-1.13240E+02
 -1       168 1.02153E+01 2.89943E+01-1.23557E+01 1.45061E+02-6.29168E+01 9.80458E+00
 -1       169 1.99651E+01 4.00993E+01-2.43234E+01 1.94691E+02-2.56796E+01-1.69880E+01
 -1       170 3.77953E+01 1.22405E+01-2.22265E+01 1.50972E+02-1.71171E+01 6.15271E+00
 -1       171 4.72130E+01-1.87837E+01-9.67795E+00 1.41303E+02-1.33813E+01 1.78184E+01
 -1       172 3.27903E+01-4.23013E+01 3.07024E+00 1.32786E+02-1.32545E+01 1.58765E+01
 -1       173 3.08419E+01-6.75840E+01 1.32705E+01 1.26526E+02-8.69086E+00 1.69565E+01
 -1       174 2.43653E+01-8.26902E+01 2.06315E+01 1.20686E+02-8.34113E+00 1.68056E+01
 -1       175 1.83462E+01-1.03110E+02 2.77773E+01 1.14324E+02 6.56960E+00 2.14120E+01
 -1       176 3.73626E+01-1.70469E+02 5.24631E+01 6.93055E+01-3.24894E+01 3.12605E+00
 -1       177 5.27112E+01-1.61027E+02-3.69067E+01 2.39024E+01 1.08947E+02 7.34631E+01
 -1       178-2.93462E+01 9.79992E+01-1.34638E+01 4.87857E+01-1.26862E+02-1.00894E+01
 -1       179 1.32832E+01 6.92434E+01-2.72775E+01 1.60923E+02 1.08415E+00 2.63419E-01
 -1       180 2.86532E+01 1.26657E+01-1.54953E+01 1.13980E+02-6.46502E+00 1.68681E+01
 -1       181 2.16588E+01-4.09286E+01 7.42868E+00 1.00220E+02-4.47928E+00 1.90556E+01
 -1       182 1.33470E+01-9.19635E+01 2.62633E+01 8.45957E+01 3.88378E+00 1.47426E+01
 -1       183 3.44158E+01-1.18500E+02 1.40676E+01 2.80477E+01 5.99657E+01 5.39017E+00
 -1       184-6.06097E+01 1.66147E+02 5.70427E+01 5.33709E+01-8.44024E+01 9.38280E+01
 -1       185-3.04772E+01 1.80083E+02-5.92042E+01 1.01081E+02-7.13821E+01-1.75452E+00
 -1       186 6.91000E+00 9.23825E+01-3.38447E+01 1.23666E+02-6.85866E+00 1.92300E+01
 -1       187 1.03383E+01 6.65568E+01-2.68816E+01 9.21827E+01-1.52321E+01 1.93611E+01
 -1       188 1.21120E+01 4.81097E+01-2.16708E+01 8.67463E+01-1.48428E+01 1.39265E+01
 -1       189 1.70934E+01 1.26405E+01-1.11129E+01 7.99731E+01-1.44726E+01 1.84777E+01
 -1       190 1.19741E+01-2.02853E+01 1.97284E+00 7.33159E+01-1.03893E+01 2.11315E+01
 -1       191 9.00261E+00-4.58649E+01 1.58755E+01 6.55681E+01-1.55911E+01 1.32921E+01
 -1       192 1.01348E+01-6.81223E+01 2.66056E+01 5.76544E+01-2.01502E+01 4.56983E+00
 -1       193 1.57667E+01-8.22618E+01 1.77497E+01 3.86568E+01-1.19516E+01 1.14413E+01
 -1       194 2.17899E+01-9.03864E+01 4.63875E+01 1.85210E+01 4.39215E+00-3.22270E+01
 -1       195-6.51754E+01 1.32959E+02-1.19649E+02 8.31049E+01-1.81858E+02-9.95942E+01
 -1       196-3.86419E+01 1.34544E+02-2.83885E+01 4.13765E+01-5.48092E+01-5.91655E+00
 -1       197 2.21358E+01 4.76426E+01-2.75159E+01 5.53410E+01-4.45466E-01 1.88400E+01
 -1       198 8.87363E+00-5.22941E+00 1.13335E-02 4.85994E+01-5.89906E+00 1.79723E+01
 -1       199-4.03034E+00-4.24700E+01 2.09961E+01 4.34409E+01-1.01550E+01 1.15624E+01
 -1       200 1.84617E+01-6.47915E+01 1.73498E+01 2.51986E+00-3.90669E+00 5.93460E+00
 -1       201-3.72286E+01 5.40310E+02 1.92217E+01-8.59783E+01-2.23283E+02 3.26973E+01
 -1       202-5.95142E+01 1.46556E+02 5.04684E+01-9.49960E+01 1.67049E+02 2.04294E+02
 -1       203-6.81618E+01 1.99767E+02-8.49473E+01-9.75838E+00-1.18303E+02-6.57498E+01
 -1       204-5.81278E-01 1.16213E+02-6.43618E+01 2.11197E+01-9.63230E+00-1.57647E+01
 -1       205 3.68827E+01 3.51219E+01-1.99410E+01 9.51380E+00 2.58093E+01 2.46309E+01
 -1       206 1.50379E+01 1.61169E+01-1.04438E+01 2.16483E+01 1.34161E+01 1.88937E+01
 -1       207 1.11607E+01 4.95353E+00-5.08639E+00 3.20526E+01-9.72670E+00 1.10799E+01
 -1       208-2.24542E+00-3.19080E+00 9.54840E-01 2.74829E+01-1.20869E+01 1.71823E+01
 -1       209-1.72311E+01-1.17760E+01 1.37256E+01 2.66368E+01-2.00360E+01 2.71180E+01
 -1       210-5.85888E-01-4.04116E+01 1.97805E+01 2.45841E+01-1.57944E+00-3.28552E+01
 -1       211 1.61798E+01-1.32432E+00 1.70709E+01 1.04213E+01-4.20198E+01-1.04260E+01
 -1       212-2.86509E+02 1.36540E+03-6.86651E+02-1.86981E+02 2.81064E+01 1.07371E+02
 -1       213 7.67930E+01 7.46960E+01-7.34581E+01 5.42342E+01 2.70154E+02 1.01450E+02
 -1       214 1.25126E+01 2.09406E+01-1.98938E+01-6.72175E+00-1.37060E+00-1.61172E+01
 -1       215 1.23525E+01-1.41059E+00-8.86180E+00 2.03480E+01 9.02749E+00 2.82805E+01
 -1       216-1.12420E+01-1.90117E+00-5.18193E+00 2.86383E+00 2.20481E+01-1.21837E+01
 -1       217-3.83358E+01 1.26714E+02-7.44496E+01-4.14920E+00-2.63620E+01-3.11993E+01
 -1       218-1.53412E+03 1.71744E+03 1.87701E+02-1.87612E+02 2.54494E+03 1.36566E+03
 -1       219-1.04877E+03 2.97913E+02 5.65997E+02-4.04721E+01 2.35832E+02-2.19490E+02
 -1       220-2.29809E+02-5.35847E+01-1.04786E+02 5.02205E+01 1.08466E+02-3.01618E+02
 -1       221 5.92268E+01-1.84961E+01 3.37700E+01-5.76731E+01-1.01863E+02-1.22992E+02
 -1       222 2.24069E+01 8.40004E+00-5.58940E+01-1.21230E-01 1.27331E+02 5.38944E+01
 -1       223 1.71031E+01-3.55073E+00-1.87267E+01 7.36265E+00 3.21365E+01 2.10804E+01
 -1       224 9.33690E+00-5.10292E+00-5.19824E+00 9.02044E+00 9.20391E-01 9.79524E+00
 -1       225 5.46102E+00 3.12051E+00 1.52924E+01 1.64396E+01-2.13045E+01 3.60866E+01
 -1       226-6.45194E+01 5.86454E+00-8.72036E+00-7.45280E+00 8.34879E+00 5.81027E+01
 -1       227-1.77523E+02 3.77412E+01 8.85028E+01-2.26375E+01 9.71034E+00 6.67043E+00
 -1       228-2.29653E+02 2.09251E+02-2.23538E+01-2.50823E+01 1.64801E+02-3.45927E+02
 -1       229 2.56016E+03-2.16597E+03 2.94856E+02 2.56354E+02 1.81530E+03-3.11942E+03
 -1       230 1.22999E+02 1.50718E+02 1.71061E+02 5.00468E+01 7.12990E+01 6.78448E+01
 -1       231 3.04944E+00-6.21662E+01 1.16735E+02 1.01585E+02 1.03231E+02-2.45895E+02
 -1       232-1.46872E+01-8.86931E+01 6.67186E+01-3.73245E+01 1.66230E+02-7.78959E+01
 -1       233 9.03485E+00 2.46108E+02 1.96002E+02 6.84056E+00 9.61309E+01-4.56456E+02
 -1       234 2.22555E+03-2.79117E+03-4.54419E+02 3.68183E+02 3.58318E+03 1.68057E+03
 -1       235-2.24301E+02-2.58269E+01-1.64202E+02 6.71252E+00-4.36509E+02-7.19078E+01
 -1       236 2.06797E+02-1.50517E+02-5.74929E+01 1.63036E+02-1.60762E+02 1.87231E+02
 -1       237 1.70484E+01-1.18538E+01-4.96851E+00 1.06984E+02 1.10287E+01-2.68839E+01
 -1       238 3.26804E-01-1.70691E+01-1.63052E+01 1.40260E+02 3.23987E+01 4.79975E+01
 -1       239 1.48920E+02-2.53400E+02 1.01869E+02 1.70515E+02-1.82143E+02-1.52047E+02
 -1       240-1.41985E+02-1.82747E+02-1.68569E+02 5.14682E+01-4.28255E+01 6.48379E+01
 -1       241 9.81619E+01 6.98283E+01-1.27033E+02-1.45000E+01-1.96979E+02-1.71974E+02
 -1       242-1.36990E+01 4.22603E+01-1.18962E+01 1.37609E+02-2.97667E+01-3.56728E+01
 -1       243 3.29908E+01-1.37453E+01-4.42784E+00 9.46609E+01-1.53669E+01 2.61792E+01
 -1       244 2.18112E+01-4.52839E+01 9.31852E+00 8.55143E+01-1.15395E+01 1.83046E+01
 -1       245-5.28268E+00-5.74483E+01 2.15213E+01 6.64489E+01 2.23812E+01 4.01692E+01
 -1       246 1.06269E+02-5.98018E+01-1.30856E+02 8.20936E+01 1.74026E+02 1.07799E+02
 -1       247-1.35724E+02 4.97564E+01 1.65392E+02-4.19938E+01-5.81020E+01 1.32546E+02
 -1       248 3.06831E+01 4.43715E+01-2.57909E+01 9.64449E+01 1.51547E+00 4.28310E+01
 -1       249 5.90839E+00 3.33357E+01-1.48962E+01 5.91809E+01-1.76362E+01 1.30332E+01
 -1       250 8.02415E+00-1.41219E+01-5.02423E-01 5.04620E+01-1.19526E+01 2.86536E+01
 -1       251 1.66458E+01-5.14906E+01 2.19318E+01 3.92335E+01-2.78711E+01-1.76578E+00
 -1       252-1.41376E+01-7.10406E+01 5.36112E+01 1.39215E+01 4.88092E+00-4.40185E+01
 -1       253 1.68900E+02 1.74089E+02 2.21492E+02 9.58045E+00-2.74835E+02 5.59245E+01
 -1       254-1.62746E+02 3.05020E+02-1.09474E+02-2.98381E+01-2.50875E+02-1.68415E+02
 -1       255 3.60173E+01-3.84471E+00 4.40461E+00-3.59161E+00 4.22845E+01 4.73089E+01
 -1       256 6.62346E+00 1.03741E+01-3.08960E+00 2.37310E+01-1.72084E+01 6.19210E+00
 -1       257-3.49679E+01 5.36749E+00 1.47062E+01 1.37383E+01-3.25475E+01 5.12573E+01
 -1       258 5.24906E+01-1.29495E+01 2.17616E+01 1.43551E+01-4.58041E+01-1.12192E+01
 -1       259-2.62339E+03 3.44035E+03 2.10593E+02-5.05567E+02 4.19522E+03 2.15547E+03
 -1       260-3.79933E+01-3.13155E+02-2.07240E+02 6.43482E+01 1.17166E+02-3.44931E+02
 -1       261 5.54045E+01 1.17917E+02-1.18783E+02 8.40051E+01 2.13292E+02 8.64787E+01
 -1       262 8.83764E+00-1.70788E+01-1.01667E+01-1.31911E+01 7.79439E-01 5.43829E+00
 -1       263-1.51321E+01-1.40431E+01-3.99604E+01 8.29514E+00 1.37946E+01 7.23327E+01
 -1       264-4.65595E+02 3.44066E+02-1.97700E+01-7.43929E+01 2.61184E+02-5.69506E+02
 -1       265 3.20491E-04-5.54389E+03-4.48311E-03-3.11092E+02-8.65665E+02-3.12084E-03
 -1       266 4.26087E-04-6.72450E+03-2.05347E-03-1.94565E+02-1.65804E+03 5.78004E-03
 -1       267 5.50536E-05-8.41743E+03-2.42685E-03-7.02702E+01-2.39046E+03-4.54637E-03
 -1       268-9.28940E-04-9.55026E+03-4.02924E-03-8.45289E+01-2.39816E+03 3.12778E-03
 -1       269-1.47454E-03-1.06539E+04-6.75029E-03-1.36106E+02-2.12208E+03-6.33303E-05
 -1       270-1.48319E-03-1.14846E+04-6.79351E-03 2.74728E+01-2.84498E+03-1.44177E-03
 -1       271-1.62844E-03-1.19210E+04-6.22086E-03 1.93230E+02-2.54721E+03 8.39281E-04
 -1       272 4.77440E-04-1.22702E+04-9.12368E-03-1.44297E+02-1.59427E+03 1.89393E-03
 -1       273-8.16469E-04-1.32565E+04-5.43868E-03-3.14089E+02-1.96489E+03-1.13856E-03
 -1       274-5.67165E-03-1.34019E+04-6.81028E-03-7.13098E+01-3.77992E+03 4.34602E-03
 -1       275-4.40798E-03-1.26524E+04-6.48588E-03 7.72865E+01-2.49931E+03 2.64734E-03
 -1       276-3.05165E-03-1.02431E+04-3.30143E-03 2.32484E+02-3.21998E+03-1.16360E-02
 -1       277-2.48043E-03-7.45952E+03-1.75719E-03 3.00322E+02-1.93536E+03 8.89781E-03
 -1       278-5.33111E-04-3.62586E+03-9.48711E-04 4.03912E+02-4.58099E+02-9.85645E-03
 -1       279-3.44893E-04-8.43727E+01-3.47803E-03 5.21347E+02 1.66476E+03 7.64333E-03
 -1       280 9.98309E+01-4.56052E+03 1.97607E+02-1.00879E+03 9.28352E+02 4.37278E+02
 -1       281 1.25689E+02-6.64960E+03 9.12380E+02-1.38308E+03 5.52989E+02 1.58480E+01
 -1       282 1.60706E+02-8.93797E+03 1.26559E+03-1.02228E+03 1.45088E+02 1.58860E+02
 -1       283-1.75290E+02-1.00871E+04 2.40659E+03-1.95439E+02 3.02531E+02 1.25190E+01
 -1       284 4.71766E+02-1.17090E+04 2.52514E+03-7.94809E+02 2.56465E+02-3.83498E+02
 -1       285 6.07580E+02-1.02148E+04 1.15610E+03 1.70265E+03 5.21265E+02 6.92028E+01
 -1       286 2.13302E+02-5.75274E+03 6.28457E+02 3.02866E+03 6.06884E+02 4.14399E+01
 -1       287 2.21596E+02-7.50714E+02-1.15640E+02 3.05291E+03 7.20252E+02-2.40753E+02
 -1       288-5.12585E+01 2.81321E+02 3.95223E+02-1.17297E+03-1.41639E+03-2.13332E+02
 -1       289-2.01929E+01-4.33417E+02 1.10999E+03-2.08479E+03-2.09125E+03 9.94543E+00
 -1       290 2.37604E+02-1.34926E+03 1.82476E+03-2.78053E+03-1.78291E+03 1.00644E+02
 -1       291 3.15076E+02-2.99576E+03 2.17798E+03-2.41554E+03-1.97885E+03-5.04135E+02
 -1       292 4.58309E+02-4.15813E+03 2.53119E+03-2.01979E+03-1.27659E+03-1.27377E+02
 -1       293 7.59504E+02-5.44187E+03 3.67218E+03-1.27566E+03-1.64926E+03 2.31225E+02
 -1       294 1.28033E+02-6.98051E+03 4.81318E+03-6.43387E+02-2.30213E+03-6.89043E+01
 -1       295-4.81356E+02-8.88880E+03 4.93173E+03-1.30995E+03-3.27016E+03-6.02966E+02
 -1       296 1.90900E+03-8.61376E+03 5.05029E+03-6.04059E+02-2.47902E+03-9.79079E+01
 -1       297 2.39198E+03-6.33284E+03 3.68125E+03 1.61945E+03-2.20680E+03-2.13733E+01
 -1       298 1.82954E+03-4.21327E+03 2.31221E+03 3.53410E+03-2.87049E+03 6.78316E+01
 -1       299 1.29437E+03-2.50582E+03 1.78456E+03 4.48760E+03-1.83252E+03 1.05410E+02
 -1       300 6.11561E+02-1.16743E+03 1.25692E+03 5.40448E+03-2.19242E+03 2.06219E+02
 -1       301 3.33587E+02-2.75445E+02 5.12820E+02 5.15934E+03-1.17967E+03-5.34909E+01
 -1       302 3.88958E+02 1.34954E+02-2.31273E+02 4.73004E+03 6.99835E+02 1.90469E+02
 -1       303-1.42015E+03 5.94761E+03-7.74690E+02-1.97927E+03 2.81447E+02-4.78183E+00
 -1       304-4.50910E+02 3.98999E+03-8.74541E+02-4.52195E+03 1.24143E+02-1.53901E+02
 -1       305 1.56281E+03-9.96719E+02 4.11193E+02-3.41067E+03-1.77545E+02-2.46139E+01
 -1       306 1.31938E+03-2.66842E+03 1.29879E+03-1.27477E+03 2.45675E+02 6.76914E+02
 -1       307 3.15635E+03-3.83848E+03 1.07039E+03 2.24148E+03-3.60962E+02-1.35072E+03
 -1       308 3.13284E+03 9.90818E+02-1.01669E+03 5.91187E+03 4.26213E+02 5.93059E+01
 -1       309 6.95959E+02 3.14164E+03-9.30464E+02 5.48962E+03 7.49876E+02 7.11604E+01
 -1       310-5.70255E+02 2.14434E+03-3.92472E+02 3.76740E+03 1.06089E+03 2.55958E+02
 -1       311 1.06237E+03-7.37935E+02-2.38854E+01-3.80297E+02-8.35343E+01 1.05868E+03
 -1       312 2.33459E+02 1.93614E+03-9.84245E+02-2.80013E+03-3.12829E+02-2.15217E+02
 -1       313-2.05617E+03 5.96147E+03-1.94460E+03-3.85299E+03 2.50826E+02 5.57828E+02
 -1       314-2.59160E+03 7.50884E+03-2.75922E+03-3.88193E+03-5.74622E+02 2.26697E+02
 -1       315-1.55343E+03 8.20619E+03-3.57385E+03-5.51748E+03-2.31999E+02-1.59975E+03
 -1       316 1.32881E+03 1.97923E+03-2.64133E+03-6.33115E+03 3.28183E+01-1.66464E+03
 -1       317 2.90945E+03-8.99266E+02-1.70880E+03-4.68694E+03-6.45502E+02-1.15544E+03
 -1       318 2.81824E+03-1.08467E+03-1.96221E+03-2.86503E+03-5.62811E+02-4.45465E+02
 -1       319 2.34209E+03-9.01588E+02-2.21561E+03-1.41235E+03-2.05010E+03-1.78831E+02
 -1       320 3.88064E+03-2.15870E+03-2.90951E+03 3.88511E+03-2.16870E+03-6.64051E+02
 -1       321 5.53521E+03 7.11304E+01-3.62755E+03 5.81037E+03-8.44388E+02 1.75561E+03
 -1       322 3.07532E+03 5.51244E+03-4.34558E+03 8.08836E+03-6.79570E+02-5.71926E+01
 -1       323 8.32154E+02 6.47368E+03-3.73171E+03 6.80245E+03-8.57045E+02 6.28357E+02
 -1       324 1.89763E+02 6.03597E+03-3.11785E+03 5.60016E+03-3.47635E+02 1.21868E+03
 -1       325-9.88158E+02 4.16869E+03-1.83576E+03 4.04059E+03-8.89684E+02-6.23206E+02
 -1       326-1.66279E+03 2.74764E+03-5.53673E+02 2.36958E+03 9.49357E+02 1.16562E+02
 -1       327-5.93941E+02 3.92602E+02-5.96031E+01-1.73704E+02 5.22518E+02 1.30639E+03
 -1       328 3.81253E+02-1.78316E+03 4.34470E+02-2.90499E+03-9.39431E+02-6.06611E+02
 -1       329-1.75393E+03-1.86374E+02 9.47092E+02 1.86612E+03 3.17648E+02-1.70753E+02
 -1       330-1.28261E+03 4.56124E+03-1.28639E+03-1.81142E+03 1.90336E+02-5.86609E+01
 -1       331-2.51985E+03 1.06425E+04-2.20641E+03 2.76941E+02-1.07781E+02 1.05888E+03
 -1       332 1.54753E+02 8.38995E+03-3.16299E+03 6.93813E+03-3.05486E+03 6.69481E+02
 -1       333-2.60492E+03 8.58050E+03-1.93417E+03 3.30625E+03-7.18897E+02 6.41952E+00
 -1       334-2.68764E+03 1.96386E+03 5.07728E+02 1.30079E+02-7.58845E+02 5.50249E+01
 -1       335-3.34717E+03-1.17301E+03 1.91659E+03-4.91395E+03-6.70440E+02-4.71187E+02
 -1       336 3.78270E+03-9.32055E-05 2.79554E-03 3.43744E+02 5.21462E-03 1.70200E+02
 -1       337 3.24479E+03-1.87427E+02-1.11082E+02 1.47236E+03-3.25850E+02-5.57158E+02
 -1       338-2.78318E+02-2.83432E+02-2.22170E+02 2.14161E+03 4.85015E+01 8.74956E+02
 -1       339-4.62129E+03 6.09879E+02 8.47948E+02 2.41281E+03 4.31279E+02-7.94704E+02
 -1       340-5.05640E+03 1.13914E+03 1.91807E+03 3.25647E+03 4.94975E+01-5.33953E+02
 -1       341-3.57308E+03 1.45209E+03 6.44942E+02 1.94565E+03 6.85262E+01 5.30533E+02
 -1       342-5.89593E+02 2.15026E+03-6.28180E+02 3.48828E+02-4.55630E+02 1.17156E+02
 -1       343-3.38489E+02 2.63829E+03-7.33581E+02 1.69901E+03 2.20270E+03-1.71942E+03
 -1       344-2.04886E+03 3.16201E+03-8.38987E+02 4.10665E+03 3.04263E+03 6.19578E+02
 -1       345-2.07123E+03 5.50461E+03-1.98041E+03 6.74733E+03 9.23776E+02 1.45718E+03
 -1       346-3.96104E+03 6.98500E+03-1.36545E+03 5.53842E+03 2.67964E+03 1.85104E+03
 -1       347-5.91350E+03 7.98982E+03-7.50489E+02-1.57436E+03 2.33202E+03 1.13288E+03
 -1       348-3.97814E+03 2.91357E+03 4.09318E+02-2.79397E+03 1.76189E+03 8.54108E+02
 -1       349-3.57019E+03-7.25630E+02 1.56912E+03-1.95800E+03-5.18574E+02-3.18047E+02
 -1       350-6.11962E+03 1.60145E+02 2.48391E+03-3.73422E+03 3.91948E+01 4.80018E+01
 -1       351-8.50215E+03 1.36097E+03 3.39871E+03-5.03287E+03-4.81601E+02-1.17820E+02
 -1       352-8.27700E+03 1.23601E+03 1.26750E+03-5.79487E+02 3.76371E+02 3.00664E+02
 -1       353-1.74103E+02-1.33610E+02-8.63701E+02 1.73197E+03 1.55543E+01-3.20455E+03
 -1       354 6.95330E+03-1.91257E+02-4.31847E+02 6.70818E+02-4.83080E+02 5.57759E+02
 -1       355 8.98658E+03-6.43551E-04 3.15099E-03-1.45968E+02 7.64012E-04-2.58855E+03
 -1       356 5.47538E+03 2.14987E-04 1.25140E-03 2.38508E+02-6.83696E-03 1.31051E+03
 -1       357 2.02007E+02-1.92767E+02-6.76437E+02 2.44842E+03 3.25061E+01 1.69564E+03
 -1       358-5.31874E+03 6.21776E+02 2.57034E+03 3.65716E+03-5.48822E+02 7.89946E+02
 -1       359-3.24834E+03 1.89990E+03 4.18720E+02-5.42402E+02 9.12523E+02-1.78541E+03
 -1       360 4.54884E+03-6.84247E+03-3.24887E+02 1.83655E+03 1.44181E+02-1.66835E+03
 -1       361 2.18649E+03-4.06748E+03-2.82346E+02-7.09340E+03 2.68104E+03 9.59387E+02
 -1       362-4.03035E+03-1.70007E+02 1.49088E+03-7.28953E+02 2.31473E+03 1.93041E+03
 -1       363-8.02813E+03 1.40659E+03 3.42096E+03-4.24643E+03-3.03557E+02-6.82220E+02
 -1       364 4.24099E+02-3.73808E+01-1.15959E+03 1.16763E+03 1.14623E+02-2.36814E+03
 -1       365 8.23405E+03-3.16445E-04 2.14522E-03-1.43579E-01-2.29294E-03-2.42369E+03
 -1       366 7.32350E+03 2.32136E-03 1.40401E-03 1.55942E+02 5.64096E-03 2.09767E+03
 -1       367 5.63063E+03-2.11536E+02-5.65351E+02 1.46642E+03 2.06249E+02-4.21476E+02
 -1       368 9.37215E+02-5.51657E+02-1.13071E+03 2.60563E+03 2.55255E+02 2.12761E+03
 -1       369-3.33510E+03-9.39331E+02 1.04595E+03 3.34930E+03 2.94551E+01-6.10769E+02
 -1       370-5.76185E+03-8.32141E+02 3.22262E+03 4.37444E+03 1.21228E+03 3.35370E+02
 -1       371-7.69259E+03 9.44042E+02 2.34412E+03 3.30519E+03 3.87339E+01 7.35797E+02
 -1       372-7.01898E+03 3.32647E+03 1.46562E+03 1.20992E+02 8.24952E+02-2.04214E+03
 -1       373 3.71454E+03-3.38343E+03 8.27421E+02-4.22357E+03 2.83652E+02-1.84051E+03
 -1       374 6.40515E+03-6.00994E+03 2.20405E+02-4.38197E+02 1.27334E+03-2.83287E+03
 -1       375 1.76056E+03-6.35431E+02-3.58298E+02 4.60252E+01 1.56955E+02 5.89351E+02
 -1       376-1.21421E+02 3.19280E+02-1.69680E+01-5.31176E+01-1.12638E+01-8.70070E+01
 -1       377-7.75633E+01 1.81106E+02-1.14236E+02-1.15065E+02 4.65964E+01-1.95876E+02
 -1       378-6.41304E+01-1.02949E+02 7.21738E+01 1.59117E+02-4.71335E+01-7.76179E+01
 -1       379 9.06074E+01-1.00067E+02 2.20807E+01 3.01990E+01 1.59368E+00-1.91105E+02
 -1       380-5.67136E+01-1.63461E+02 4.15332E+01-1.38138E+02-3.33190E+01-2.72011E+02
 -1       381-8.72091E+01 2.60226E+02-7.77523E+01 1.20426E+02 6.42617E+01-2.13138E+02
 -1       382-1.53484E+02 4.62181E+02 1.34289E+01-7.58179E+00-6.29918E+01-3.65962E+02
 -1       383 1.43652E+03-8.36204E+02-3.02906E+02 3.24298E+02 3.21706E+02-1.13476E+03
 -1       384 5.89566E+03-7.06355E+03-1.98824E+01-1.13000E+03 3.42508E+03 1.01098E+03
 -1       385 5.71719E+03-5.13787E+03 7.99224E+02-4.88919E+02 1.49596E+03-5.99101E+02
 -1       386-4.52718E+03 2.21836E+03 1.41264E+03 1.49115E+03-1.16294E+03 2.55113E+03
 -1       387-1.02077E+04 1.64638E+03 2.42793E+03-1.72305E+03-1.21795E+03-6.38205E+02
 -1       388-6.19101E+03-4.27946E+02 3.44322E+03-4.57676E+03 1.12695E+03-4.91253E+02
 -1       389-2.84779E+03-4.22235E+02 9.93873E+02-1.77077E+03-1.25001E+01-2.08791E+02
 -1       390 1.05216E+03-2.69075E+02-1.45547E+03 7.71430E+02-4.04901E+01-1.56653E+03
 -1       391 5.89794E+03-1.18338E+02-7.27733E+02 5.93837E+02 3.21134E+02 4.72146E+02
 -1       392 7.67986E+03 1.57159E-03 2.42656E-03 1.21622E+02 9.94854E-04-2.18433E+03
 -1       393 8.54933E+03 3.00101E-03 2.44739E-03 3.87986E+01-6.63760E-03 2.81448E+03
 -1       394 1.80482E+03-1.33027E+03-1.32292E+03 1.53889E+03-6.57471E+01 1.48424E+03
 -1       395-5.06767E+03-1.74020E+03 3.40700E+03 5.07545E+03 3.01442E+02 6.18710E+02
 -1       396-5.75204E+03 1.90296E+03 1.60712E+03 5.49915E+03 1.83078E+03-2.16967E+03
 -1       397 7.52530E+02-1.40927E+03 3.66421E+02 2.53602E+02-1.02611E+03-2.64406E+02
 -1       398-2.84956E+02-8.77854E+01 3.08459E+01 2.34112E+02-1.17337E+02 2.09543E+02
 -1       399 3.07220E+01-3.73134E+01 5.50989E+00 4.77714E+01 3.64112E+00-1.92793E+01
 -1       400 1.27174E+01-5.18647E+01 2.30635E+01 3.92875E+01 1.80580E+01 2.48467E+00
 -1       401-2.76716E+02-1.25367E+02-7.20965E+00-1.60330E+02-1.48274E+02-1.92566E+02
 -1       402 6.39474E+02-1.94272E+03 4.70219E+02 1.03242E+02-5.66289E+02 1.35515E+02
 -1       403-8.51731E+02-1.81984E+03 1.88541E+03-3.44314E+03 8.23809E+02-1.45019E+02
 -1       404 2.54981E+03-8.90779E+02-1.64999E+03 1.29975E+03-5.13674E+00-1.21329E+03
 -1       405 6.39761E+03 2.13391E-03 3.05247E-03 1.50748E+02 2.25004E-03-1.83934E+03
 -1       406 9.26892E+03 7.69213E-03 2.56259E-03-1.60600E+02 2.55081E-03 1.43043E+03
 -1       407 7.16871E+03-6.40314E+02-7.57566E+02-4.75172E+00 6.75684E+02-6.49543E+02
 -1       408 2.89951E+03-2.30871E+03-1.51514E+03 4.58667E+02-3.99492E+01 2.36583E+03
 -1       409 2.49961E+01-3.60571E+03 1.03812E+03 2.97901E+03 1.65829E+02-1.05662E+02
 -1       410-3.13551E+03-3.93188E+03 3.59138E+03 5.64680E+03-3.41447E+02 2.13704E+02
 -1       411-6.01029E+03-1.10504E+03 2.67000E+03 5.88660E+03 1.87238E+02 2.61505E+03
 -1       412-3.97513E+03 9.41084E+02 1.74862E+03 6.37553E+03 7.93200E+02-3.90196E+02
 -1       413-4.30100E+02 1.39111E+02-5.11136E+01-4.41698E+00-3.65901E+02 5.19809E+01
 -1       414 1.08206E+02 2.70145E+02-1.99439E+01-1.44578E+02-2.13636E+02 1.42085E+02
 -1       415 2.87332E+02-2.22498E+02-1.60147E+01 1.03144E+02 7.18956E+01-1.38330E+02
 -1       416-5.95564E+01-7.68766E+01 1.85576E+01 1.34664E+02 3.38005E+01-4.24103E+01
 -1       417-1.42764E+00 7.53833E+00-3.82176E+00 4.07548E+01 3.96305E+00 3.91161E+01
 -1       418 3.94769E+01 2.47419E+01-3.92693E-01 6.47724E+01-3.61044E+00 1.06789E+01
 -1       419-8.11052E+00 1.47695E+01-4.94666E+00 8.91270E+01 7.90288E+00-1.30400E+00
 -1       420-5.71132E+01-1.11038E+02 3.73098E+01-4.33998E+00 6.96514E+01 6.66976E+01
 -1       421 2.24068E+02-3.26605E+02 5.20950E+01 1.11364E+02 1.75114E+02 9.45598E+01
 -1       422 9.35985E+01 2.94027E+02-5.36063E+01 2.40439E+02-2.11769E+02-1.12106E+02
 -1       423-3.24438E+02 1.08036E+02-2.52390E+01-6.45950E+01 1.21284E+02-4.94061E+00
 -1       424 1.43067E+03-1.37523E+03 3.27610E+02-2.35692E+03 3.50397E+02-1.56476E+03
 -1       425 2.24697E+03-1.10958E+03-7.58454E+02-5.15364E+02-5.83237E+02-3.35494E+02
 -1       426 3.85826E+03-9.57014E+02-1.84451E+03 2.21430E+03-1.59704E+02-7.02774E+02
 -1       427 4.57247E+03-3.10378E+02-9.22254E+02 1.54752E+03 2.51164E+01 8.92252E+01
 -1       428 4.88918E+03-3.42141E-04 1.68651E-03 2.53317E+02-2.05984E-05-4.21469E+02
 -1       429 7.27564E+03 1.00153E-02 2.98913E-03-1.74549E+02 3.08801E-03 2.30700E+03
 -1       430 5.26169E+03-3.98377E+03-1.61576E+03-1.76734E+03 1.61444E+02 7.96719E+02
 -1       431 1.08819E+03-5.60295E+03 2.08951E+03 3.57735E+03 1.71033E+03 1.45890E+03
 -1       432-2.12117E+02 7.49099E+01 4.63377E+01 1.31419E+02-2.36598E+02-4.49378E+01
 -1       433 8.19798E+01 5.53590E+01-3.01784E+01-8.70280E+00 3.72212E+01-4.60222E+01
 -1       434 1.64360E+01-1.22915E+01-2.39865E+00 6.53991E+01-7.67769E+00 3.01270E+01
 -1       435 7.27614E+00-2.79467E+01 6.40230E+00 4.41142E+01-3.74478E+00 1.95704E+01
 -1       436 6.94590E+01 4.22075E+01-3.58153E+00 1.35989E+02 5.26359E+01 5.27921E+01
 -1       437-1.52320E+02 4.95619E+01 1.07312E+02-1.35292E+02 1.75123E+02 3.35116E+01
 -1       438 2.37737E+03 6.03572E+01-1.38147E+03 3.10975E+03-9.51507E+02-7.41596E+02
 -1       439 3.02876E+03 9.17156E-05 2.55571E-03 2.42870E+02 3.19137E-03-3.57625E+02
 -1       440 4.09898E+03-2.19444E-03-2.12355E-03-4.44914E+02 6.35713E-04-1.69342E+03
 -1       441 5.30666E+03-1.61085E+03-8.58187E+02-3.98920E+03-5.28461E+02 1.95993E+02
 -1       442 7.11875E+03-4.36998E+03-1.71637E+03-5.57425E+03-4.60337E+02 9.29435E+02
 -1       443 5.98102E+03-3.87935E+03-5.64373E+02 6.02905E+02-1.39003E+03 2.66257E+02
 -1       444 3.63446E+03-3.60760E+03 5.87636E+02 2.71516E+03-8.85131E+02 1.71543E+03
 -1       445 1.98617E+02 1.01614E+02-5.66218E+01-9.04130E+01-3.33717E+02 5.30892E+01
 -1       446 4.14221E+01-1.30787E+01-5.83618E+00 3.27969E+01-7.16442E+01-1.82356E+01
 -1       447-4.66915E+01 4.19398E+01-1.63437E+01 8.25425E+01-5.31336E+01 8.21743E+00
 -1       448 2.52003E+01 8.72360E+00-1.42146E+01 5.28206E+01-3.14744E+01 2.45794E+01
 -1       449 1.86344E+01-8.58600E+00-6.91440E-01 4.78369E+01-1.63973E+01 1.99461E+01
 -1       450 7.24866E+00-1.85648E+01 1.70288E+00 4.63063E+01-1.19112E+01 2.38523E+01
 -1       451 1.25315E+01-2.29153E+01 4.33876E+00 4.43553E+01-1.02841E+01 3.15812E+01
 -1       452 1.73058E+01-2.72154E+01 4.55880E+00 4.91223E+01-2.02270E+01 1.66828E+01
 -1       453-2.94269E+01-1.43761E+01 7.50288E+00 1.86320E+01-3.53345E+01 1.63165E+01
 -1       454 4.29664E+01-7.73270E+01 1.20887E+01 3.92344E+01 9.62510E+00 1.65804E+01
 -1       455 1.59566E+02 4.86657E+01-7.19367E+01 1.43275E+02 7.43876E+00-7.44803E+01
 -1       456 7.15204E+02 7.92467E+02-9.18430E+02 2.69435E+03-4.65650E+02-2.12579E+02
 -1       457 1.04987E+03 3.05505E+02-4.59214E+02 1.41194E+03-5.48149E+01 8.14389E+01
 -1       458 1.38454E+03-3.60093E-04 1.37631E-03 9.18583E+01 5.78928E-05-5.94583E+02
 -1       459-5.77386E+02-1.95319E-04-3.73567E-04-8.48589E+02 1.30766E-02-1.00184E+02
 -1       460-4.14490E+02 6.33371E+01 2.01929E+02-9.59988E+03-3.81308E+03-1.43326E+02
 -1       461-6.12976E+00 5.55415E+01-1.01318E+01-5.88053E+00-2.57687E+02-1.82097E+01
 -1       462 4.11621E+00 3.29234E+01-4.24574E+00 8.80749E+01-4.27237E+01 6.11093E+00
 -1       463 8.98284E+00 3.98437E+00-6.14945E+00 3.70492E+01-7.22164E+00 2.50328E+01
 -1       464 9.15872E+00-1.32163E+01 3.16666E+00 3.82125E+01-8.00634E+00 3.09173E+01
 -1       465-7.70249E+00-4.65571E+01 5.68656E+00 1.31002E+01-1.72564E+01 1.34002E+01
 -1       466 4.30426E+01-8.10803E+01 1.03203E+00 2.25260E+01 4.39278E+01-1.43122E+01
 -1       467-1.85878E+02 9.96083E+02-3.32407E+02 1.77215E+03-3.43203E+02-2.62775E+02
 -1       468 1.64114E+02-2.60835E-03 6.14950E-04 9.41590E+01 5.24718E-04 8.98216E+01
 -1       469-5.25506E+03 1.71855E-03 1.74649E-03-4.63689E+02 7.68200E-04 1.52427E+03
 -1       470-6.29984E+03 1.67209E+03 1.06012E+03-3.93288E+03-5.50587E+02-1.68443E+02
 -1       471-7.81774E+03 4.61971E+03 2.12023E+03-5.38905E+03-4.56710E+02-1.21077E+03
 -1       472-6.23715E+03 4.20564E+03 5.99994E+02 8.69698E+02-1.54984E+03-2.71404E+02
 -1       473-3.71030E+03 4.02735E+03-9.20254E+02 2.89954E+03-1.00401E+03-1.90008E+03
 -1       474-2.10403E+02-7.61173E+01 5.81194E+01-1.37921E+02-2.82939E+02-9.57747E+01
 -1       475-4.59240E+01 9.13324E+01-2.62276E+01 1.18310E+01-4.41520E+01 1.98841E+01
 -1       476 5.51278E+01-9.14364E-02 1.20704E+00 7.00020E+01-6.28898E+01 4.00742E+00
 -1       477-9.27390E+00 2.04413E+01-1.79370E+00 2.62805E+01-3.00828E+01 1.26835E+01
 -1       478 1.57361E-01 1.82259E+01-1.01654E+01 3.18092E+01-1.58877E+01 2.94173E+01
 -1       479 1.02643E+01 7.42057E+00-4.93227E+00 2.96538E+01-1.59005E+01 2.90506E+01
 -1       480 4.05758E+00-7.90127E+00 5.41550E-01 2.75915E+01-1.73107E+01 2.71003E+01
 -1       481-2.01102E+00-1.86652E+01 7.33210E+00 2.05710E+01-2.12410E+01 2.59302E+01
 -1       482 2.27680E+01-3.41407E+01 1.15639E+01 2.06762E+01-2.15824E+01 1.73040E+01
 -1       483-1.55225E+00-1.80877E+01 6.65761E+00 1.86186E+01-2.45845E+01-6.64440E-01
 -1       484-5.08143E+01-5.43443E+01 3.55153E+01 9.74536E+00 1.50360E+01 1.31397E+01
 -1       485-4.12362E+02 4.14711E+02-1.26408E+02-4.32861E+02-7.04600E+01 2.02030E+02
 -1       486-6.53823E+02 4.53932E+02 6.36049E+01-1.33429E+02-1.60221E+02 6.52017E+01
 -1       487-8.55835E+02 7.30327E+02 2.53617E+02 5.91749E+02-1.44574E+02 2.74693E+02
 -1       488-8.20788E+02 2.40655E+02 1.26809E+02 4.78108E+02 1.63142E+02-6.33800E+01
 -1       489-8.05466E+02-1.55741E-03 1.11871E-03 8.80132E+01 1.28217E-03-2.69095E+02
 -1       490-8.26817E+03-1.06783E-02-3.47542E-03-1.65296E+02 3.01928E-03-2.60685E+03
 -1       491-5.78332E+03 4.26505E+03 1.87861E+03-1.35396E+03 1.49499E+02-9.22996E+02
 -1       492-1.25459E+03 6.24217E+03-2.35971E+03 3.96494E+03 1.84528E+03-1.51502E+03
 -1       493 1.64375E+02-6.54602E+01-7.98046E+01 1.94378E+02-6.27247E+01 2.22509E+01
 -1       494-6.83886E+01-6.20649E+01-3.28087E+00-7.62380E+01 5.82377E+01 5.32111E+01
 -1       495 9.91000E+00 2.63189E+01-9.76504E+00 2.63032E+01-1.18060E+01 1.61235E+01
 -1       496 1.30337E+00-6.42472E+00 2.24168E-01 1.22412E+01-3.92511E+00 2.98742E+01
 -1       497-8.27407E+00-2.00326E+01 1.29047E+01 3.19422E+01-2.07823E-01 6.12102E+00
 -1       498 3.70692E+01-2.48871E+01-6.92280E+00-1.86290E+01 2.07528E+01-9.69049E+00
 -1       499-2.99936E+01 6.28995E+02-3.02632E+02-5.39132E+02 2.18907E+02 1.53382E+02
 -1       500-6.27542E+02 4.48979E+02 2.34632E+02 1.60324E+02 1.99727E+01 1.71825E+02
 -1       501-1.11063E+03-1.06858E-03-4.34067E-04 3.61290E+01 4.47439E-04 2.89643E+02
 -1       502-9.99217E+03-8.41152E-03-2.90855E-03-1.30812E+02 3.16332E-03-1.50086E+03
 -1       503-7.76678E+03 7.09502E+02 8.18493E+02 3.46217E+02 6.36231E+02 6.91190E+02
 -1       504-3.25657E+03 2.53187E+03 1.63699E+03 1.09529E+03-6.69698E+01-2.48620E+03
 -1       505-2.74122E+02 4.07089E+03-1.08108E+03 3.63545E+03 2.11444E+02 7.53594E+01
 -1       506 3.00613E+03 4.53607E+03-3.79916E+03 6.33276E+03-3.60785E+02-2.62781E+02
 -1       507 6.09970E+03 1.44603E+03-2.91348E+03 6.39021E+03 1.31705E+02-2.71780E+03
 -1       508 4.02801E+03-7.97865E+02-2.02781E+03 6.69282E+03 6.67771E+02 4.25648E+02
 -1       509 3.79855E+02-1.71739E+02 1.49909E+02 1.20987E+02-1.11962E+02-2.62114E+01
 -1       510-1.03967E+02-3.79473E+02 9.85423E+01-2.17278E+02-2.86722E+02-1.28812E+02
 -1       511-2.56814E+02 4.05071E+02-8.56063E+01-4.74053E+01 1.95395E+02 1.11945E+02
 -1       512 7.48723E+01 1.27083E+02-5.70212E+01 9.60399E+01 7.33220E+01 8.08767E+01
 -1       513 3.35499E+01-4.15285E+01 6.45017E+00-1.83824E+01 3.73408E-01 4.96417E-01
 -1       514-1.11588E+01-2.36426E+01-4.29434E-01-6.35597E+00-7.30948E+00 1.30358E+01
 -1       515 1.69031E+00 1.56780E+01-4.07071E+00 1.55544E+01-1.16364E+00 3.04423E+01
 -1       516 1.80951E+01 1.31528E+01-1.21883E+00 3.86146E+00-4.36580E+00 9.66115E+00
 -1       517-5.22976E+01 2.26266E+01 1.20414E+01 1.22111E+00-6.19411E+00-1.17822E+01
 -1       518-1.62917E+01-5.57904E+01-2.89118E+00 4.07824E+01-4.73193E+01 3.28156E+01
 -1       519 9.10038E+01-2.45185E+01-2.19877E+01 1.62236E+01-3.52490E+01 2.99671E+00
 -1       520 6.15746E+02-2.22245E+02-2.51205E+02-8.54613E+02 1.48143E+02-9.52920E+01
 -1       521 9.50936E+02 1.64839E+01-3.65031E+02-7.47123E+02 7.40614E+01 3.45658E+02
 -1       522 6.14133E+02 3.37009E+02-4.78857E+02-7.43208E+02-2.15273E+01 1.99852E+01
 -1       523 1.41577E+02 3.54542E+02-1.31605E+02-4.12380E+02 2.21537E+01-2.10579E+01
 -1       524-3.58991E+02 2.34161E+02 2.15647E+02-8.19644E+01 1.80219E+01 3.12873E+02
 -1       525-1.00188E+03 7.36058E+01 1.07823E+02-1.63796E+01 7.54155E+01-6.58613E+01
 -1       526-1.28075E+03-7.93460E-04-4.07246E-04 1.71366E+01 1.10953E-04 2.82094E+02
 -1       527-8.78212E+03-3.54986E-03-2.49693E-03 8.31936E+01-7.94537E-03-2.91349E+03
 -1       528-2.07180E+03 1.56206E+03 1.34970E+03 2.36620E+03-9.57120E+00-1.48607E+03
 -1       529 4.87490E+03 2.05988E+03-3.49934E+03 5.77052E+03 3.50830E+02-6.77666E+02
 -1       530 5.68958E+03-1.59253E+03-1.61602E+03 5.71302E+03 1.98192E+03 2.14113E+03
 -1       531-7.31508E+02 2.38070E+03-7.30814E+02-1.41171E+02-9.57961E+02 2.12778E+02
 -1       532 3.21094E+02 1.49936E+02 3.91014E+01 2.67210E+02-1.93482E+02-2.20536E+02
 -1       533-6.20676E+00 5.89929E+01-3.78886E+01 1.29466E+01 2.50972E+01 2.23651E+01
 -1       534 9.94648E+00 2.43355E+00 1.18614E+00 1.10001E+01-8.71086E+00 1.80506E+01
 -1       535 5.20849E+01 1.13500E+01-1.56811E+01-2.42493E+01-2.04684E+01 5.56867E+01
 -1       536-1.37566E+02 2.14801E+02-2.05058E+01-5.54336E+01-1.46629E+02-4.61976E+01
 -1       537 9.06842E+02-4.26661E+02-1.92608E+02-7.46100E+02 2.33289E+02-3.34694E+02
 -1       538 8.56130E+02 5.76218E+01-4.78136E+02-6.30824E+02 5.12256E+01 8.87896E+01
 -1       539-2.03584E+02 1.05285E+02 1.99826E+02-1.62082E+02-1.76801E+01 2.27756E+02
 -1       540-1.21140E+03-2.26207E-04-3.69675E-04-4.74434E+00-6.86661E-04 3.97979E+02
 -1       541-7.00409E+03-2.78611E-03-1.22897E-03 2.24140E+02 6.73935E-03-1.89270E+03
 -1       542-5.41673E+03 2.91651E+02 5.31200E+02 2.05118E+03 1.38142E+02 4.47750E+02
 -1       543-1.10668E+03 7.92501E+02 1.06240E+03 3.62273E+03 2.42732E+02-2.09161E+03
 -1       544 2.96713E+03 1.29173E+03-1.06856E+03 4.15594E+03 1.16635E+02 6.83907E+02
 -1       545 5.39617E+03 1.16717E+03-3.19953E+03 5.01066E+03 1.48507E+03-4.01713E+02
 -1       546 7.36006E+03-1.10393E+03-2.20189E+03 3.79947E+03-1.84715E+02-6.45356E+02
 -1       547 7.16281E+03-4.36376E+03-1.20424E+03 4.00061E+02 5.63290E+02 2.18901E+03
 -1       548-3.09891E+03 4.50335E+03-1.08434E+03-4.59026E+03 2.01107E+03 1.12079E+03
 -1       549-6.21603E+03 8.71173E+03-6.11704E+02-1.50991E+03 3.61605E+03 1.91278E+03
 -1       550-1.69378E+03 1.04861E+03 2.02594E+02-4.10384E+02 3.33194E+02-1.10894E+03
 -1       551 1.53336E+02-5.91408E+02 1.10202E+02 6.06628E+01-5.69321E+01-2.19432E+02
 -1       552 1.03016E+02-3.16491E+02 1.29573E+02-1.22193E+02 8.23957E+01-1.61537E+01
 -1       553 9.48043E+01 2.31030E+02-1.06345E+02 1.71209E+02-5.85849E+01-8.43714E+01
 -1       554-4.29608E+01 7.49843E+01-2.53925E+01-3.85471E+00 3.00292E+00-2.82377E+00
 -1       555 9.91359E+00-2.98304E+01 1.14842E+01-3.62959E+01 2.59802E+00 6.85490E+01
 -1       556 2.55273E+01-4.46387E+01 1.69199E+01 2.49798E+01 6.94287E+00 3.47270E+01
 -1       557 3.14460E+01-3.39550E+01-3.23383E+01 2.63880E+01-1.20796E+01 4.65150E+01
 -1       558-3.21212E+02 1.00386E+02 1.00718E+02-2.09540E+01 1.85002E+01 1.41678E+02
 -1       559-1.21105E+03 8.14540E+02 1.07901E+02-2.03533E+02 2.36521E+02-4.71447E+02
 -1       560-8.68008E+02 4.17624E+02 1.45674E+01 3.62943E+02 2.33328E+02-1.74346E+02
 -1       561 1.05895E+03-6.85846E+02-1.34012E+02 4.78462E+01 2.37028E+01-3.33153E+02
 -1       562 1.23618E+03-2.89610E+02-3.05714E+02-3.92576E+02-2.20781E+01 7.39418E+01
 -1       563 9.48110E+02-1.04090E+01-4.77416E+02-5.16161E+02 1.57704E+02 6.73046E+01
 -1       564 5.87844E+02 2.36159E+01-1.46706E+02-3.54856E+02-1.01672E+00-7.19362E+01
 -1       565-8.65760E+01 5.53759E+00 1.84003E+02-2.40716E+02 2.68836E+01 3.16442E+02
 -1       566-8.38167E+02 4.61380E+00 9.20014E+01-1.33436E+02 2.42325E+01-6.51796E+01
 -1       567-1.10205E+03-2.09163E-04-2.26388E-04-1.52176E+01 6.02076E-04 3.34139E+02
 -1       568-4.37390E+03-7.32533E-04-9.14829E-04 3.17678E+02-8.23018E-03-8.87990E+02
 -1       569-2.52230E+02 4.02396E+02 4.94506E+02 3.61406E+03 2.65794E+01-1.37116E+03
 -1       570 4.53983E+03-3.32784E+02-2.19739E+03 3.86054E+03-7.02995E+02-7.27277E+02
 -1       571 3.38977E+03-2.60188E+03-3.42069E+02-4.52870E+02 1.98519E+03 1.33201E+03
 -1       572-3.14452E+03 5.33982E+03 2.71029E+02 2.24462E+03 1.09160E+03 1.75355E+03
 -1       573-6.89281E+02 4.41516E+02 1.56253E+02-5.93315E+02 1.42238E+02-2.26431E+02
 -1       574 5.55240E+02-3.52618E+02-7.63894E+01 1.46745E+02 2.30864E+02-3.15593E+02
 -1       575 9.30767E+02-1.96940E+02-4.03214E+02-4.32049E+02-7.79745E+01 1.05255E+02
 -1       576-8.78849E+00-1.62414E+01 1.24740E+02-1.84134E+02 1.64745E+01 2.94979E+02
 -1       577-9.44194E+02 7.29110E-05-2.30767E-04-2.09496E+01-7.06360E-04 2.48479E+02
 -1       578-1.88574E+03-4.36174E-04-2.84521E-03 4.33014E+02 6.68508E-03 7.83807E+02
 -1       579-1.91162E+03 2.48630E+02-3.66971E+01 2.20919E+03-2.35509E+02 6.23269E+02
 -1       580 2.75454E+02 4.89580E+02-7.33877E+01 3.38923E+03 6.79318E+01-1.11101E+02
 -1       581 3.29794E+03-4.21297E+02-6.34314E+02 3.15915E+03 5.07850E+02 9.52544E+02
 -1       582 3.83200E+03-1.29011E+03-1.19524E+03 3.07498E+03 3.34529E+02 5.67729E+02
 -1       583 2.85292E+03-1.64740E+03-3.37567E+02 1.42466E+03-1.82348E+01-5.93436E+02
 -1       584 8.82609E+02-2.11242E+03 5.20105E+02-3.35220E+02-2.41489E+02-3.28061E+02
 -1       585 2.58053E+03-5.20842E+03 1.01329E+03 3.28311E+02 2.38276E+03 1.82043E+03
 -1       586 5.31444E+03-9.12588E+03 1.50648E+03-6.93029E+02 2.42952E+03 3.72352E+02
 -1       587 3.08980E+03-7.07777E+03 1.72439E+03-6.32941E+03 2.70125E+03 1.66223E+03
 -1       588 1.05115E+03-4.76068E+03 1.94230E+03-6.00187E+03 2.59074E+02 1.44145E+03
 -1       589 6.84902E+01-4.99410E+02 2.19874E+02 6.13369E+02 7.94209E+00-1.27526E+02
 -1       590 2.62763E+02-6.69166E+02 1.84615E+02 6.51817E+02 2.68069E+02-1.84040E+02
 -1       591 5.86122E+02-8.93905E+02 1.49357E+02 4.23934E+01 2.58229E+02-8.41962E+01
 -1       592 2.68143E+02-4.24025E+02 6.52951E+01-2.71125E+01 1.61712E+02-2.75319E+02
 -1       593 1.72940E+02-1.27088E+02-1.87665E+01 4.41777E+01-3.92879E+01 5.45968E+01
 -1       594 6.42133E+02-1.64019E+02-1.73889E+02-2.32574E+02-3.56404E+01 6.33607E+01
 -1       595 9.20736E+02-2.59512E+02-3.29013E+02-4.46579E+02 4.48027E+00-4.89035E+01
 -1       596 8.47577E+02-1.65743E+02-1.31768E+02-1.86310E+02 6.28962E+01-7.50253E+01
 -1       597 4.14526E+01 1.60926E+01 6.54764E+01-1.08979E+02-1.18443E+01 2.31614E+02
 -1       598-6.58751E+02 2.18808E+01 3.27377E+01-9.79650E+01-7.15985E+01-7.04105E+01
 -1       599-8.19443E+02 1.82821E-04-4.32215E-04-3.47651E+01 5.28021E-04 1.77071E+02
 -1       600 1.14546E+03 1.65994E+01-5.71986E+02 9.86330E+02 8.45434E+02 2.43990E+02
 -1       601 1.07927E+03-5.82033E+03 1.81229E+03-2.59655E+03-4.64665E+02-2.51400E+02
 -1       602 2.25490E+03-1.02154E+04 2.54640E+03-3.71942E+03-3.82190E+02-4.55077E+02
 -1       603 8.04846E+02-7.20750E+03 2.28476E+03-4.99218E+03-2.28438E+03 4.36855E+02
 -1       604 3.02192E+01-7.45414E+02 2.53105E+02 5.87188E+02-2.57494E+02-3.17131E+01
 -1       605 2.05367E+02-9.15552E+02 2.32078E+02 4.55546E+02-5.21975E+01 8.01166E+01
 -1       606 1.57444E+02-3.72573E+02 7.46983E+01 2.38762E+02-7.39428E+01 1.30599E+01
 -1       607 3.22433E+02 2.05987E+01-1.55071E+02-4.12881E+02-3.71791E+00 7.49388E-01
 -1       608-1.26038E+03 9.92016E+02 5.12743E+01-1.98648E+03-6.32235E+02-1.07118E+03
 -1       609-4.48679E+02-3.05030E+03 1.57788E+03-4.04588E+03-1.70627E+02-3.09765E+02
 -1       610 1.93427E+03-8.25264E+03 3.10448E+03-4.21571E+03 7.93778E+01-3.25649E+01
 -1       611 1.51549E+03-7.71506E+03 3.34540E+03-3.87383E+03-7.94302E+02-6.18219E+02
 -1       612 1.82997E+02-7.05328E+03 3.58632E+03-4.21763E+03-3.82059E+02 5.37906E+02
 -1       613 1.05382E+03-6.99241E+03 3.10677E+03-4.65883E+03-1.23956E+03 9.71772E+02
 -1       614 2.05273E+03-7.35662E+03 2.62722E+03-5.33491E+03-1.32223E+03-6.74823E+02
 -1       615 1.60785E+02-7.12545E+02 2.86335E+02 7.08847E+02-1.78513E+02 9.82355E+01
 -1       616 4.67285E+01-6.16256E+02 3.00568E+02 6.32053E+02-1.43077E+02-1.19512E+02
 -1       617-7.21663E+01-5.61087E+02 3.14800E+02 5.81467E+02-2.26887E+01-8.58247E+01
 -1       618 6.51996E+01-5.26521E+02 2.41482E+02 4.78521E+02-9.01182E+01 8.53829E+01
 -1       619 1.61917E+02-5.14674E+02 1.68163E+02 4.09101E+02 4.49392E+01-2.50081E+01
 -1       620-4.34101E+01-1.73514E+02 9.35174E+01 1.86711E+02 2.28431E+01-8.56077E+01
 -1       621-1.57763E+02 1.36351E+02 1.88709E+01-1.60953E+02-1.51156E+02 8.24236E+01
 -1       622 1.28605E+03-7.33461E+03 1.12775E+03-1.21997E+03 8.23417E+02 5.19524E+02
 -1       623 8.46606E+01-4.27194E+03 1.16196E+03-2.70774E+03-2.25065E+02 1.42357E+02
 -1       624-2.33823E+02-8.86240E+02 4.28963E+01-4.67851E+03-5.39756E+02-5.61748E+02
 -1       625-1.01000E+02 2.84848E+01-1.59536E+01 6.63401E+02-9.28140E+01 5.45272E+01
 -1       626-7.53196E+01-2.82786E+02 1.07157E+02 4.75390E+02-1.66044E+01-2.78150E+01
 -1       627 6.93785E+01-4.05315E+02 6.81949E+01 3.21234E+02 1.29206E+02-5.71027E+01
 -1       628-2.09607E+02 1.18036E+02-8.48967E+02-3.49081E+02-2.46184E+03-2.62113E+01
 -1       629 1.15097E+02 1.55375E+02-1.05569E+03-9.14650E+02-2.39573E+03 1.51057E+02
 -1       630-2.51362E+02 3.71189E+02-1.26241E+03-1.43797E+03-2.37214E+03 9.70587E+00
 -1       631-1.93824E+03 2.70191E+03-1.90192E+03-1.21706E+03-1.94773E+03 1.30120E+01
 -1       632-2.90738E+03 6.00784E+03-2.54143E+03 4.72484E+02-2.96218E+03-4.73395E+02
 -1       633-1.05795E+03 4.62171E+03-2.42764E+03 4.11652E+03-1.44856E+03-1.66633E+03
 -1       634 1.43898E+03 2.06184E+03-2.31385E+03 4.03860E+03-8.24422E+02-6.03346E+02
 -1       635 1.90724E+03 1.06052E+03-1.52342E+03 2.18164E+03-1.03888E+03-3.23340E+02
 -1       636 1.17765E+03 6.64977E+02-7.32991E+02 5.13087E+02 1.63859E+02-3.24623E+02
 -1       637 3.34075E+02 6.60503E+02-5.25616E+02-5.58532E+00-2.36552E+02 1.78874E+02
 -1       638-2.64602E+02 7.27772E+02-3.18242E+02 8.59039E+01-3.39400E+02 4.14882E+01
 -1       639-2.79757E+02 3.62330E+02-2.09364E+02 3.20191E+02-1.85619E+02-1.51133E+01
 -1       640-9.00487E+01 8.78631E+01-1.00485E+02 3.88614E+02-2.18085E+02-3.90756E+00
 -1       641-3.75847E+01 4.11435E+01-6.61293E+01 3.68252E+02-1.52591E+02-8.58551E+00
 -1       642-6.38285E+01 2.99941E+01-3.17734E+01 3.34549E+02-6.33998E+01-4.83085E+00
 -1       643-2.91993E+02 6.04923E+03-4.24480E+02-6.30822E+02 4.22757E+02-7.12835E+02
 -1       644-7.11351E+01 6.97073E+03-6.31203E+02-7.40745E+02 7.50328E+02 4.26913E+02
 -1       645-1.11311E+03 8.00153E+03-1.27071E+03 1.29113E+03 4.14504E+02-3.65880E+01
 -1       646 6.83879E+02 3.02126E+03-1.15693E+03 2.12109E+03 3.15043E+02-4.15051E+02
 -1       647 3.52738E+02 8.36501E+02-3.66494E+02 3.50064E+02-4.12832E+01 3.92610E+02
 -1       648-9.29653E+01 9.32705E+02-1.59121E+02-6.93147E+01 6.83790E+01 1.07378E+02
 -1       649-2.62768E+01 6.39216E+02-5.02424E+01 2.16546E+02 7.89440E+01-3.47679E+01
 -1       650-3.93621E+01 2.79572E+02-1.58864E+01 2.43092E+02 5.29267E+01 4.44966E+01
 -1       651-1.89665E-03 7.41608E+03 2.65570E-03-3.33283E+02-1.75196E+03 2.36999E-03
 -1       652-7.92912E-04 8.37183E+03 1.95301E-03-1.34282E+02-2.28163E+03-4.20607E-03
 -1       653 4.09957E-03 9.51938E+03 3.47133E-03-1.64587E+01-2.83134E+03 4.13890E-03
 -1       654 4.50369E-03 9.25383E+03 3.51854E-03 4.73651E+01-2.96177E+03-3.41719E-03
 -1       655-9.39117E-04 8.63452E+03 2.72454E-03 3.60111E+02-6.94960E+02 5.90948E-03
 -1       656 3.10856E-03 6.21412E+03 4.49112E-03 4.77528E+02-1.34975E+03 5.12836E-03
 -1       657 2.55198E-03 3.98068E+03 2.50470E-03 1.45888E+02-1.32638E+03-5.66096E-04
 -1       658-4.90041E-03 2.19147E+03 2.81832E-03 8.28491E+01 1.22871E+01 3.49494E-04
 -1       659-2.61097E-03 1.00802E+03 2.88631E-03 7.79098E+01-7.43582E+02 1.86445E-03
 -1       660-7.08963E-04 9.18392E+02 9.72387E-04-1.95541E+01-1.75347E+02-6.98145E-04
 -1       661-8.03423E-04 1.01907E+03 8.47256E-04-3.04311E+01-9.34900E+01-5.10668E-04
 -1       662 6.56796E-04 9.72004E+02 3.87321E-04 8.44159E+00-3.35417E+02 5.79646E-04
 -1       663 5.84885E-04 8.68844E+02 3.81487E-04 1.95639E+01-2.24106E+02-6.49399E-04
 -1       664 4.64553E-05 5.60648E+02 1.22338E-04 3.31269E+01-1.14226E+02 8.11640E-04
 -1       665-4.27532E-05 2.66596E+02 2.39121E-04 5.32513E+01 6.72714E+01-6.34475E-04
 -1       666 5.94191E-13-1.19127E-09 7.95808E-11-4.15525E-10-8.57188E+02 7.18828E-03
 -1       667-1.87850E-13-5.20345E-10-1.79767E-11-1.67091E-10-2.35116E+03 3.27356E-03
 -1       668 7.63833E-14-6.09361E-11 7.42801E-11-1.12621E-10-2.06756E+03 1.85869E-03
 -1       669-4.73177E-13 1.75419E-10 2.95586E-12-3.85008E-11-2.44349E+03-2.85110E-03
 -1       670 1.27676E-13-4.57021E-11 1.73785E-10-8.46967E-11-1.85607E+03 1.56732E-03
 -1       671-6.25278E-13-3.19005E-10-1.32793E-10-2.00373E-11-2.44954E+03-2.15292E-04
 -1       672 5.54223E-13-4.59281E-10-1.65608E-10-7.32712E-11-1.90831E+03-8.98021E-03
 -1       673 2.17426E-12-1.22193E-09 1.73519E-10 2.60741E-10 1.65977E+03-1.10816E-02
 -1       674 8.57545E-11-8.29573E-10 5.29347E-10 4.74500E-11-1.43740E+03-1.82502E+02
 -1       675 1.40497E-10-5.57991E-10 9.10241E-11-2.96467E-10-1.82149E+03 1.23671E+02
 -1       676 2.23778E-10-3.73738E-10 4.01052E-10-5.59144E-11-1.29506E+03-9.51614E+01
 -1       677 2.24193E-10 6.63173E-14 7.90095E-10-2.56658E-10-2.28352E+03-3.43968E+01
 -1       678 5.91308E-11-6.99648E-11 6.42141E-10 2.90991E-10-2.46371E+03-1.35569E+02
 -1       679 9.27507E-11-4.75850E-11-2.86583E-10-6.42046E-11-2.91741E+03 2.69325E+01
 -1       680 1.38819E-10-7.08340E-10 9.21060E-10-1.04990E-10-2.22607E+03 1.78796E+02
 -1       681 3.63436E-10-1.21381E-09 2.32261E-10-8.38440E-11 6.93859E+02 1.58376E+02
 -1       682 1.69393E-10-1.69905E-10 4.89202E-10-1.25784E-10-4.16532E+01 1.01727E+03
 -1       683 3.57905E-10-1.43928E-10-1.03048E-09-2.67670E-10 2.52935E+02 5.20595E+02
 -1       684 2.45488E-10-1.03551E-09 4.23322E-10 1.53117E-10-2.89957E+02-1.60978E+03
 -1       685 6.59384E-11-1.99762E-10 2.20514E-09-2.98456E-10-7.36961E+02-1.14080E+03
 -1       686 5.23187E-10-2.65345E-10 1.07752E-09 1.79512E-10-2.20170E+03-1.89752E+02
 -1       687 3.44244E-10-8.22496E-10-1.48600E-09-4.13593E-10-2.34040E+03-6.95037E+02
 -1       688 7.89925E-10 4.26705E-10-2.19790E-09 1.66494E-10-7.58309E+02-4.98493E+01
 -1       689 4.53582E-10-1.02559E-09 5.95438E-10 3.89377E-12-3.69287E+02 1.25959E+03
 -1       690 7.59570E-10-6.38669E-10-1.55227E-09 3.16788E-10 9.77552E+02 1.60537E+02
 -1       691 3.32534E-10-7.35412E-11 1.04490E-09-9.00968E-11-8.75520E+02-5.85295E+02
 -1       692-1.65699E-10-4.77840E-13-5.38165E-11 3.86535E-12-8.03340E-03 1.65444E+02
 -1       693-3.68345E-10 6.10227E-11-2.56975E-10 1.34293E-11 2.89088E+01 8.95664E+02
 -1       694-2.41954E-10 1.89253E-10 6.98959E-10 1.25954E-10 8.22185E+01-5.55168E+02
 -1       695-5.91228E-10 1.23542E-10 4.30950E-10-7.58806E-11-4.18837E+02 8.74024E+01
 -1       696 4.58158E-10-2.24026E-09 1.19160E-09-3.12866E-10 3.08325E+03 6.14979E+02
 -1       697-3.70392E-10-4.91355E-10 6.37871E-09 2.06569E-10 9.74788E+02 1.48375E+03
 -1       698 2.24439E-10-1.23202E-09 8.86762E-10-3.54125E-10 2.37282E+03 1.17510E+03
 -1       699-3.60139E-10-4.12764E-10-4.14271E-10 3.63654E-10-4.97345E+02-2.73290E+02
 -1       700-3.27589E-10 7.74202E-10 3.37375E-10 2.90541E-10-4.59651E+02-1.22162E+02
 -1       701-1.18206E-09 3.36494E-10 2.87895E-10 9.98490E-12 2.79217E+00-3.24125E+03
 -1       702-1.06047E-09 1.16396E-12-1.73919E-09 1.65482E-10-4.00277E-03-2.56999E+03
 -1       703-3.47598E-11-4.05898E-13 4.27676E-11 5.76961E-12-5.39296E-03 2.07334E+03
 -1       704 1.75703E-10-1.48379E-11-3.05814E-10 7.61311E-11 2.41316E+02 2.16239E+03
 -1       705 4.28777E-11-8.96181E-11-3.43604E-10-1.83787E-10 1.23034E+03 3.63375E+02
 -1       706 6.32061E-10 4.47822E-10-1.23622E-09 1.66651E-10 8.57114E+02-2.07661E+03
 -1       707 1.38302E-09-2.71160E-09-6.30502E-10-9.99633E-10 9.57933E+02-2.54798E+03
 -1       708 2.32411E-10 8.10176E-11-8.95315E-11 1.29753E-10-8.11195E+01-3.75843E+02
 -1       709 9.87508E-11-4.01411E-11-6.94780E-11 6.82920E-12-1.81781E+02 1.10332E+02
 -1       710 1.50064E-10-4.36140E-11 2.29947E-11-3.97637E-11-2.43863E+02-4.45840E+02
 -1       711-2.33169E-12 1.93788E-10-9.95783E-11-1.52344E-10-1.44800E+02-1.45603E+02
 -1       712-5.52904E-10-2.82804E-09 5.64339E-10 2.26061E-09 3.16174E+03 6.57510E+02
 -1       713-9.40474E-10 5.65230E-10-1.59417E-10-7.91736E-10-1.16626E+03 2.58629E+03
 -1       714-7.77230E-10 6.06943E-10 2.10828E-09 1.34059E-10 1.10520E+03-5.47098E+02
 -1       715-3.06464E-10 1.85551E-10-4.13523E-10 4.69997E-11-5.10654E+01-1.60370E+03
 -1       716-3.47541E-10 1.37668E-14-1.03776E-09-4.20002E-11 2.13337E-03-2.15300E+03
 -1       717 3.40634E-10-1.57030E-12 1.05373E-11-1.06965E-10 6.57041E-03 1.39782E+03
 -1       718 9.31202E-11-1.49456E-10 1.38389E-09-3.37650E-11-4.62623E+01 2.40460E+03
 -1       719 4.44459E-10 3.82594E-10-1.81977E-10-2.43546E-10-3.57726E+02 2.73894E+02
 -1       720-6.96218E-10 9.74865E-11 2.11099E-09 1.43245E-11 7.99333E+02-4.29935E+02
 -1       721 6.87965E-11-4.27967E-10 1.93652E-10-2.52092E-11-1.65742E+02 1.19432E+02
 -1       722-8.92710E-11-3.09317E-11 7.93194E-11-9.99045E-11 2.97017E+02-4.43429E+02
 -1       723 1.49625E-12 1.96890E-11 8.53251E-11 3.01402E-11-3.38152E+00 9.77834E+01
 -1       724 2.03113E-12 3.51419E-11-5.10665E-11 6.93909E-11-1.28974E+01-5.53733E+01
 -1       725-1.48321E-10-1.39132E-10 6.99077E-11 1.90783E-10 5.04711E+02 3.31849E+02
 -1       726 2.31163E-10-3.33810E-10-2.91771E-10-9.52634E-11 4.32412E+02-7.28922E+01
 -1       727 2.23991E-10 9.66480E-11 1.91289E-09 9.85949E-11 2.83210E+02-1.61163E+03
 -1       728 2.43621E-10 1.48528E-10-1.48598E-10 1.99916E-10-1.58642E+02-6.91901E+02
 -1       729 2.17426E-11 9.81437E-13-5.90761E-10 5.02425E-11 1.66053E-03-3.81725E+02
 -1       730-1.79057E-11 2.14584E-12-3.05391E-11-1.96735E-10-2.74590E-03-1.73041E+03
 -1       731 1.20546E-10-1.14966E-10 3.05121E-10-1.55599E-10-4.35663E+02 9.21352E+02
 -1       732-2.93994E-10 4.32351E-10-1.92949E-09 7.99218E-11-9.49919E+02 1.76516E+03
 -1       733-1.68097E-11-6.79643E-11-1.69448E-10-3.09894E-11-4.30765E+02 2.70168E+02
 -1       734-1.30114E-11 7.77511E-12-1.12240E-10-7.46668E-11-7.87809E+01 5.00740E+01
 -1       735-9.64258E-12 4.93481E-11-2.13859E-10-4.51583E-11-1.43054E+01 1.09028E+01
 -1       736-2.68696E-11 3.17121E-11-1.48977E-10 6.12789E-11-9.10204E+00 4.11282E+01
 -1       737 3.70585E-11 1.07371E-11-3.32120E-10 1.07530E-10-8.72555E+01-1.07732E+01
 -1       738-9.64535E-11 1.11087E-11 6.08439E-11 2.30910E-12-1.68184E+02-2.34399E+02
 -1       739-3.45359E-11 1.42371E-11 1.71667E-10-7.40386E-11-4.43031E+02-1.92783E+02
 -1       740 4.98410E-11 6.75349E-13-2.18751E-10 1.55765E-10-2.07283E-03-5.74788E+02
 -1       741-2.11145E-10 1.02318E-12-1.03789E-10-1.85377E-10-2.56082E-03 1.56996E+03
 -1       742-5.42930E-10-1.52407E-10 4.40735E-10-3.02157E-10-4.36091E+02-1.20218E+03
 -1       743-4.54505E-10 5.46379E-10-2.39879E-11 1.79114E-10-1.06611E+03-1.96570E+03
 -1       744 6.32827E-13-8.88889E-12 2.67507E-10-1.40279E-11-4.86020E+02-2.93771E+02
 -1       745 5.05661E-12 8.11690E-12 4.48584E-11-1.17375E-10-1.22732E+02-3.85087E+01
 -1       746 1.55986E-11-9.38929E-12 1.30434E-10-5.37537E-11-1.25828E+01 4.16324E+01
 -1       747-9.09044E-13-4.85067E-11-1.96510E-11 3.06526E-11-2.06418E+01 2.07530E+01
 -1       748 2.31855E-11-1.25134E-11 2.17089E-11 8.87528E-11-1.45769E+01 3.44591E+01
 -1       749-2.43672E-11 6.26226E-11-1.21508E-10 4.22073E-11 2.88703E+01 6.49067E+01
 -1       750 9.35141E-11-4.67359E-11 5.76996E-11-4.91163E-11-7.80614E+01 2.10230E+02
 -1       751-1.48056E-10-1.44852E-10 9.96376E-11 1.59033E-10-1.36696E+02 2.73782E+02
 -1       752-1.06660E-10-4.76841E-13 1.03242E-10 7.30718E-11 2.11752E-03-2.74560E+02
 -1       753 1.05445E-10 1.47793E-12-1.74154E-11-1.44315E-10 5.96260E-03-1.46562E+03
 -1       754 3.17261E-10-3.95879E-11-2.05247E-10-2.17730E-10-7.83739E+01-2.52721E+03
 -1       755-4.89397E-10 5.58155E-11 2.96998E-09-2.60911E-10-3.72847E+02-3.28225E+02
 -1       756-1.15665E-09 3.69283E-10 1.25135E-09-1.79682E-10 6.85562E+02 4.63846E+02
 -1       757-1.59666E-10 4.99810E-10-3.81196E-10 9.88738E-11 2.55223E+02-1.12075E+02
 -1       758 1.40898E-10 9.43746E-11-2.20804E-10-2.03530E-10 6.06905E+02 3.84959E+02
 -1       759-1.06408E-11-9.13623E-11 9.94791E-11-5.72132E-11-3.62236E+01-5.05217E+01
 -1       760 2.86602E-11-3.30407E-11-4.11880E-11-6.03219E-12 1.46927E+01 5.10157E+01
 -1       761 5.63158E-11 2.79215E-11 5.14966E-11 1.26990E-10 2.20241E+01-7.23209E+01
 -1       762-1.01921E-10 3.78021E-10-4.07718E-11 2.42038E-11-7.33376E+00 6.73337E+00
 -1       763 4.87290E-11-5.19702E-11 4.41979E-10-1.05693E-10 1.50674E+02-1.00203E+02
 -1       764-2.25511E-10-1.36365E-10 3.62560E-11 2.14123E-10-2.40382E+01 2.83360E+01
 -1       765-4.45497E-11 4.92300E-11-3.63939E-10 1.07876E-10 1.72717E+01 3.18043E+02
 -1       766-2.89333E-11-3.08170E-13 1.45961E-10 3.13842E-11 8.20020E-04 2.77452E+02
 -1       767 4.07084E-10-1.01963E-12-1.16398E-10-1.70715E-10-6.82984E-03-1.86983E+03
 -1       768 4.28798E-10-1.13817E-10-1.33138E-12-2.32390E-10 2.24293E+02-2.12614E+03
 -1       769 7.29287E-10-2.59940E-10 6.29958E-10-1.11682E-10 1.51317E+03-4.26162E+02
 -1       770 4.83378E-10 3.54393E-10 1.83787E-09 6.56889E-10 5.94052E+02 2.21944E+03
 -1       771 4.36167E-10 3.32910E-09 1.50127E-10-2.43757E-09 3.12227E+03 1.75272E+03
 -1       772-1.46869E-11-1.65211E-10-4.86543E-10 1.70743E-10-1.34631E+02 3.89096E+01
 -1       773-1.22463E-10 1.12466E-10-1.12489E-10 5.08901E-11-3.39441E+02-2.50185E+02
 -1       774-1.41969E-10 4.15912E-11 9.19748E-11-2.02564E-11 8.21255E+00 1.29312E+02
 -1       775-2.42117E-10-2.86748E-11 2.33507E-10-1.56236E-10-3.82698E+01-9.72567E+00
 -1       776-1.30981E-09 3.01347E-09-1.02535E-10 1.11362E-09 2.19896E+02-3.94679E+02
 -1       777-5.26288E-10-1.69702E-10 5.00734E-10-2.85061E-10 2.62071E+01-3.40232E+02
 -1       778-2.42704E-11 8.29607E-12 1.31931E-11 7.31668E-11 1.59322E+02 7.07351E+01
 -1       779 1.16168E-10 5.73021E-12-1.79299E-10 3.83242E-11 2.52647E+01 3.21597E+02
 -1       780 1.46315E-10-8.98726E-14 1.46233E-10 1.98104E-11-5.94601E-04 3.30180E+02
 -1       781 1.18513E-09-3.76588E-13-5.93570E-11-3.23837E-10-9.08767E-03 7.82204E+02
 -1       782 1.04723E-09-3.55193E-10 6.98374E-10 5.11591E-13 4.34395E+01-1.24006E+02
 -1       783 3.22662E-10-6.14925E-10 2.40992E-09-1.75763E-10 3.72314E+02 5.84319E+02
 -1       784 5.18922E-10 3.94309E-10 1.68497E-09-3.08973E-10-1.94997E+02-2.98911E+02
 -1       785-2.44825E-10 1.79307E-09 4.18747E-10 7.20358E-10 2.47722E+03 3.89704E+02
 -1       786 6.38551E-10-3.73007E-10-2.39794E-09-3.54305E-10 2.73850E+02 1.45088E+03
 -1       787 5.04226E-11-1.73124E-10-2.50825E-10 2.31196E-10 9.37498E+00-1.29050E+02
 -1       788-1.31065E-10 1.70815E-09 4.66426E-11-2.95586E-10 2.60511E+02-8.71265E+01
 -1       789 4.90341E-10-8.61069E-11-8.08515E-12 2.08797E-10-3.60272E+01 4.94346E+01
 -1       790 2.07730E-10-2.27082E-10-5.26469E-11-3.20390E-11 9.11472E+00-5.05270E+01
 -1       791 3.83849E-10-1.30054E-10-3.83199E-10-2.54805E-11-1.44005E+01 2.35167E+02
 -1       792 3.69766E-10 2.26708E-13 7.26836E-11 9.45040E-11-1.03288E-03 1.75666E+02
 -1       793-2.13788E-10-1.54046E-10 1.94700E-09-1.21474E-10-6.05349E+02-1.00535E+03
 -1       794-5.80629E-10 8.02610E-10-1.69962E-09-2.34152E-10 8.81038E+01-3.68879E+00
 -1       795-4.25260E-11 7.79341E-10-2.46042E-09 1.11623E-10-4.11938E+02 5.32773E+02
 -1       796 1.34619E-10-3.00140E-10 8.23647E-10 4.16208E-10-1.37060E+03-6.95487E+02
 -1       797 5.86464E-12 2.41464E-10 5.87521E-11-1.16358E-10-1.84319E+02 9.88474E+01
 -1       798-2.94088E-10 6.42773E-10 1.15081E-10-2.28155E-11-2.53850E+01-8.71005E+01
 -1       799-4.38393E-10 2.71854E-10 1.53590E-10 2.14197E-10 4.61886E+01-2.81905E+01
 -1       800-7.11786E-11-4.09699E-11-2.86028E-10 1.81757E-11-1.43655E+02 7.92037E+01
 -1       801-3.67044E-10 9.06510E-10-8.11706E-12-1.74456E-11-2.49536E+03-3.51306E+01
 -1       802-1.87121E-10 3.55808E-10-4.03143E-10 1.86509E-11-2.41087E+03-8.54174E+00
 -1       803 1.80579E-11-2.34536E-10-5.47400E-10-6.86195E-11-2.96286E+03-4.90148E+02
 -1       804-7.36252E-11 1.22490E-10 1.15691E-10 6.19416E-12-7.74552E+02-5.83856E+02
 -1       805-6.00730E-11-1.52909E-11-8.66616E-11 1.65272E-11 1.79658E+02-3.03106E+02
 -1       806-1.12081E-10 1.68502E-10-1.30923E-10 7.29964E-12-3.39178E+02 4.76003E+01
 -1       807-1.54705E-10 4.55914E-10-1.68253E-10 1.25698E-10-2.21484E+02-8.18941E-01
 -1       808-1.94475E-10 6.88097E-10-3.15775E-10-3.86917E-11-6.52155E+01-3.34884E+00
 -1       809 1.19416E-12 1.08184E-09-1.17820E-09-1.61183E-10-1.73372E+03-8.05972E-03
 -1       810-4.97380E-14 4.86466E-10 2.38227E-11 9.23350E-12-2.80418E+03 9.83444E-04
 -1       811-1.33049E-12-8.75673E-11 4.05036E-10-3.07665E-11-6.40213E+02 3.41895E-06
 -1       812-7.08433E-13-9.81473E-11 1.87091E-10-8.07407E-11-1.27651E+03-7.52474E-03
 -1       813 5.77177E-13 3.20526E-11 8.98348E-12 3.42437E-12-7.27783E+02 4.42385E-03
 -1       814-1.20487E-13 9.89075E-11 1.63812E-11-4.94342E-11-8.66345E+01 9.69752E-04
 -1       815-5.60108E-14 3.46361E-10 2.95440E-11 1.08153E-11-2.21944E+02 1.33805E-04
 -1       816 2.30926E-14 7.60210E-10 1.78997E-11 1.87320E-10 6.79539E+01 1.07627E-03
 -1       817-3.20491E-04 5.54389E+03 4.48311E-03 3.11092E+02-8.65665E+02-3.12084E-03
 -1       818-4.26087E-04 6.72450E+03 2.05347E-03 1.94565E+02-1.65804E+03 5.78004E-03
 -1       819-5.50536E-05 8.41743E+03 2.42685E-03 7.02702E+01-2.39046E+03-4.54637E-03
 -1       820 9.28940E-04 9.55026E+03 4.02924E-03 8.45289E+01-2.39816E+03 3.12778E-03
 -1       821 1.47454E-03 1.06539E+04 6.75029E-03 1.36106E+02-2.12208E+03-6.33303E-05
 -1       822 1.48319E-03 1.14846E+04 6.79351E-03-2.74728E+01-2.84498E+03-1.44177E-03
 -1       823 1.62844E-03 1.19210E+04 6.22086E-03-1.93230E+02-2.54721E+03 8.39281E-04
 -1       824-4.77440E-04 1.22702E+04 9.12368E-03 1.44297E+02-1.59427E+03 1.89393E-03
 -1       825 8.16469E-04 1.32565E+04 5.43868E-03 3.14089E+02-1.96489E+03-1.13856E-03
 -1       826 5.67165E-03 1.34019E+04 6.81028E-03 7.13098E+01-3.77992E+03 4.34602E-03
 -1       827 4.40798E-03 1.26524E+04 6.48588E-03-7.72865E+01-2.49931E+03 2.64734E-03
 -1       828 3.05165E-03 1.02431E+04 3.30143E-03-2.32484E+02-3.21998E+03-1.16360E-02
 -1       829 2.48043E-03 7.45952E+03 1.75719E-03-3.00322E+02-1.93536E+03 8.89781E-03
 -1       830 5.33111E-04 3.62586E+03 9.48711E-04-4.03912E+02-4.58099E+02-9.85645E-03
 -1       831 3.44893E-04 8.43727E+01 3.47803E-03-5.21347E+02 1.66476E+03 7.64333E-03
 -1       832-9.98309E+01 4.56052E+03-1.97607E+02 1.00879E+03 9.28352E+02 4.37278E+02
 -1       833-1.25689E+02 6.64960E+03-9.12380E+02 1.38308E+03 5.52989E+02 1.58480E+01
 -1       834-1.60706E+02 8.93797E+03-1.26559E+03 1.02228E+03 1.45088E+02 1.58860E+02
 -1       835 1.75290E+02 1.00871E+04-2.40659E+03 1.95439E+02 3.02531E+02 1.25190E+01
 -1       836-4.71766E+02 1.17090E+04-2.52514E+03 7.94809E+02 2.56465E+02-3.83498E+02
 -1       837-6.07580E+02 1.02148E+04-1.15610E+03-1.70265E+03 5.21265E+02 6.92028E+01
 -1       838-2.13302E+02 5.75274E+03-6.28457E+02-3.02866E+03 6.06884E+02 4.14399E+01
 -1       839-2.21596E+02 7.50714E+02 1.15640E+02-3.05291E+03 7.20252E+02-2.40753E+02
 -1       840 5.12585E+01-2.81321E+02-3.95223E+02 1.17297E+03-1.41639E+03-2.13332E+02
 -1       841 2.01929E+01 4.33417E+02-1.10999E+03 2.08479E+03-2.09125E+03 9.94543E+00
 -1       842-2.37604E+02 1.34926E+03-1.82476E+03 2.78053E+03-1.78291E+03 1.00644E+02
 -1       843-3.15076E+02 2.99576E+03-2.17798E+03 2.41554E+03-1.97885E+03-5.04135E+02
 -1       844-4.58309E+02 4.15813E+03-2.53119E+03 2.01979E+03-1.27659E+03-1.27377E+02
 -1       845-7.59504E+02 5.44187E+03-3.67218E+03 1.27566E+03-1.64926E+03 2.31225E+02
 -1       846-1.28033E+02 6.98051E+03-4.81318E+03 6.43387E+02-2.30213E+03-6.89043E+01
 -1       847 4.81356E+02 8.88880E+03-4.93173E+03 1.30995E+03-3.27016E+03-6.02966E+02
 -1       848-1.90900E+03 8.61376E+03-5.05029E+03 6.04059E+02-2.47902E+03-9.79079E+01
 -1       849-2.39198E+03 6.33284E+03-3.68125E+03-1.61945E+03-2.20680E+03-2.13733E+01
 -1       850-1.82954E+03 4.21327E+03-2.31221E+03-3.53410E+03-2.87049E+03 6.78316E+01
 -1       851-1.29437E+03 2.50582E+03-1.78456E+03-4.48760E+03-1.83252E+03 1.05410E+02
 -1       852-6.11561E+02 1.16743E+03-1.25692E+03-5.40448E+03-2.19242E+03 2.06219E+02
 -1       853-3.33587E+02 2.75445E+02-5.12820E+02-5.15934E+03-1.17967E+03-5.34909E+01
 -1       854-3.88958E+02-1.34954E+02 2.31273E+02-4.73004E+03 6.99835E+02 1.90469E+02
 -1       855 1.42015E+03-5.94761E+03 7.74690E+02 1.97927E+03 2.81447E+02-4.78183E+00
 -1       856 4.50910E+02-3.98999E+03 8.74541E+02 4.52195E+03 1.24143E+02-1.53901E+02
 -1       857-1.56281E+03 9.96719E+02-4.11193E+02 3.41067E+03-1.77545E+02-2.46139E+01
 -1       858-1.31938E+03 2.66842E+03-1.29879E+03 1.27477E+03 2.45675E+02 6.76914E+02
 -1       859-3.15635E+03 3.83848E+03-1.07039E+03-2.24148E+03-3.60962E+02-1.35072E+03
 -1       860-3.13284E+03-9.90818E+02 1.01669E+03-5.91187E+03 4.26213E+02 5.93059E+01
 -1       861-6.95959E+02-3.14164E+03 9.30464E+02-5.48962E+03 7.49876E+02 7.11604E+01
 -1       862 5.70255E+02-2.14434E+03 3.92472E+02-3.76740E+03 1.06089E+03 2.55958E+02
 -1       863-1.06237E+03 7.37935E+02 2.38854E+01 3.80297E+02-8.35343E+01 1.05868E+03
 -1       864-2.33459E+02-1.93614E+03 9.84245E+02 2.80013E+03-3.12829E+02-2.15217E+02
 -1       865 2.05617E+03-5.96147E+03 1.94460E+03 3.85299E+03 2.50826E+02 5.57828E+02
 -1       866 2.59160E+03-7.50884E+03 2.75922E+03 3.88193E+03-5.74622E+02 2.26697E+02
 -1       867 1.55343E+03-8.20619E+03 3.57385E+03 5.51748E+03-2.31999E+02-1.59975E+03
 -1       868-1.32881E+03-1.97923E+03 2.64133E+03 6.33115E+03 3.28183E+01-1.66464E+03
 -1       869-2.90945E+03 8.99266E+02 1.70880E+03 4.68694E+03-6.45502E+02-1.15544E+03
 -1       870-2.81824E+03 1.08467E+03 1.96221E+03 2.86503E+03-5.62811E+02-4.45465E+02
 -1       871-2.34209E+03 9.01588E+02 2.21561E+03 1.41235E+03-2.05010E+03-1.78831E+02
 -1       872-3.88064E+03 2.15870E+03 2.90951E+03-3.88511E+03-2.16870E+03-6.64051E+02
 -1       873-5.53521E+03-7.11304E+01 3.62755E+03-5.81037E+03-8.44388E+02 1.75561E+03
 -1       874-3.07532E+03-5.51244E+03 4.34558E+03-8.08836E+03-6.79570E+02-5.71926E+01
 -1       875-8.32154E+02-6.47368E+03 3.73171E+03-6.80245E+03-8.57045E+02 6.28357E+02
 -1       876-1.89763E+02-6.03597E+03 3.11785E+03-5.60016E+03-3.47635E+02 1.21868E+03
 -1       877 9.88158E+02-4.16869E+03 1.83576E+03-4.04059E+03-8.89684E+02-6.23206E+02
 -1       878 1.66279E+03-2.74764E+03 5.53673E+02-2.36958E+03 9.49357E+02 1.16562E+02
 -1       879 5.93941E+02-3.92602E+02 5.96031E+01 1.73704E+02 5.22518E+02 1.30639E+03
 -1       880-3.81253E+02 1.78316E+03-4.34470E+02 2.90499E+03-9.39431E+02-6.06611E+02
 -1       881 1.75393E+03 1.86374E+02-9.47092E+02-1.86612E+03 3.17648E+02-1.70753E+02
 -1       882 1.28261E+03-4.56124E+03 1.28639E+03 1.81142E+03 1.90336E+02-5.86609E+01
 -1       883 2.51985E+03-1.06425E+04 2.20641E+03-2.76941E+02-1.07781E+02 1.05888E+03
 -1       884-1.54753E+02-8.38995E+03 3.16299E+03-6.93813E+03-3.05486E+03 6.69481E+02
 -1       885 2.60492E+03-8.58050E+03 1.93417E+03-3.30625E+03-7.18897E+02 6.41952E+00
 -1       886 2.68764E+03-1.96386E+03-5.07728E+02-1.30079E+02-7.58845E+02 5.50249E+01
 -1       887 3.34717E+03 1.17301E+03-1.91659E+03 4.91395E+03-6.70440E+02-4.71187E+02
 -1       888-3.78270E+03 9.32055E-05-2.79554E-03-3.43744E+02 5.21462E-03 1.70200E+02
 -1       889-3.24479E+03 1.87427E+02 1.11082E+02-1.47236E+03-3.25850E+02-5.57158E+02
 -1       890 2.78318E+02 2.83432E+02 2.22170E+02-2.14161E+03 4.85015E+01 8.74956E+02
 -1       891 4.62129E+03-6.09879E+02-8.47948E+02-2.41281E+03 4.31279E+02-7.94704E+02
 -1       892 5.05640E+03-1.13914E+03-1.91807E+03-3.25647E+03 4.94975E+01-5.33953E+02
 -1       893 3.57308E+03-1.45209E+03-6.44942E+02-1.94565E+03 6.85262E+01 5.30533E+02
 -1       894 5.89593E+02-2.15026E+03 6.28180E+02-3.48828E+02-4.55630E+02 1.17156E+02
 -1       895 3.38489E+02-2.63829E+03 7.33581E+02-1.69901E+03 2.20270E+03-1.71942E+03
 -1       896 2.04886E+03-3.16201E+03 8.38987E+02-4.10665E+03 3.04263E+03 6.19578E+02
 -1       897 2.07123E+03-5.50461E+03 1.98041E+03-6.74733E+03 9.23776E+02 1.45718E+03
 -1       898 3.96104E+03-6.98500E+03 1.36545E+03-5.53842E+03 2.67964E+03 1.85104E+03
 -1       899 5.91350E+03-7.98982E+03 7.50489E+02 1.57436E+03 2.33202E+03 1.13288E+03
 -1       900 3.97814E+03-2.91357E+03-4.09318E+02 2.79397E+03 1.76189E+03 8.54108E+02
 -1       901 3.57019E+03 7.25630E+02-1.56912E+03 1.95800E+03-5.18574E+02-3.18047E+02
 -1       902 6.11962E+03-1.60145E+02-2.48391E+03 3.73422E+03 3.91948E+01 4.80018E+01
 -1       903 8.50215E+03-1.36097E+03-3.39871E+03 5.03287E+03-4.81601E+02-1.17820E+02
 -1       904 8.27700E+03-1.23601E+03-1.26750E+03 5.79487E+02 3.76371E+02 3.00664E+02
 -1       905 1.74103E+02 1.33610E+02 8.63701E+02-1.73197E+03 1.55543E+01-3.20455E+03
 -1       906-6.95330E+03 1.91257E+02 4.31847E+02-6.70818E+02-4.83080E+02 5.57759E+02
 -1       907-8.98658E+03 6.43551E-04-3.15099E-03 1.45968E+02 7.64012E-04-2.58855E+03
 -1       908-5.47538E+03-2.14987E-04-1.25140E-03-2.38508E+02-6.83696E-03 1.31051E+03
 -1       909-2.02007E+02 1.92767E+02 6.76437E+02-2.44842E+03 3.25061E+01 1.69564E+03
 -1       910 5.31874E+03-6.21776E+02-2.57034E+03-3.65716E+03-5.48822E+02 7.89946E+02
 -1       911 3.24834E+03-1.89990E+03-4.18720E+02 5.42402E+02 9.12523E+02-1.78541E+03
 -1       912-4.54884E+03 6.84247E+03 3.24887E+02-1.83655E+03 1.44181E+02-1.66835E+03
 -1       913-2.18649E+03 4.06748E+03 2.82346E+02 7.09340E+03 2.68104E+03 9.59387E+02
 -1       914 4.03035E+03 1.70007E+02-1.49088E+03 7.28953E+02 2.31473E+03 1.93041E+03
 -1       915 8.02813E+03-1.40659E+03-3.42096E+03 4.24643E+03-3.03557E+02-6.82220E+02
 -1       916-4.24099E+02 3.73808E+01 1.15959E+03-1.16763E+03 1.14623E+02-2.36814E+03
 -1       917-8.23405E+03 3.16445E-04-2.14522E-03 1.43579E-01-2.29294E-03-2.42369E+03
 -1       918-7.32350E+03-2.32136E-03-1.40401E-03-1.55942E+02 5.64096E-03 2.09767E+03
 -1       919-5.63063E+03 2.11536E+02 5.65351E+02-1.46642E+03 2.06249E+02-4.21476E+02
 -1       920-9.37215E+02 5.51657E+02 1.13071E+03-2.60563E+03 2.55255E+02 2.12761E+03
 -1       921 3.33510E+03 9.39331E+02-1.04595E+03-3.34930E+03 2.94551E+01-6.10769E+02
 -1       922 5.76185E+03 8.32141E+02-3.22262E+03-4.37444E+03 1.21228E+03 3.35370E+02
 -1       923 7.69259E+03-9.44042E+02-2.34412E+03-3.30519E+03 3.87339E+01 7.35797E+02
 -1       924 7.01898E+03-3.32647E+03-1.46562E+03-1.20992E+02 8.24952E+02-2.04214E+03
 -1       925-3.71454E+03 3.38343E+03-8.27421E+02 4.22357E+03 2.83652E+02-1.84051E+03
 -1       926-6.40515E+03 6.00994E+03-2.20405E+02 4.38197E+02 1.27334E+03-2.83287E+03
 -1       927-1.76056E+03 6.35431E+02 3.58298E+02-4.60252E+01 1.56955E+02 5.89351E+02
 -1       928 1.21421E+02-3.19280E+02 1.69680E+01 5.31176E+01-1.12638E+01-8.70070E+01
 -1       929 7.75633E+01-1.81106E+02 1.14236E+02 1.15065E+02 4.65964E+01-1.95876E+02
 -1       930 6.41304E+01 1.02949E+02-7.21738E+01-1.59117E+02-4.71335E+01-7.76179E+01
 -1       931-9.06074E+01 1.00067E+02-2.20807E+01-3.01990E+01 1.59368E+00-1.91105E+02
 -1       932 5.67136E+01 1.63461E+02-4.15332E+01 1.38138E+02-3.33190E+01-2.72011E+02
 -1       933 8.72091E+01-2.60226E+02 7.77523E+01-1.20426E+02 6.42617E+01-2.13138E+02
 -1       934 1.53484E+02-4.62181E+02-1.34289E+01 7.58179E+00-6.29918E+01-3.65962E+02
 -1       935-1.43652E+03 8.36204E+02 3.02906E+02-3.24298E+02 3.21706E+02-1.13476E+03
 -1       936-5.89566E+03 7.06355E+03 1.98824E+01 1.13000E+03 3.42508E+03 1.01098E+03
 -1       937-5.71719E+03 5.13787E+03-7.99224E+02 4.88919E+02 1.49596E+03-5.99101E+02
 -1       938 4.52718E+03-2.21836E+03-1.41264E+03-1.49115E+03-1.16294E+03 2.55113E+03
 -1       939 1.02077E+04-1.64638E+03-2.42793E+03 1.72305E+03-1.21795E+03-6.38205E+02
 -1       940 6.19101E+03 4.27946E+02-3.44322E+03 4.57676E+03 1.12695E+03-4.91253E+02
 -1       941 2.84779E+03 4.22235E+02-9.93873E+02 1.77077E+03-1.25001E+01-2.08791E+02
 -1       942-1.05216E+03 2.69075E+02 1.45547E+03-7.71430E+02-4.04901E+01-1.56653E+03
 -1       943-5.89794E+03 1.18338E+02 7.27733E+02-5.93837E+02 3.21134E+02 4.72146E+02
 -1       944-7.67986E+03-1.57159E-03-2.42657E-03-1.21622E+02 9.94854E-04-2.18433E+03
 -1       945-8.54933E+03-3.00101E-03-2.44739E-03-3.87986E+01-6.63760E-03 2.81448E+03
 -1       946-1.80482E+03 1.33027E+03 1.32292E+03-1.53889E+03-6.57471E+01 1.48424E+03
 -1       947 5.06767E+03 1.74020E+03-3.40700E+03-5.07545E+03 3.01442E+02 6.18710E+02
 -1       948 5.75204E+03-1.90296E+03-1.60712E+03-5.49915E+03 1.83078E+03-2.16967E+03
 -1       949-7.52530E+02 1.40927E+03-3.66421E+02-2.53602E+02-1.02611E+03-2.64406E+02
 -1       950 2.84956E+02 8.77854E+01-3.08459E+01-2.34112E+02-1.17337E+02 2.09543E+02
 -1       951-3.07220E+01 3.73134E+01-5.50989E+00-4.77714E+01 3.64112E+00-1.92793E+01
 -1       952-1.27174E+01 5.18647E+01-2.30635E+01-3.92875E+01 1.80580E+01 2.48467E+00
 -1       953 2.76716E+02 1.25367E+02 7.20965E+00 1.60330E+02-1.48274E+02-1.92566E+02
 -1       954-6.39474E+02 1.94272E+03-4.70219E+02-1.03242E+02-5.66289E+02 1.35515E+02
 -1       955 8.51731E+02 1.81984E+03-1.88541E+03 3.44314E+03 8.23809E+02-1.45019E+02
 -1       956-2.54981E+03 8.90779E+02 1.64999E+03-1.29975E+03-5.13674E+00-1.21329E+03
 -1       957-6.39761E+03-2.13391E-03-3.05247E-03-1.50748E+02 2.25004E-03-1.83934E+03
 -1       958-9.26892E+03-7.69213E-03-2.56259E-03 1.60600E+02 2.55081E-03 1.43043E+03
 -1       959-7.16871E+03 6.40314E+02 7.57566E+02 4.75172E+00 6.75684E+02-6.49543E+02
 -1       960-2.89951E+03 2.30871E+03 1.51514E+03-4.58667E+02-3.99492E+01 2.36583E+03
 -1       961-2.49961E+01 3.60571E+03-1.03812E+03-2.97901E+03 1.65829E+02-1.05662E+02
 -1       962 3.13551E+03 3.93188E+03-3.59138E+03-5.64680E+03-3.41447E+02 2.13704E+02
 -1       963 6.01029E+03 1.10504E+03-2.67000E+03-5.88660E+03 1.87238E+02 2.61505E+03
 -1       964 3.97513E+03-9.41084E+02-1.74862E+03-6.37553E+03 7.93200E+02-3.90196E+02
 -1       965 4.30100E+02-1.39111E+02 5.11136E+01 4.41698E+00-3.65901E+02 5.19809E+01
 -1       966-1.08206E+02-2.70145E+02 1.99439E+01 1.44578E+02-2.13636E+02 1.42085E+02
 -1       967-2.87332E+02 2.22498E+02 1.60147E+01-1.03144E+02 7.18956E+01-1.38330E+02
 -1       968 5.95564E+01 7.68766E+01-1.85576E+01-1.34664E+02 3.38005E+01-4.24103E+01
 -1       969 1.42764E+00-7.53833E+00 3.82176E+00-4.07548E+01 3.96305E+00 3.91161E+01
 -1       970-3.94769E+01-2.47419E+01 3.92693E-01-6.47724E+01-3.61044E+00 1.06789E+01
 -1       971 8.11052E+00-1.47695E+01 4.94666E+00-8.91270E+01 7.90288E+00-1.30400E+00
 -1       972 5.71132E+01 1.11038E+02-3.73098E+01 4.33998E+00 6.96514E+01 6.66976E+01
 -1       973-2.24068E+02 3.26605E+02-5.20950E+01-1.11364E+02 1.75114E+02 9.45598E+01
 -1       974-9.35985E+01-2.94027E+02 5.36063E+01-2.40439E+02-2.11769E+02-1.12106E+02
 -1       975 3.24438E+02-1.08036E+02 2.52390E+01 6.45950E+01 1.21284E+02-4.94061E+00
 -1       976-1.43067E+03 1.37523E+03-3.27610E+02 2.35692E+03 3.50397E+02-1.56476E+03
 -1       977-2.24697E+03 1.10958E+03 7.58454E+02 5.15364E+02-5.83237E+02-3.35494E+02
 -1       978-3.85826E+03 9.57014E+02 1.84451E+03-2.21430E+03-1.59704E+02-7.02774E+02
 -1       979-4.57247E+03 3.10378E+02 9.22254E+02-1.54752E+03 2.51164E+01 8.92252E+01
 -1       980-4.88918E+03 3.42141E-04-1.68651E-03-2.53317E+02-2.05985E-05-4.21469E+02
 -1       981-7.27564E+03-1.00153E-02-2.98913E-03 1.74549E+02 3.08801E-03 2.30700E+03
 -1       982-5.26169E+03 3.98377E+03 1.61576E+03 1.76734E+03 1.61444E+02 7.96719E+02
 -1       983-1.08819E+03 5.60295E+03-2.08951E+03-3.57735E+03 1.71033E+03 1.45890E+03
 -1       984 2.12117E+02-7.49099E+01-4.63377E+01-1.31419E+02-2.36598E+02-4.49378E+01
 -1       985-8.19798E+01-5.53590E+01 3.01784E+01 8.70280E+00 3.72212E+01-4.60222E+01
 -1       986-1.64360E+01 1.22915E+01 2.39865E+00-6.53991E+01-7.67769E+00 3.01270E+01
 -1       987-7.27614E+00 2.79467E+01-6.40230E+00-4.41142E+01-3.74478E+00 1.95704E+01
 -1       988-6.94590E+01-4.22075E+01 3.58153E+00-1.35989E+02 5.26359E+01 5.27921E+01
 -1       989 1.52320E+02-4.95619E+01-1.07312E+02 1.35292E+02 1.75123E+02 3.35116E+01
 -1       990-2.37737E+03-6.03572E+01 1.38147E+03-3.10975E+03-9.51507E+02-7.41596E+02
 -1       991-3.02876E+03-9.17156E-05-2.55571E-03-2.42870E+02 3.19137E-03-3.57625E+02
 -1       992-4.09898E+03 2.19444E-03 2.12355E-03 4.44914E+02 6.35713E-04-1.69342E+03
 -1       993-5.30666E+03 1.61085E+03 8.58187E+02 3.98920E+03-5.28461E+02 1.95993E+02
 -1       994-7.11875E+03 4.36998E+03 1.71637E+03 5.57425E+03-4.60337E+02 9.29435E+02
 -1       995-5.98102E+03 3.87935E+03 5.64373E+02-6.02905E+02-1.39003E+03 2.66257E+02
 -1       996-3.63446E+03 3.60760E+03-5.87636E+02-2.71516E+03-8.85131E+02 1.71543E+03
 -1       997-1.98617E+02-1.01614E+02 5.66218E+01 9.04130E+01-3.33717E+02 5.30892E+01
 -1       998-4.14221E+01 1.30787E+01 5.83618E+00-3.27969E+01-7.16442E+01-1.82356E+01
 -1       999 4.66915E+01-4.19398E+01 1.63437E+01-8.25425E+01-5.31336E+01 8.21743E+00
 -1      1000-2.52003E+01-8.72360E+00 1.42146E+01-5.28206E+01-3.14744E+01 2.45794E+01
 -1      1001-1.86344E+01 8.58600E+00 6.91440E-01-4.78369E+01-1.63973E+01 1.99461E+01
 -1      1002-7.24866E+00 1.85648E+01-1.70288E+00-4.63063E+01-1.19112E+01 2.38523E+01
 -1      1003-1.25315E+01 2.29153E+01-4.33876E+00-4.43553E+01-1.02841E+01 3.15812E+01
 -1      1004-1.73058E+01 2.72154E+01-4.55880E+00-4.91223E+01-2.02270E+01 1.66828E+01
 -1      1005 2.94269E+01 1.43761E+01-7.50288E+00-1.86320E+01-3.53345E+01 1.63165E+01
 -1      1006-4.29664E+01 7.73270E+01-1.20887E+01-3.92344E+01 9.62510E+00 1.65804E+01
 -1      1007-1.59566E+02-4.86657E+01 7.19367E+01-1.43275E+02 7.43876E+00-7.44803E+01
 -1      1008-7.15204E+02-7.92467E+02 9.18430E+02-2.69435E+03-4.65650E+02-2.12579E+02
 -1      1009-1.04987E+03-3.05505E+02 4.59214E+02-1.41194E+03-5.48149E+01 8.14389E+01
 -1      1010-1.38454E+03 3.60093E-04-1.37631E-03-9.18583E+01 5.78927E-05-5.94583E+02
 -1      1011 5.77386E+02 1.95319E-04 3.73568E-04 8.48589E+02 1.30766E-02-1.00184E+02
 -1      1012 4.14490E+02-6.33371E+01-2.01929E+02 9.59988E+03-3.81308E+03-1.43326E+02
 -1      1013 6.12976E+00-5.55415E+01 1.01318E+01 5.88053E+00-2.57687E+02-1.82097E+01
 -1      1014-4.11621E+00-3.29234E+01 4.24574E+00-8.80749E+01-4.27237E+01 6.11093E+00
 -1      1015-8.98284E+00-3.98437E+00 6.14945E+00-3.70492E+01-7.22164E+00 2.50328E+01
 -1      1016-9.15872E+00 1.32163E+01-3.16666E+00-3.82125E+01-8.00634E+00 3.09173E+01
 -1      1017 7.70249E+00 4.65571E+01-5.68656E+00-1.31002E+01-1.72564E+01 1.34002E+01
 -1      1018-4.30426E+01 8.10803E+01-1.03203E+00-2.25260E+01 4.39278E+01-1.43122E+01
 -1      1019 1.85878E+02-9.96083E+02 3.32407E+02-1.77215E+03-3.43203E+02-2.62775E+02
 -1      1020-1.64114E+02 2.60835E-03-6.14950E-04-9.41590E+01 5.24718E-04 8.98216E+01
 -1      1021 5.25506E+03-1.71855E-03-1.74649E-03 4.63689E+02 7.68200E-04 1.52427E+03
 -1      1022 6.29984E+03-1.67209E+03-1.06012E+03 3.93288E+03-5.50587E+02-1.68443E+02
 -1      1023 7.81774E+03-4.61971E+03-2.12023E+03 5.38905E+03-4.56710E+02-1.21077E+03
 -1      1024 6.23715E+03-4.20564E+03-5.99994E+02-8.69698E+02-1.54984E+03-2.71404E+02
 -1      1025 3.71030E+03-4.02735E+03 9.20254E+02-2.89954E+03-1.00401E+03-1.90008E+03
 -1      1026 2.10403E+02 7.61173E+01-5.81194E+01 1.37921E+02-2.82939E+02-9.57747E+01
 -1      1027 4.59240E+01-9.13324E+01 2.62276E+01-1.18310E+01-4.41520E+01 1.98841E+01
 -1      1028-5.51278E+01 9.14364E-02-1.20704E+00-7.00020E+01-6.28898E+01 4.00742E+00
 -1      1029 9.27390E+00-2.04413E+01 1.79370E+00-2.62805E+01-3.00828E+01 1.26835E+01
 -1      1030-1.57361E-01-1.82259E+01 1.01654E+01-3.18092E+01-1.58877E+01 2.94173E+01
 -1      1031-1.02643E+01-7.42057E+00 4.93227E+00-2.96538E+01-1.59005E+01 2.90506E+01
 -1      1032-4.05758E+00 7.90127E+00-5.41550E-01-2.75915E+01-1.73107E+01 2.71003E+01
 -1      1033 2.01102E+00 1.86652E+01-7.33210E+00-2.05710E+01-2.12410E+01 2.59302E+01
 -1      1034-2.27680E+01 3.41407E+01-1.15639E+01-2.06762E+01-2.15824E+01 1.73040E+01
 -1      1035 1.55225E+00 1.80877E+01-6.65761E+00-1.86186E+01-2.45845E+01-6.64440E-01
 -1      1036 5.08143E+01 5.43443E+01-3.55153E+01-9.74536E+00 1.50360E+01 1.31397E+01
 -1      1037 4.12362E+02-4.14711E+02 1.26408E+02 4.32861E+02-7.04600E+01 2.02030E+02
 -1      1038 6.53823E+02-4.53932E+02-6.36049E+01 1.33429E+02-1.60221E+02 6.52017E+01
 -1      1039 8.55835E+02-7.30327E+02-2.53617E+02-5.91749E+02-1.44574E+02 2.74693E+02
 -1      1040 8.20788E+02-2.40655E+02-1.26809E+02-4.78108E+02 1.63142E+02-6.33800E+01
 -1      1041 8.05466E+02 1.55741E-03-1.11871E-03-8.80132E+01 1.28217E-03-2.69095E+02
 -1      1042 8.26817E+03 1.06783E-02 3.47542E-03 1.65296E+02 3.01928E-03-2.60685E+03
 -1      1043 5.78332E+03-4.26505E+03-1.87861E+03 1.35396E+03 1.49499E+02-9.22996E+02
 -1      1044 1.25459E+03-6.24217E+03 2.35971E+03-3.96494E+03 1.84528E+03-1.51502E+03
 -1      1045-1.64375E+02 6.54602E+01 7.98046E+01-1.94378E+02-6.27247E+01 2.22509E+01
 -1      1046 6.83886E+01 6.20649E+01 3.28087E+00 7.62380E+01 5.82377E+01 5.32111E+01
 -1      1047-9.91000E+00-2.63189E+01 9.76504E+00-2.63032E+01-1.18060E+01 1.61235E+01
 -1      1048-1.30337E+00 6.42472E+00-2.24168E-01-1.22412E+01-3.92511E+00 2.98742E+01
 -1      1049 8.27407E+00 2.00326E+01-1.29047E+01-3.19422E+01-2.07823E-01 6.12102E+00
 -1      1050-3.70692E+01 2.48871E+01 6.92280E+00 1.86290E+01 2.07528E+01-9.69049E+00
 -1      1051 2.99936E+01-6.28995E+02 3.02632E+02 5.39132E+02 2.18907E+02 1.53382E+02
 -1      1052 6.27542E+02-4.48979E+02-2.34632E+02-1.60324E+02 1.99727E+01 1.71825E+02
 -1      1053 1.11063E+03 1.06858E-03 4.34067E-04-3.61290E+01 4.47439E-04 2.89643E+02
 -1      1054 9.99217E+03 8.41152E-03 2.90855E-03 1.30812E+02 3.16332E-03-1.50086E+03
 -1      1055 7.76678E+03-7.09502E+02-8.18493E+02-3.46217E+02 6.36231E+02 6.91190E+02
 -1      1056 3.25657E+03-2.53187E+03-1.63699E+03-1.09529E+03-6.69698E+01-2.48620E+03
 -1      1057 2.74122E+02-4.07089E+03 1.08108E+03-3.63545E+03 2.11444E+02 7.53594E+01
 -1      1058-3.00613E+03-4.53607E+03 3.79916E+03-6.33276E+03-3.60785E+02-2.62781E+02
 -1      1059-6.09970E+03-1.44603E+03 2.91348E+03-6.39021E+03 1.31705E+02-2.71780E+03
 -1      1060-4.02801E+03 7.97865E+02 2.02781E+03-6.69282E+03 6.67771E+02 4.25648E+02
 -1      1061-3.79855E+02 1.71739E+02-1.49909E+02-1.20987E+02-1.11962E+02-2.62114E+01
 -1      1062 1.03967E+02 3.79473E+02-9.85423E+01 2.17278E+02-2.86722E+02-1.28812E+02
 -1      1063 2.56814E+02-4.05071E+02 8.56063E+01 4.74053E+01 1.95395E+02 1.11945E+02
 -1      1064-7.48723E+01-1.27083E+02 5.70212E+01-9.60399E+01 7.33220E+01 8.08767E+01
 -1      1065-3.35499E+01 4.15285E+01-6.45017E+00 1.83824E+01 3.73408E-01 4.96417E-01
 -1      1066 1.11588E+01 2.36426E+01 4.29434E-01 6.35597E+00-7.30948E+00 1.30358E+01
 -1      1067-1.69031E+00-1.56780E+01 4.07071E+00-1.55544E+01-1.16364E+00 3.04423E+01
 -1      1068-1.80951E+01-1.31528E+01 1.21883E+00-3.86146E+00-4.36580E+00 9.66115E+00
 -1      1069 5.22976E+01-2.26266E+01-1.20414E+01-1.22111E+00-6.19411E+00-1.17822E+01
 -1      1070 1.62917E+01 5.57904E+01 2.89118E+00-4.07824E+01-4.73193E+01 3.28156E+01
 -1      1071-9.10038E+01 2.45185E+01 2.19877E+01-1.62236E+01-3.52490E+01 2.99671E+00
 -1      1072-6.15746E+02 2.22245E+02 2.51205E+02 8.54613E+02 1.48143E+02-9.52920E+01
 -1      1073-9.50936E+02-1.64839E+01 3.65031E+02 7.47123E+02 7.40614E+01 3.45658E+02
 -1      1074-6.14133E+02-3.37009E+02 4.78857E+02 7.43208E+02-2.15273E+01 1.99852E+01
 -1      1075-1.41577E+02-3.54542E+02 1.31605E+02 4.12380E+02 2.21537E+01-2.10579E+01
 -1      1076 3.58991E+02-2.34161E+02-2.15647E+02 8.19644E+01 1.80219E+01 3.12873E+02
 -1      1077 1.00188E+03-7.36058E+01-1.07823E+02 1.63796E+01 7.54155E+01-6.58613E+01
 -1      1078 1.28075E+03 7.93460E-04 4.07247E-04-1.71366E+01 1.10953E-04 2.82094E+02
 -1      1079 8.78212E+03 3.54986E-03 2.49693E-03-8.31936E+01-7.94537E-03-2.91349E+03
 -1      1080 2.07180E+03-1.56206E+03-1.34970E+03-2.36620E+03-9.57120E+00-1.48607E+03
 -1      1081-4.87490E+03-2.05988E+03 3.49934E+03-5.77052E+03 3.50830E+02-6.77666E+02
 -1      1082-5.68958E+03 1.59253E+03 1.61602E+03-5.71302E+03 1.98192E+03 2.14113E+03
 -1      1083 7.31508E+02-2.38070E+03 7.30814E+02 1.41171E+02-9.57961E+02 2.12778E+02
 -1      1084-3.21094E+02-1.49936E+02-3.91014E+01-2.67210E+02-1.93482E+02-2.20536E+02
 -1      1085 6.20676E+00-5.89929E+01 3.78886E+01-1.29466E+01 2.50972E+01 2.23651E+01
 -1      1086-9.94648E+00-2.43355E+00-1.18614E+00-1.10001E+01-8.71086E+00 1.80506E+01
 -1      1087-5.20849E+01-1.13500E+01 1.56811E+01 2.42493E+01-2.04684E+01 5.56867E+01
 -1      1088 1.37566E+02-2.14801E+02 2.05058E+01 5.54336E+01-1.46629E+02-4.61976E+01
 -1      1089-9.06842E+02 4.26661E+02 1.92608E+02 7.46100E+02 2.33289E+02-3.34694E+02
 -1      1090-8.56130E+02-5.76218E+01 4.78136E+02 6.30824E+02 5.12256E+01 8.87896E+01
 -1      1091 2.03584E+02-1.05285E+02-1.99826E+02 1.62082E+02-1.76801E+01 2.27756E+02
 -1      1092 1.21140E+03 2.26207E-04 3.69675E-04 4.74434E+00-6.86661E-04 3.97979E+02
 -1      1093 7.00409E+03 2.78611E-03 1.22897E-03-2.24140E+02 6.73935E-03-1.89270E+03
 -1      1094 5.41673E+03-2.91651E+02-5.31200E+02-2.05118E+03 1.38142E+02 4.47750E+02
 -1      1095 1.10668E+03-7.92501E+02-1.06240E+03-3.62273E+03 2.42732E+02-2.09161E+03
 -1      1096-2.96713E+03-1.29173E+03 1.06856E+03-4.15594E+03 1.16635E+02 6.83907E+02
 -1      1097-5.39617E+03-1.16717E+03 3.19953E+03-5.01066E+03 1.48507E+03-4.01713E+02
 -1      1098-7.36006E+03 1.10393E+03 2.20189E+03-3.79947E+03-1.84715E+02-6.45356E+02
 -1      1099-7.16281E+03 4.36376E+03 1.20424E+03-4.00061E+02 5.63290E+02 2.18901E+03
 -1      1100 3.09891E+03-4.50335E+03 1.08434E+03 4.59026E+03 2.01107E+03 1.12079E+03
 -1      1101 6.21603E+03-8.71173E+03 6.11704E+02 1.50991E+03 3.61605E+03 1.91278E+03
 -1      1102 1.69378E+03-1.04861E+03-2.02594E+02 4.10384E+02 3.33194E+02-1.10894E+03
 -1      1103-1.53336E+02 5.91408E+02-1.10202E+02-6.06628E+01-5.69321E+01-2.19432E+02
 -1      1104-1.03016E+02 3.16491E+02-1.29573E+02 1.22193E+02 8.23957E+01-1.61537E+01
 -1      1105-9.48043E+01-2.31030E+02 1.06345E+02-1.71209E+02-5.85849E+01-8.43714E+01
 -1      1106 4.29608E+01-7.49843E+01 2.53925E+01 3.85471E+00 3.00292E+00-2.82377E+00
 -1      1107-9.91359E+00 2.98304E+01-1.14842E+01 3.62959E+01 2.59802E+00 6.85490E+01
 -1      1108-2.55273E+01 4.46387E+01-1.69199E+01-2.49798E+01 6.94287E+00 3.47270E+01
 -1      1109-3.14460E+01 3.39550E+01 3.23383E+01-2.63880E+01-1.20796E+01 4.65150E+01
 -1      1110 3.21212E+02-1.00386E+02-1.00718E+02 2.09540E+01 1.85002E+01 1.41678E+02
 -1      1111 1.21105E+03-8.14540E+02-1.07901E+02 2.03533E+02 2.36521E+02-4.71447E+02
 -1      1112 8.68008E+02-4.17624E+02-1.45674E+01-3.62943E+02 2.33328E+02-1.74346E+02
 -1      1113-1.05895E+03 6.85846E+02 1.34012E+02-4.78462E+01 2.37028E+01-3.33153E+02
 -1      1114-1.23618E+03 2.89610E+02 3.05714E+02 3.92576E+02-2.20781E+01 7.39418E+01
 -1      1115-9.48110E+02 1.04090E+01 4.77416E+02 5.16161E+02 1.57704E+02 6.73046E+01
 -1      1116-5.87844E+02-2.36159E+01 1.46706E+02 3.54856E+02-1.01672E+00-7.19362E+01
 -1      1117 8.65760E+01-5.53759E+00-1.84003E+02 2.40716E+02 2.68836E+01 3.16442E+02
 -1      1118 8.38167E+02-4.61380E+00-9.20014E+01 1.33436E+02 2.42325E+01-6.51796E+01
 -1      1119 1.10205E+03 2.09163E-04 2.26388E-04 1.52176E+01 6.02076E-04 3.34139E+02
 -1      1120 4.37390E+03 7.32533E-04 9.14830E-04-3.17678E+02-8.23018E-03-8.87990E+02
 -1      1121 2.52230E+02-4.02396E+02-4.94506E+02-3.61406E+03 2.65794E+01-1.37116E+03
 -1      1122-4.53983E+03 3.32784E+02 2.19739E+03-3.86054E+03-7.02995E+02-7.27277E+02
 -1      1123-3.38977E+03 2.60188E+03 3.42069E+02 4.52870E+02 1.98519E+03 1.33201E+03
 -1      1124 3.14452E+03-5.33982E+03-2.71029E+02-2.24462E+03 1.09160E+03 1.75355E+03
 -1      1125 6.89281E+02-4.41516E+02-1.56253E+02 5.93315E+02 1.42238E+02-2.26431E+02
 -1      1126-5.55240E+02 3.52618E+02 7.63894E+01-1.46745E+02 2.30864E+02-3.15593E+02
 -1      1127-9.30767E+02 1.96940E+02 4.03214E+02 4.32049E+02-7.79745E+01 1.05255E+02
 -1      1128 8.78849E+00 1.62414E+01-1.24740E+02 1.84134E+02 1.64745E+01 2.94979E+02
 -1      1129 9.44194E+02-7.29110E-05 2.30767E-04 2.09496E+01-7.06360E-04 2.48479E+02
 -1      1130 1.88574E+03 4.36174E-04 2.84521E-03-4.33014E+02 6.68508E-03 7.83807E+02
 -1      1131 1.91162E+03-2.48630E+02 3.66971E+01-2.20919E+03-2.35509E+02 6.23269E+02
 -1      1132-2.75454E+02-4.89580E+02 7.33877E+01-3.38923E+03 6.79318E+01-1.11101E+02
 -1      1133-3.29794E+03 4.21297E+02 6.34314E+02-3.15915E+03 5.07850E+02 9.52544E+02
 -1      1134-3.83200E+03 1.29011E+03 1.19524E+03-3.07498E+03 3.34529E+02 5.67729E+02
 -1      1135-2.85292E+03 1.64740E+03 3.37567E+02-1.42466E+03-1.82348E+01-5.93436E+02
 -1      1136-8.82609E+02 2.11242E+03-5.20105E+02 3.35220E+02-2.41489E+02-3.28061E+02
 -1      1137-2.58053E+03 5.20842E+03-1.01329E+03-3.28311E+02 2.38276E+03 1.82043E+03
 -1      1138-5.31444E+03 9.12588E+03-1.50648E+03 6.93029E+02 2.42952E+03 3.72352E+02
 -1      1139-3.08980E+03 7.07777E+03-1.72439E+03 6.32941E+03 2.70125E+03 1.66223E+03
 -1      1140-1.05115E+03 4.76068E+03-1.94230E+03 6.00187E+03 2.59074E+02 1.44145E+03
 -1      1141-6.84902E+01 4.99410E+02-2.19874E+02-6.13369E+02 7.94209E+00-1.27526E+02
 -1      1142-2.62763E+02 6.69166E+02-1.84615E+02-6.51817E+02 2.68069E+02-1.84040E+02
 -1      1143-5.86122E+02 8.93905E+02-1.49357E+02-4.23934E+01 2.58229E+02-8.41962E+01
 -1      1144-2.68143E+02 4.24025E+02-6.52951E+01 2.71125E+01 1.61712E+02-2.75319E+02
 -1      1145-1.72940E+02 1.27088E+02 1.87665E+01-4.41777E+01-3.92879E+01 5.45968E+01
 -1      1146-6.42133E+02 1.64019E+02 1.73889E+02 2.32574E+02-3.56404E+01 6.33607E+01
 -1      1147-9.20736E+02 2.59512E+02 3.29013E+02 4.46579E+02 4.48027E+00-4.89035E+01
 -1      1148-8.47577E+02 1.65743E+02 1.31768E+02 1.86310E+02 6.28962E+01-7.50253E+01
 -1      1149-4.14526E+01-1.60926E+01-6.54764E+01 1.08979E+02-1.18443E+01 2.31614E+02
 -1      1150 6.58751E+02-2.18808E+01-3.27377E+01 9.79650E+01-7.15985E+01-7.04105E+01
 -1      1151 8.19443E+02-1.82821E-04 4.32215E-04 3.47651E+01 5.28021E-04 1.77071E+02
 -1      1152-1.14546E+03-1.65994E+01 5.71986E+02-9.86330E+02 8.45434E+02 2.43990E+02
 -1      1153-1.07927E+03 5.82033E+03-1.81229E+03 2.59655E+03-4.64665E+02-2.51400E+02
 -1      1154-2.25490E+03 1.02154E+04-2.54640E+03 3.71942E+03-3.82190E+02-4.55077E+02
 -1      1155-8.04846E+02 7.20750E+03-2.28476E+03 4.99218E+03-2.28438E+03 4.36855E+02
 -1      1156-3.02192E+01 7.45414E+02-2.53105E+02-5.87188E+02-2.57494E+02-3.17131E+01
 -1      1157-2.05367E+02 9.15552E+02-2.32078E+02-4.55546E+02-5.21975E+01 8.01166E+01
 -1      1158-1.57444E+02 3.72573E+02-7.46983E+01-2.38762E+02-7.39428E+01 1.30599E+01
 -1      1159-3.22433E+02-2.05987E+01 1.55071E+02 4.12881E+02-3.71791E+00 7.49388E-01
 -1      1160 1.26038E+03-9.92016E+02-5.12743E+01 1.98648E+03-6.32235E+02-1.07118E+03
 -1      1161 4.48679E+02 3.05030E+03-1.57788E+03 4.04588E+03-1.70627E+02-3.09765E+02
 -1      1162-1.93427E+03 8.25264E+03-3.10448E+03 4.21571E+03 7.93778E+01-3.25649E+01
 -1      1163-1.51549E+03 7.71506E+03-3.34540E+03 3.87383E+03-7.94302E+02-6.18219E+02
 -1      1164-1.82997E+02 7.05328E+03-3.58632E+03 4.21763E+03-3.82059E+02 5.37906E+02
 -1      1165-1.05382E+03 6.99241E+03-3.10677E+03 4.65883E+03-1.23956E+03 9.71772E+02
 -1      1166-2.05273E+03 7.35662E+03-2.62722E+03 5.33491E+03-1.32223E+03-6.74823E+02
 -1      1167-1.60785E+02 7.12545E+02-2.86335E+02-7.08847E+02-1.78513E+02 9.82355E+01
 -1      1168-4.67285E+01 6.16256E+02-3.00568E+02-6.32053E+02-1.43077E+02-1.19512E+02
 -1      1169 7.21663E+01 5.61087E+02-3.14800E+02-5.81467E+02-2.26887E+01-8.58247E+01
 -1      1170-6.51996E+01 5.26521E+02-2.41482E+02-4.78521E+02-9.01182E+01 8.53829E+01
 -1      1171-1.61917E+02 5.14674E+02-1.68163E+02-4.09101E+02 4.49392E+01-2.50081E+01
 -1      1172 4.34101E+01 1.73514E+02-9.35174E+01-1.86711E+02 2.28431E+01-8.56077E+01
 -1      1173 1.57763E+02-1.36351E+02-1.88709E+01 1.60953E+02-1.51156E+02 8.24236E+01
 -1      1174-1.28605E+03 7.33461E+03-1.12775E+03 1.21997E+03 8.23417E+02 5.19524E+02
 -1      1175-8.46606E+01 4.27194E+03-1.16196E+03 2.70774E+03-2.25065E+02 1.42357E+02
 -1      1176 2.33823E+02 8.86240E+02-4.28963E+01 4.67851E+03-5.39756E+02-5.61748E+02
 -1      1177 1.01000E+02-2.84848E+01 1.59536E+01-6.63401E+02-9.28140E+01 5.45272E+01
 -1      1178 7.53196E+01 2.82786E+02-1.07157E+02-4.75390E+02-1.66044E+01-2.78150E+01
 -1      1179-6.93785E+01 4.05315E+02-6.81949E+01-3.21234E+02 1.29206E+02-5.71027E+01
 -1      1180 2.09607E+02-1.18036E+02 8.48967E+02 3.49081E+02-2.46184E+03-2.62113E+01
 -1      1181-1.15097E+02-1.55375E+02 1.05569E+03 9.14650E+02-2.39573E+03 1.51057E+02
 -1      1182 2.51362E+02-3.71189E+02 1.26241E+03 1.43797E+03-2.37214E+03 9.70587E+00
 -1      1183 1.93824E+03-2.70191E+03 1.90192E+03 1.21706E+03-1.94773E+03 1.30120E+01
 -1      1184 2.90738E+03-6.00784E+03 2.54143E+03-4.72484E+02-2.96218E+03-4.73395E+02
 -1      1185 1.05795E+03-4.62171E+03 2.42764E+03-4.11652E+03-1.44856E+03-1.66633E+03
 -1      1186-1.43898E+03-2.06184E+03 2.31385E+03-4.03860E+03-8.24422E+02-6.03346E+02
 -1      1187-1.90724E+03-1.06052E+03 1.52342E+03-2.18164E+03-1.03888E+03-3.23340E+02
 -1      1188-1.17765E+03-6.64977E+02 7.32991E+02-5.13087E+02 1.63859E+02-3.24623E+02
 -1      1189-3.34075E+02-6.60503E+02 5.25616E+02 5.58532E+00-2.36552E+02 1.78874E+02
 -1      1190 2.64602E+02-7.27772E+02 3.18242E+02-8.59039E+01-3.39400E+02 4.14882E+01
 -1      1191 2.79757E+02-3.62330E+02 2.09364E+02-3.20191E+02-1.85619E+02-1.51133E+01
 -1      1192 9.00487E+01-8.78631E+01 1.00485E+02-3.88614E+02-2.18085E+02-3.90756E+00
 -1      1193 3.75847E+01-4.11435E+01 6.61293E+01-3.68252E+02-1.52591E+02-8.58551E+00
 -1      1194 6.38285E+01-2.99941E+01 3.17734E+01-3.34549E+02-6.33998E+01-4.83085E+00
 -1      1195 2.91993E+02-6.04923E+03 4.24480E+02 6.30822E+02 4.22757E+02-7.12835E+02
 -1      1196 7.11351E+01-6.97073E+03 6.31203E+02 7.40745E+02 7.50328E+02 4.26913E+02
 -1      1197 1.11311E+03-8.00153E+03 1.27071E+03-1.29113E+03 4.14504E+02-3.65880E+01
 -1      1198-6.83879E+02-3.02126E+03 1.15693E+03-2.12109E+03 3.15043E+02-4.15051E+02
 -1      1199-3.52738E+02-8.36501E+02 3.66494E+02-3.50064E+02-4.12832E+01 3.92610E+02
 -1      1200 9.29653E+01-9.32705E+02 1.59121E+02 6.93147E+01 6.83790E+01 1.07378E+02
 -1      1201 2.62768E+01-6.39216E+02 5.02424E+01-2.16546E+02 7.89440E+01-3.47679E+01
 -1      1202 3.93621E+01-2.79572E+02 1.58864E+01-2.43092E+02 5.29267E+01 4.44966E+01
 -1      1203 1.89665E-03-7.41608E+03-2.65570E-03 3.33283E+02-1.75196E+03 2.36999E-03
 -1      1204 7.92912E-04-8.37183E+03-1.95301E-03 1.34282E+02-2.28163E+03-4.20607E-03
 -1      1205-4.09957E-03-9.51938E+03-3.47133E-03 1.64587E+01-2.83134E+03 4.13890E-03
 -1      1206-4.50369E-03-9.25383E+03-3.51854E-03-4.73651E+01-2.96177E+03-3.41719E-03
 -1      1207 9.39117E-04-8.63452E+03-2.72454E-03-3.60111E+02-6.94960E+02 5.90948E-03
 -1      1208-3.10856E-03-6.21412E+03-4.49112E-03-4.77528E+02-1.34975E+03 5.12836E-03
 -1      1209-2.55198E-03-3.98068E+03-2.50470E-03-1.45888E+02-1.32638E+03-5.66096E-04
 -1      1210 4.90041E-03-2.19147E+03-2.81832E-03-8.28491E+01 1.22871E+01 3.49494E-04
 -1      1211 2.61097E-03-1.00802E+03-2.88631E-03-7.79098E+01-7.43582E+02 1.86445E-03
 -1      1212 7.08963E-04-9.18392E+02-9.72387E-04 1.95541E+01-1.75347E+02-6.98145E-04
 -1      1213 8.03423E-04-1.01907E+03-8.47256E-04 3.04311E+01-9.34900E+01-5.10668E-04
 -1      1214-6.56796E-04-9.72004E+02-3.87321E-04-8.44159E+00-3.35417E+02 5.79646E-04
 -1      1215-5.84885E-04-8.68844E+02-3.81487E-04-1.95639E+01-2.24106E+02-6.49399E-04
 -1      1216-4.64553E-05-5.60648E+02-1.22338E-04-3.31269E+01-1.14226E+02 8.11640E-04
 -1      1217 4.27532E-05-2.66596E+02-2.39121E-04-5.32513E+01 6.72714E+01-6.34475E-04
 -1      1218-2.56016E+03 2.16597E+03-2.94856E+02-2.56354E+02 1.81530E+03-3.11942E+03
 -1      1219-1.22999E+02-1.50718E+02-1.71061E+02-5.00468E+01 7.12990E+01 6.78448E+01
 -1      1220-3.04944E+00 6.21662E+01-1.16735E+02-1.01585E+02 1.03231E+02-2.45895E+02
 -1      1221 1.46872E+01 8.86931E+01-6.67186E+01 3.73245E+01 1.66230E+02-7.78959E+01
 -1      1222-9.03485E+00-2.46108E+02-1.96002E+02-6.84056E+00 9.61309E+01-4.56456E+02
 -1      1223-2.22555E+03 2.79117E+03 4.54419E+02-3.68183E+02 3.58318E+03 1.68057E+03
 -1      1224 2.24301E+02 2.58269E+01 1.64202E+02-6.71252E+00-4.36509E+02-7.19078E+01
 -1      1225-2.06797E+02 1.50517E+02 5.74929E+01-1.63036E+02-1.60762E+02 1.87231E+02
 -1      1226-1.70484E+01 1.18538E+01 4.96851E+00-1.06984E+02 1.10287E+01-2.68839E+01
 -1      1227-3.26804E-01 1.70691E+01 1.63052E+01-1.40260E+02 3.23987E+01 4.79975E+01
 -1      1228-1.48920E+02 2.53400E+02-1.01869E+02-1.70515E+02-1.82143E+02-1.52047E+02
 -1      1229 1.41985E+02 1.82747E+02 1.68569E+02-5.14682E+01-4.28255E+01 6.48379E+01
 -1      1230-9.81619E+01-6.98283E+01 1.27033E+02 1.45000E+01-1.96979E+02-1.71974E+02
 -1      1231 1.36990E+01-4.22603E+01 1.18962E+01-1.37609E+02-2.97667E+01-3.56728E+01
 -1      1232-3.29908E+01 1.37453E+01 4.42784E+00-9.46609E+01-1.53669E+01 2.61792E+01
 -1      1233-2.18112E+01 4.52839E+01-9.31852E+00-8.55143E+01-1.15395E+01 1.83046E+01
 -1      1234 5.28268E+00 5.74483E+01-2.15213E+01-6.64489E+01 2.23812E+01 4.01692E+01
 -1      1235-1.06269E+02 5.98018E+01 1.30856E+02-8.20936E+01 1.74026E+02 1.07799E+02
 -1      1236 1.35724E+02-4.97564E+01-1.65392E+02 4.19938E+01-5.81020E+01 1.32546E+02
 -1      1237-3.06831E+01-4.43715E+01 2.57909E+01-9.64449E+01 1.51547E+00 4.28310E+01
 -1      1238-5.90839E+00-3.33357E+01 1.48962E+01-5.91809E+01-1.76362E+01 1.30332E+01
 -1      1239-8.02415E+00 1.41219E+01 5.02423E-01-5.04620E+01-1.19526E+01 2.86536E+01
 -1      1240-1.66458E+01 5.14906E+01-2.19318E+01-3.92335E+01-2.78711E+01-1.76578E+00
 -1      1241 1.41376E+01 7.10406E+01-5.36112E+01-1.39215E+01 4.88092E+00-4.40185E+01
 -1      1242-1.68900E+02-1.74089E+02-2.21492E+02-9.58045E+00-2.74835E+02 5.59245E+01
 -1      1243 1.62746E+02-3.05020E+02 1.09474E+02 2.98381E+01-2.50875E+02-1.68415E+02
 -1      1244-3.60173E+01 3.84471E+00-4.40461E+00 3.59161E+00 4.22845E+01 4.73089E+01
 -1      1245-6.62346E+00-1.03741E+01 3.08960E+00-2.37310E+01-1.72084E+01 6.19210E+00
 -1      1246 3.49679E+01-5.36749E+00-1.47062E+01-1.37383E+01-3.25475E+01 5.12573E+01
 -1      1247-5.24906E+01 1.29495E+01-2.17616E+01-1.43551E+01-4.58041E+01-1.12192E+01
 -1      1248 2.62339E+03-3.44035E+03-2.10593E+02 5.05567E+02 4.19522E+03 2.15547E+03
 -1      1249 3.79933E+01 3.13155E+02 2.07240E+02-6.43482E+01 1.17166E+02-3.44931E+02
 -1      1250-5.54045E+01-1.17917E+02 1.18783E+02-8.40051E+01 2.13292E+02 8.64787E+01
 -1      1251-8.83764E+00 1.70788E+01 1.01667E+01 1.31911E+01 7.79439E-01 5.43829E+00
 -1      1252 1.51321E+01 1.40431E+01 3.99604E+01-8.29514E+00 1.37946E+01 7.23327E+01
 -1      1253 4.65595E+02-3.44066E+02 1.97700E+01 7.43929E+01 2.61184E+02-5.69506E+02
 -1      1254-1.32684E+03 1.21284E+03-1.85078E+02-1.09385E+02 1.11142E+03-1.92684E+03
 -1      1255-1.03632E+03 2.28049E+02 5.20632E+02-1.70028E+02 9.60574E+01-1.20260E+02
 -1      1256-3.78081E+02 1.21124E+01-2.92537E+01-1.42821E+02 5.33971E+01 6.07659E+01
 -1      1257-4.13944E+01 2.83817E+01 8.26464E+01-1.04643E+01-7.73371E+01-3.74867E+01
 -1      1258-6.26050E+01 2.12867E+01-4.42198E+01-4.83866E+01 6.91112E+01-1.69301E+02
 -1      1259-3.72190E+01 1.15916E+01-1.45973E+01-5.86872E+01 4.16977E+01-1.34167E+02
 -1      1260-2.23395E+01 1.63727E+01-2.14737E+01-6.24330E+01 9.87285E+01-7.89357E+01
 -1      1261 2.68973E+01-1.11777E+01 3.50874E+01-1.08660E+02-8.92712E+01-2.38395E+02
 -1      1262-1.73934E+02-4.40692E+01-9.67822E+01-3.84239E+01 8.40533E+01-3.81726E+02
 -1      1263-8.44747E+02 2.40283E+02 4.63788E+02-8.99015E+01 2.17899E+02-3.32311E+02
 -1      1264-1.26468E+03 1.42510E+03 2.88919E+02-1.63068E+02 2.21655E+03 1.02417E+03
 -1      1265-2.25412E+02 8.33249E+02-4.53049E+02-5.55139E+01-2.71760E+02-1.69464E+02
 -1      1266-6.49584E+01 4.90755E+01-5.71593E+01-2.29262E+02 1.64968E+02-1.23981E+02
 -1      1267-6.83658E+01 2.53800E+01 1.43752E+01-1.15304E+02 7.17115E+00 3.11640E+01
 -1      1268-2.77750E+01 3.20467E+01-1.55924E+01-1.45767E+02 7.10751E+00-3.20674E+01
 -1      1269 6.01464E+01 6.60319E+01-4.70622E+01-1.16466E+02 2.17664E+02 8.78059E+01
 -1      1270-2.44401E+02 1.16298E+03-5.75319E+02-2.13056E+02 1.81374E+02 7.07474E+01
 -1      1271 3.00982E+01 1.96205E+02 7.24756E+01-3.34928E+01-3.67264E+02-6.12464E+01
 -1      1272-4.80259E+01-3.42451E+01 4.64136E+01-1.08355E+02 6.55473E+01-1.96998E+02
 -1      1273-1.23350E+02 7.75543E+01 4.15323E+01-2.23496E+02-7.38959E+01 8.68964E+01
 -1      1274-7.16145E+01 5.82530E+01-8.44883E-01-2.01477E+02-1.50521E+01 3.77499E+01
 -1      1275-3.77178E+01 3.12579E+01 1.26512E+00-1.73516E+02 4.42961E+00-5.47496E+00
 -1      1276-3.75600E+01 3.61023E+01 2.95013E-01-1.81214E+02 2.00506E+01 5.72889E+00
 -1      1277-1.00265E+01 4.98496E+01-3.88966E+00-1.93344E+02 2.34696E+01 2.64253E+01
 -1      1278-2.89532E+01 1.11273E+02-4.99001E+01-1.85365E+02-2.81755E+00-1.36114E+01
 -1      1279-7.28878E+01 1.76365E+02-7.89728E+01-2.29771E+02-8.11289E+01-6.05918E+01
 -1      1280-6.02159E+01 1.41288E+02 4.93858E+01-2.42992E+02 1.48775E+02 1.76220E+02
 -1      1281-3.47934E+01 4.87753E+02 5.97018E+00-1.56817E+02-3.85370E+01 4.51183E+01
 -1      1282 1.01257E+01-4.49625E+01-1.93273E+01-1.08512E+02-2.57199E+02 7.53646E+01
 -1      1283-7.29480E+01 7.53467E+00 4.22143E+01-1.85616E+02-3.55703E+01 1.28969E+01
 -1      1284-4.37828E+01 2.91196E+01 5.89447E+00-1.57440E+02-3.08799E+00 1.42195E+01
 -1      1285-2.29950E+01 6.39012E+01-1.47198E+01-1.46315E+02 6.95748E-01 2.26642E+01
 -1      1286-5.31454E+01 1.32082E+02-2.62842E+01-1.75986E+02-3.77734E+01-8.68497E-01
 -1      1287-5.88701E+01 1.28926E+02-1.10153E+02 2.20696E+00 9.07107E+00-8.06261E+01
 -1      1288 4.11226E-01-4.54767E+01 7.47941E+01-6.16122E+01-1.69315E+02-1.13240E+02
 -1      1289-1.02153E+01-2.89943E+01 1.23557E+01-1.45061E+02-6.29168E+01 9.80458E+00
 -1      1290-1.99651E+01-4.00993E+01 2.43234E+01-1.94691E+02-2.56796E+01-1.69880E+01
 -1      1291-3.77953E+01-1.22405E+01 2.22265E+01-1.50972E+02-1.71171E+01 6.15271E+00
 -1      1292-4.72130E+01 1.87837E+01 9.67795E+00-1.41303E+02-1.33813E+01 1.78184E+01
 -1      1293-3.27903E+01 4.23013E+01-3.07024E+00-1.32786E+02-1.32545E+01 1.58765E+01
 -1      1294-3.08419E+01 6.75840E+01-1.32705E+01-1.26526E+02-8.69086E+00 1.69565E+01
 -1      1295-2.43653E+01 8.26902E+01-2.06315E+01-1.20686E+02-8.34113E+00 1.68056E+01
 -1      1296-1.83462E+01 1.03110E+02-2.77773E+01-1.14324E+02 6.56960E+00 2.14120E+01
 -1      1297-3.73626E+01 1.70469E+02-5.24631E+01-6.93055E+01-3.24894E+01 3.12605E+00
 -1      1298-5.27112E+01 1.61027E+02 3.69067E+01-2.39024E+01 1.08947E+02 7.34631E+01
 -1      1299 2.93462E+01-9.79992E+01 1.34638E+01-4.87857E+01-1.26862E+02-1.00894E+01
 -1      1300-1.32832E+01-6.92434E+01 2.72775E+01-1.60923E+02 1.08415E+00 2.63419E-01
 -1      1301-2.86532E+01-1.26657E+01 1.54953E+01-1.13980E+02-6.46502E+00 1.68681E+01
 -1      1302-2.16588E+01 4.09286E+01-7.42868E+00-1.00220E+02-4.47928E+00 1.90556E+01
 -1      1303-1.33470E+01 9.19635E+01-2.62633E+01-8.45957E+01 3.88378E+00 1.47426E+01
 -1      1304-3.44158E+01 1.18500E+02-1.40676E+01-2.80477E+01 5.99657E+01 5.39017E+00
 -1      1305 6.06097E+01-1.66147E+02-5.70427E+01-5.33709E+01-8.44024E+01 9.38280E+01
 -1      1306 3.04772E+01-1.80083E+02 5.92042E+01-1.01081E+02-7.13821E+01-1.75452E+00
 -1      1307-6.91000E+00-9.23825E+01 3.38447E+01-1.23666E+02-6.85866E+00 1.92300E+01
 -1      1308-1.03383E+01-6.65568E+01 2.68816E+01-9.21827E+01-1.52321E+01 1.93611E+01
 -1      1309-1.21120E+01-4.81097E+01 2.16708E+01-8.67463E+01-1.48428E+01 1.39265E+01
 -1      1310-1.70934E+01-1.26405E+01 1.11129E+01-7.99731E+01-1.44726E+01 1.84777E+01
 -1      1311-1.19741E+01 2.02853E+01-1.97284E+00-7.33159E+01-1.03893E+01 2.11315E+01
 -1      1312-9.00261E+00 4.58649E+01-1.58755E+01-6.55681E+01-1.55911E+01 1.32921E+01
 -1      1313-1.01348E+01 6.81223E+01-2.66056E+01-5.76544E+01-2.01502E+01 4.56983E+00
 -1      1314-1.57667E+01 8.22618E+01-1.77497E+01-3.86568E+01-1.19516E+01 1.14413E+01
 -1      1315-2.17899E+01 9.03864E+01-4.63875E+01-1.85210E+01 4.39215E+00-3.22270E+01
 -1      1316 6.51754E+01-1.32959E+02 1.19649E+02-8.31049E+01-1.81858E+02-9.95942E+01
 -1      1317 3.86419E+01-1.34544E+02 2.83885E+01-4.13765E+01-5.48092E+01-5.91655E+00
 -1      1318-2.21358E+01-4.76426E+01 2.75159E+01-5.53410E+01-4.45466E-01 1.88400E+01
 -1      1319-8.87363E+00 5.22941E+00-1.13335E-02-4.85994E+01-5.89906E+00 1.79723E+01
 -1      1320 4.03034E+00 4.24700E+01-2.09961E+01-4.34409E+01-1.01550E+01 1.15624E+01
 -1      1321-1.84617E+01 6.47915E+01-1.73498E+01-2.51986E+00-3.90669E+00 5.93460E+00
 -1      1322 3.72286E+01-5.40310E+02-1.92217E+01 8.59783E+01-2.23283E+02 3.26973E+01
 -1      1323 5.95142E+01-1.46556E+02-5.04684E+01 9.49960E+01 1.67049E+02 2.04294E+02
 -1      1324 6.81618E+01-1.99767E+02 8.49473E+01 9.75838E+00-1.18303E+02-6.57498E+01
 -1      1325 5.81278E-01-1.16213E+02 6.43618E+01-2.11197E+01-9.63230E+00-1.57647E+01
 -1      1326-3.68827E+01-3.51219E+01 1.99410E+01-9.51380E+00 2.58093E+01 2.46309E+01
 -1      1327-1.50379E+01-1.61169E+01 1.04438E+01-2.16483E+01 1.34161E+01 1.88937E+01
 -1      1328-1.11607E+01-4.95353E+00 5.08639E+00-3.20526E+01-9.72670E+00 1.10799E+01
 -1      1329 2.24542E+00 3.19080E+00-9.54840E-01-2.74829E+01-1.20869E+01 1.71823E+01
 -1      1330 1.72311E+01 1.17760E+01-1.37256E+01-2.66368E+01-2.00360E+01 2.71180E+01
 -1      1331 5.85888E-01 4.04116E+01-1.97805E+01-2.45841E+01-1.57944E+00-3.28552E+01
 -1      1332-1.61798E+01 1.32432E+00-1.70709E+01-1.04213E+01-4.20198E+01-1.04260E+01
 -1      1333 2.86509E+02-1.36540E+03 6.86651E+02 1.86981E+02 2.81064E+01 1.07371E+02
 -1      1334-7.67930E+01-7.46960E+01 7.34581E+01-5.42342E+01 2.70154E+02 1.01450E+02
 -1      1335-1.25126E+01-2.09406E+01 1.98938E+01 6.72175E+00-1.37060E+00-1.61172E+01
 -1      1336-1.23525E+01 1.41059E+00 8.86180E+00-2.03480E+01 9.02749E+00 2.82805E+01
 -1      1337 1.12420E+01 1.90117E+00 5.18193E+00-2.86383E+00 2.20481E+01-1.21837E+01
 -1      1338 3.83358E+01-1.26714E+02 7.44496E+01 4.14920E+00-2.63620E+01-3.11993E+01
 -1      1339 1.53412E+03-1.71744E+03-1.87701E+02 1.87612E+02 2.54494E+03 1.36566E+03
 -1      1340 1.04877E+03-2.97913E+02-5.65997E+02 4.04721E+01 2.35832E+02-2.19490E+02
 -1      1341 2.29809E+02 5.35847E+01 1.04786E+02-5.02205E+01 1.08466E+02-3.01618E+02
 -1      1342-5.92268E+01 1.84961E+01-3.37700E+01 5.76731E+01-1.01863E+02-1.22992E+02
 -1      1343-2.24069E+01-8.40004E+00 5.58940E+01 1.21230E-01 1.27331E+02 5.38944E+01
 -1      1344-1.71031E+01 3.55073E+00 1.87267E+01-7.36265E+00 3.21365E+01 2.10804E+01
 -1      1345-9.33690E+00 5.10292E+00 5.19824E+00-9.02044E+00 9.20391E-01 9.79524E+00
 -1      1346-5.46102E+00-3.12051E+00-1.52924E+01-1.64396E+01-2.13045E+01 3.60866E+01
 -1      1347 6.45194E+01-5.86454E+00 8.72036E+00 7.45280E+00 8.34879E+00 5.81027E+01
 -1      1348 1.77523E+02-3.77412E+01-8.85028E+01 2.26375E+01 9.71034E+00 6.67043E+00
 -1      1349 2.29653E+02-2.09251E+02 2.23538E+01 2.50823E+01 1.64801E+02-3.45927E+02
 -1      1350-1.13563E+03 1.01988E+03-3.27795E+01-1.37720E+02 4.19099E+02-7.58821E+02
 -1      1351-4.62156E+02 4.33429E+01 1.10906E+02-1.91953E+02 3.11931E+01 9.57503E+01
 -1      1352-6.88142E+01 2.33880E+01 3.15615E+01-7.57373E+01 1.60434E+01-4.83381E+01
 -1      1353-1.71441E+01 1.42682E+01 1.71056E+01-1.11609E+02 2.19478E+01-7.90319E+01
 -1      1354-2.01259E+02-1.87702E+01 2.18951E+01-1.01555E+02 5.17374E+01-2.64809E+02
 -1      1355-1.05687E+03 1.22498E+03 5.19340E+01-2.00214E+02 8.82859E+02 3.75080E+02
 -1      1356 5.35555E+00 2.36651E+02-3.47408E+01-8.62477E+01-2.65171E+02-4.16482E+01
 -1      1357-1.36167E+02 7.88352E+01 2.61733E+01-2.90145E+02-1.26697E+01-1.00110E+01
 -1      1358-5.79878E+01 4.49010E+01-3.74945E+00-2.29370E+02 3.31597E+00-7.74861E-01
 -1      1359-2.06391E+01 7.03614E+01-2.43271E+01-2.51683E+02 8.66804E+00 7.95318E+00
 -1      1360-7.13927E+01 2.04215E+02-5.87294E+01-2.96801E+02 2.11941E+01-4.72993E+00
 -1      1361-7.35804E+01 6.09356E+02-1.54390E+02-2.15100E+02-9.17187E+01 2.73098E+01
 -1      1362 7.63803E+00-5.63050E+01 2.57132E+01-1.13217E+02-1.29565E+02-2.68577E+01
 -1      1363-3.32026E+01-4.81137E+01 3.73890E+01-2.50900E+02-1.48161E+01-4.09550E+00
 -1      1364-6.04100E+01 2.45835E+01 1.52555E+01-1.87975E+02-9.58996E+00 1.13329E+01
 -1      1365-3.96158E+01 8.75421E+01-1.82288E+01-1.67319E+02-6.38809E+00 8.70495E+00
 -1      1366-2.82340E+01 1.44787E+02-3.40817E+01-1.51973E+02 1.93447E+00 8.77840E+00
 -1      1367-6.11467E+01 2.10411E+02-6.44517E+01-3.78707E+01 1.03625E+01 1.31446E+01
 -1      1368 6.87576E+01-2.21839E+02 6.40718E+01-8.86516E+01-1.10777E+02 1.62185E+01
 -1      1369-3.68828E+00-1.32468E+02 4.07466E+01-1.59180E+02-8.50045E+00 4.24683E+00
 -1      1370-1.77194E+01-6.11493E+01 3.00594E+01-1.14964E+02-1.05211E+01 5.43982E+00
 -1      1371-1.62955E+01 2.61894E+01-4.89673E+00-9.63584E+01-7.05442E+00 1.15604E+01
 -1      1372-1.07343E+01 9.05077E+01-3.18151E+01-7.71952E+01-8.01700E+00 3.84020E+00
 -1      1373-2.97051E+01 1.14340E+02-4.27005E+01-2.57474E+01-2.03953E+00-9.43506E+00
 -1      1374 7.78214E+01-6.79976E+02 1.68288E+02 1.04060E+02-2.17861E+02 2.82192E+01
 -1      1375 6.06609E+01-2.27701E+02 6.77773E+01 1.12442E+01 1.14887E+01-5.90626E-01
 -1      1376-4.10929E+01-5.31155E+01 4.36660E+01-1.55883E+01 7.62304E+00 1.18017E+01
 -1      1377-1.26405E+01-6.12231E+00 8.28177E+00-4.15021E+01-2.05751E+00 8.94448E+00
 -1      1378 1.82924E+01 1.92337E+01-1.39614E+01-3.39568E+01-8.93800E+00 4.07896E+00
 -1      1379-1.39342E+01 8.24599E+00-8.42117E+00-1.13971E+01-3.60114E+01-8.00844E+00
 -1      1380 1.30642E+03-1.45225E+03-2.49011E+01 1.72979E+02 9.73023E+02 5.45131E+02
 -1      1381 2.62862E+02 2.01910E+01-3.36471E+01-2.42458E+01 6.33617E+01-2.29264E+02
 -1      1382-3.58929E+01-6.98201E-01 5.68662E+00 1.35829E+01 2.67218E+01-8.66223E+00
 -1      1383-2.28914E+01 5.56329E+00-3.33154E+00-1.56063E+01 7.17062E-01 1.63379E+01
 -1      1384 8.10819E+01-1.01987E+01-1.92983E+01 5.64713E+00 2.77665E+00 4.25453E+01
 -1      1385 1.94491E+02-1.78432E+02 3.17409E+00 2.34961E+01 6.65535E+01-1.29609E+02
 -1      1386-9.91766E+02 8.58432E+02-2.33806E+00-1.83228E+02 3.21801E+02-4.64131E+02
 -1      1387-9.55184E+02 1.98274E+02 3.76918E+02-2.58635E+02-3.64270E+01-4.26279E+01
 -1      1388-5.60082E+02 6.71187E+01 1.16237E+02-2.32139E+02 3.47007E+01 5.28057E+00
 -1      1389-1.25637E+02 6.55234E+01 3.06272E+01-9.78020E+01-6.24871E+00-6.54616E+01
 -1      1390-6.83350E+01 2.70917E+01 3.48395E+01-1.10975E+02 1.36090E+01 1.29390E+01
 -1      1391-5.42100E+01 1.39604E+01-9.78937E+00-1.36137E+02 3.69180E+00-3.52928E+01
 -1      1392-5.13344E+00 1.49686E+01 1.16753E+01-1.60269E+02 1.75548E+00-5.60934E+01
 -1      1393 1.31314E+01 1.26595E+01-2.99682E+00-1.91041E+02 1.54769E+01-2.16203E+01
 -1      1394-2.32428E+02-6.38522E+00 2.64030E+01-1.90662E+02 1.04457E+02-9.49753E+01
 -1      1395-6.78350E+02 2.24110E+02 2.53939E+02-2.33608E+02-7.48177E+01-7.95215E+01
 -1      1396-8.76652E+02 1.08025E+03 3.63054E+00-2.61644E+02 5.27608E+02 3.10694E+02
 -1      1397-2.03203E+02 6.97934E+02-2.68077E+02-1.69928E+02-6.52032E+01 7.23598E+01
 -1      1398-2.17955E+02 6.06945E+01 4.29066E+01-3.20382E+02 3.98063E+01-3.37848E+01
 -1      1399-8.31140E+01 4.40913E+01 3.08948E+01-2.13386E+02 2.05668E+00 4.13049E+01
 -1      1400-2.08770E+01 5.02772E+01-3.99798E+00-2.53352E+02-8.29438E+00-2.36286E+00
 -1      1401-1.49344E+01 8.86230E+01-2.21877E+01-2.97038E+02 7.93775E+01 7.33464E+01
 -1      1402-2.07102E+02 1.11125E+03-4.40557E+02-3.29694E+02 5.43206E+01-3.62667E+01
 -1      1403-7.86330E+00 2.85796E+02-4.27369E+01-1.61525E+02-1.00668E+02-8.78112E+01
 -1      1404-5.95186E+01 5.71854E+01 1.40215E+00-2.73038E+02 6.35683E+01-7.32769E+01
 -1      1405-1.46868E+02 7.94672E+01 3.34214E+01-3.59977E+02-4.79088E+01 1.46457E+01
 -1      1406-1.34726E+02 7.54668E+01 2.82774E+01-3.00993E+02-1.85260E+01 1.42901E+01
 -1      1407-8.01828E+01 5.91584E+01-1.79551E+00-2.86301E+02 8.90023E+00-2.50852E+01
 -1      1408-5.42983E+01 6.97741E+01-3.25471E+00-2.96309E+02 8.74350E+00-1.14678E+01
 -1      1409-3.30627E+01 9.22940E+01-2.71094E+01-3.12560E+02 6.50151E+00 5.40836E+00
 -1      1410-6.24946E+01 1.59831E+02-4.00983E+01-3.26233E+02-4.98593E+00-3.56458E+01
 -1      1411-6.89558E+01 2.28907E+02-7.41536E+01-3.66959E+02-7.25972E+00-5.15743E+01
 -1      1412-7.37169E+01 3.55192E+02-8.46167E+01-3.43630E+02 3.91641E+01 4.03937E+01
 -1      1413-1.03420E+02 7.50569E+02-1.70491E+02-2.65639E+02-1.24990E-01 2.82050E+01
 -1      1414-1.13915E+01-3.28872E+01 1.23150E+01-1.89535E+02-7.09751E+00-9.15803E+00
 -1      1415-1.02192E+02 3.35394E+01 2.84003E+01-3.27116E+02-3.38287E+01 6.16541E+00
 -1      1416-7.90550E+01 4.88594E+01 9.17521E+00-2.53644E+02 6.64064E+00-6.18053E+00
 -1      1417-4.47442E+01 1.08541E+02-2.42286E+01-2.47551E+02 6.53609E-01 6.05543E+00
 -1      1418-6.58713E+01 2.36907E+02-7.38085E+01-2.55052E+02-1.90078E+01-1.97914E+01
 -1      1419-1.11266E+02 2.92240E+02-7.69266E+01-7.56338E+01 6.65090E+01-1.48654E+01
 -1      1420 1.01186E+01-7.65946E+01 3.83935E+01-1.67228E+02-7.62918E+01-7.07593E+00
 -1      1421-2.08294E+01-6.69638E+01 2.71990E+01-2.53709E+02-1.40994E+01 8.29817E+00
 -1      1422-4.81455E+01-5.25103E+01 4.22305E+01-3.09617E+02-9.75757E+00-1.21664E+01
 -1      1423-6.28894E+01-1.37542E+01 2.96840E+01-2.55521E+02-3.77084E+00-3.20435E+00
 -1      1424-7.37196E+01 3.00424E+01 1.90223E+01-2.34403E+02-4.39973E+00 9.71342E+00
 -1      1425-5.70684E+01 6.65938E+01-5.08543E+00-2.19433E+02-7.33695E+00 1.23612E+00
 -1      1426-4.79342E+01 1.07874E+02-2.36141E+01-2.07820E+02-6.86745E+00-2.72100E+00
 -1      1427-3.64624E+01 1.44074E+02-3.88988E+01-1.93201E+02 5.15426E+00 6.53019E+00
 -1      1428-3.77791E+01 1.88833E+02-4.83048E+01-1.89715E+02 1.92447E+01 1.14493E+01
 -1      1429-6.09709E+01 2.50835E+02-8.98951E+01-1.31892E+02-3.81752E+01 2.22563E+00
 -1      1430-7.13685E+01 2.54826E+02-8.05967E+01-5.64881E+01-3.07362E+01 9.91469E+00
 -1      1431 4.51284E+01-1.81167E+02 4.59271E+01-1.45342E+02-3.82102E+01-1.82216E+00
 -1      1432-2.34301E+01-1.13371E+02 5.33543E+01-2.55942E+02-3.19390E-01-7.02313E-01
 -1      1433-4.78316E+01-2.11591E+01 2.68946E+01-1.90245E+02 2.15743E+00 8.66926E-01
 -1      1434-3.40049E+01 6.87494E+01-1.30110E+01-1.63414E+02-4.36254E-02 6.43978E-01
 -1      1435-2.34379E+01 1.49293E+02-4.96925E+01-1.41122E+02 1.01745E+01 3.95636E+00
 -1      1436-5.15508E+01 2.09914E+02-4.80473E+01-4.71268E+01 1.09936E+01-1.49610E-02
 -1      1437 8.00625E+01-2.71338E+02 7.86306E+01-1.24695E+02-8.85589E+01 7.13876E+00
 -1      1438 5.11364E+01-2.61391E+02 9.83470E+01-1.68341E+02-2.93541E+01-1.79768E-01
 -1      1439-4.80002E-01-1.75919E+02 5.84140E+01-1.96856E+02 3.71876E+00 8.72281E+00
 -1      1440-2.24872E+01-1.18834E+02 5.20091E+01-1.59800E+02 3.98873E-01 8.01836E+00
 -1      1441-2.43675E+01-7.41128E+01 3.83672E+01-1.43206E+02-7.31927E+00-8.79400E+00
 -1      1442-2.64949E+01-1.81760E+01 1.84278E+01-1.30274E+02-6.31652E+00-1.59612E+00
 -1      1443-2.03050E+01 3.21386E+01-6.08587E+00-1.19315E+02-2.87484E+00 3.90859E+00
 -1      1444-1.40798E+01 7.43960E+01-2.33594E+01-1.06776E+02-3.80817E+00-2.23698E+00
 -1      1445-1.03808E+01 1.11634E+02-3.94054E+01-9.69596E+01-2.54224E+00-5.78444E+00
 -1      1446-2.11979E+01 1.36931E+02-4.35531E+01-6.75417E+01-1.28593E+01 1.86265E+00
 -1      1447-3.52361E+01 1.42628E+02-5.51601E+01-3.35070E+01-3.47544E+00-4.48178E+00
 -1      1448 1.20151E+02-3.20550E+02 8.43562E+01-9.44409E+01 3.80143E+01-1.75235E+01
 -1      1449 3.93772E+01-2.47599E+02 8.80663E+01-1.06132E+02-3.81239E+01-2.16662E+01
 -1      1450-2.93002E+01-8.08484E+01 4.19430E+01-8.34652E+01 6.11203E+00 6.57021E+00
 -1      1451-1.30776E+01 7.05801E+00 3.21859E+00-8.12889E+01 4.25191E-04 9.18343E-01
 -1      1452 6.17110E+00 6.53025E+01-2.84650E+01-6.59817E+01 2.26028E-01 1.83745E+00
 -1      1453-2.24540E+01 1.06860E+02-3.24481E+01-1.66610E+01 1.65382E+01-3.14679E+00
 -1      1454 1.07403E+02-8.44638E+02 1.94234E+02 1.05818E+02-5.19761E+01 4.41643E+01
 -1      1455 6.56865E+01-3.98002E+02 1.06272E+02 7.49678E+01 6.75923E+01 6.35050E+01
 -1      1456 5.15865E+01-2.51990E+02 8.60724E+01 1.24716E+01-3.00408E+01-4.60789E+01
 -1      1457 1.91428E+01-1.63021E+02 5.71405E+01-4.60583E+00-1.03470E+01-2.92659E+01
 -1      1458-4.26076E+01-7.30595E+01 5.03090E+01-2.04617E+01 1.19381E+01 1.62305E+01
 -1      1459-3.07718E+01-3.45200E+01 2.31964E+01-3.63562E+01 5.48709E+00 4.75226E+00
 -1      1460-1.42094E+01-7.29162E+00 1.08404E+01-5.09041E+01-2.17579E+00-2.31869E+00
 -1      1461 7.41688E+00 9.68889E+00-7.56402E+00-4.79635E+01-5.29437E+00 5.18281E+00
 -1      1462 1.94983E+01 2.64254E+01-1.86107E+01-4.14374E+01-8.02767E+00 7.91331E+00
 -1      1463-3.37436E-01 4.85284E+01-2.01597E+01-2.68183E+01 2.39257E+00-1.03917E+01
 -1      1464-1.36922E+01 1.46741E+01-1.25077E+01-9.85028E+00-1.72307E+01-1.55042E+01
 -1      1465 2.50589E+02-1.26806E+03 5.00215E+02 2.04630E+02 1.36774E+01-5.85480E+01
 -1      1466 4.24971E+00-9.97375E+01 3.83603E+01 2.50262E+01 8.29154E+01 6.37660E+01
 -1      1467-4.73408E+01-3.40522E+01 2.11875E+01 7.19061E+00-7.76884E+00-2.20758E+01
 -1      1468-2.73163E+01 1.21333E+00 6.82975E+00-3.30039E+01 1.79145E+00 6.90996E+00
 -1      1469 3.99036E+01 5.33058E+00-1.55446E+01-1.73975E+01 8.97153E+00-9.10462E+00
 -1      1470 3.32976E+01-9.28901E+01 3.73569E+01 8.18262E+00-3.83744E+00 1.02600E+01
 -1      1471 1.11214E+03-1.25425E+03-1.86628E+00 1.77290E+02 6.04938E+02 4.07895E+02
 -1      1472 8.76951E+02-2.68451E+02-3.35148E+02 9.38358E+01-7.84060E+01-4.60213E+01
 -1      1473 3.00966E+02 1.90705E+00-3.09314E+01 2.59478E+01 1.13879E+02-7.47787E+01
 -1      1474-6.26799E+01-1.00135E+01 1.95646E+01 5.96100E+01 1.44395E+01 2.22549E+01
 -1      1475-5.93144E+01 2.64099E+00 1.59251E+01 2.28325E+01 4.84913E+00-3.03967E+01
 -1      1476-3.88643E+01 1.04373E+01 2.74114E+01-1.78653E+00 2.37899E+00-2.74355E+00
 -1      1477-3.69363E+01 6.64387E+00-1.97640E+00-2.04450E+01 3.51350E+00 1.51088E+01
 -1      1478 4.58707E+00-7.30723E+00-1.34074E+00-2.49218E+01-1.38117E+00 8.49185E-01
 -1      1479 1.00924E+02-1.44012E+01-2.10864E+01 8.69148E-01 3.08951E+00 9.45826E+00
 -1      1480 1.66902E+02-3.20844E+01-6.58308E+01 2.16679E+01-1.14058E+01-1.54433E+00
 -1      1481 1.70323E+02-1.51042E+02-1.40702E+00 2.51985E+01 5.26020E+01-7.81558E+01
 -3
    1PSTEP                        40           1           1          
    1PGM                1.000000E+00                                  
    1PGK                2.078485E+12                                  
    1PHID                         -1                                  
    1PSUBC                         0                                  
    1PMODE                        10                                  
  100CL  110 229452.8963        1481                     2   10MODAL      1
 -4  ERROR       1    1
 -5  STR(%)      1    1    0    0
 -1         1 2.33131E+01
 -1         2 2.33131E+01
 -1         3 2.33131E+01
 -1         4 1.96199E+01
 -1         5 1.59268E+01
 -1         6 1.49621E+01
 -1         7 1.39975E+01
 -1         8 1.83430E+01
 -1         9 2.26885E+01
 -1        10 2.26885E+01
 -1        11 2.26885E+01
 -1        12 2.33131E+01
 -1        13 2.33131E+01
 -1        14 1.59268E+01
 -1        15 1.39975E+01
 -1        16 2.26885E+01
 -1        17 2.26885E+01
 -1        18 2.33131E+01
 -1        19 2.33131E+01
 -1        20 2.33131E+01
 -1        21 1.96199E+01
 -1        22 1.59268E+01
 -1        23 1.49621E+01
 -1        24 1.39975E+01
 -1        25 1.83430E+01
 -1        26 2.26885E+01
 -1        27 2.26885E+01
 -1        28 2.26885E+01
 -1        29 1.61066E+01
 -1        30 1.65363E+01
 -1        31 1.39984E+01
 -1        32 1.30337E+01
 -1        33 1.76965E+01
 -1        34 1.76965E+01
 -1        35 8.90007E+00
 -1        36 9.32978E+00
 -1        37 9.75948E+00
 -1        38 1.09147E+01
 -1        39 1.20700E+01
 -1        40 1.20700E+01
 -1        41 1.20700E+01
 -1        42 1.23872E+01
 -1        43 1.27044E+01
 -1        44 1.27044E+01
 -1        45 1.27044E+01
 -1        46 9.20317E+00
 -1        47 1.11824E+01
 -1        48 1.34508E+01
 -1        49 1.40814E+01
 -1        50 1.43986E+01
 -1        51 1.28355E+01
 -1        52 9.50627E+00
 -1        53 1.10558E+01
 -1        54 1.26054E+01
 -1        55 1.37185E+01
 -1        56 1.48315E+01
 -1        57 1.54622E+01
 -1        58 1.60929E+01
 -1        59 1.60929E+01
 -1        60 1.60929E+01
 -1        61 1.45297E+01
 -1        62 1.29665E+01
 -1        63 1.65326E+01
 -1        64 1.80822E+01
 -1        65 1.62021E+01
 -1        66 1.64490E+01
 -1        67 1.92866E+01
 -1        68 1.77235E+01
 -1        69 2.35589E+01
 -1        70 2.35589E+01
 -1        71 2.35589E+01
 -1        72 2.05658E+01
 -1        73 1.75727E+01
 -1        74 1.71890E+01
 -1        75 1.68052E+01
 -1        76 1.96428E+01
 -1        77 2.24804E+01
 -1        78 2.24804E+01
 -1        79 2.24804E+01
 -1        80 2.35589E+01
 -1        81 2.35589E+01
 -1        82 1.75727E+01
 -1        83 1.68052E+01
 -1        84 2.24804E+01
 -1        85 2.24804E+01
 -1        86 2.35589E+01
 -1        87 2.35589E+01
 -1        88 2.35589E+01
 -1        89 2.05658E+01
 -1        90 1.75727E+01
 -1        91 1.71890E+01
 -1        92 1.68052E+01
 -1        93 1.96428E+01
 -1        94 2.24804E+01
 -1        95 2.24804E+01
 -1        96 2.24804E+01
 -1        97 2.33131E+01
 -1        98 2.33131E+01
 -1        99 1.87284E+01
 -1       100 2.06026E+01
 -1       101 2.49481E+01
 -1       102 2.26885E+01
 -1       103 2.50183E+01
 -1       104 2.50183E+01
 -1       105 1.87902E+01
 -1       106 2.06026E+01
 -1       107 2.49481E+01
 -1       108 2.26885E+01
 -1       109 1.78118E+01
 -1       110 1.82415E+01
 -1       111 1.68619E+01
 -1       112 1.56853E+01
 -1       113 1.73285E+01
 -1       114 1.73285E+01
 -1       115 1.52932E+01
 -1       116 1.68428E+01
 -1       117 1.74400E+01
 -1       118 1.80707E+01
 -1       119 1.91720E+01
 -1       120 1.76088E+01
 -1       121 2.35589E+01
 -1       122 2.54453E+01
 -1       123 2.24522E+01
 -1       124 1.96647E+01
 -1       125 2.25418E+01
 -1       126 2.25418E+01
 -1       127 2.35589E+01
 -1       128 2.54453E+01
 -1       129 2.24522E+01
 -1       130 1.96647E+01
 -1       131 2.25418E+01
 -1       132 2.25418E+01
 -1       133 2.33131E+01
 -1       134 2.33131E+01
 -1       135 2.33131E+01
 -1       136 2.24215E+01
 -1       137 2.15300E+01
 -1       138 2.43689E+01
 -1       139 2.72078E+01
 -1       140 2.72078E+01
 -1       141 2.72078E+01
 -1       142 2.49481E+01
 -1       143 2.26885E+01
 -1       144 2.50183E+01
 -1       145 2.50183E+01
 -1       146 2.15919E+01
 -1       147 2.72078E+01
 -1       148 2.72078E+01
 -1       149 2.26885E+01
 -1       150 2.67235E+01
 -1       151 2.67235E+01
 -1       152 2.67235E+01
 -1       153 2.41886E+01
 -1       154 2.16537E+01
 -1       155 2.44307E+01
 -1       156 2.72078E+01
 -1       157 2.72078E+01
 -1       158 2.72078E+01
 -1       159 2.49481E+01
 -1       160 2.26885E+01
 -1       161 2.67235E+01
 -1       162 2.67235E+01
 -1       163 2.16537E+01
 -1       164 2.32542E+01
 -1       165 2.45802E+01
 -1       166 2.23206E+01
 -1       167 2.67235E+01
 -1       168 2.67235E+01
 -1       169 2.67235E+01
 -1       170 2.41886E+01
 -1       171 2.16537E+01
 -1       172 2.04772E+01
 -1       173 1.93006E+01
 -1       174 2.06266E+01
 -1       175 2.19526E+01
 -1       176 2.19526E+01
 -1       177 2.19526E+01
 -1       178 2.39019E+01
 -1       179 2.39019E+01
 -1       180 2.08511E+01
 -1       181 1.96746E+01
 -1       182 2.21018E+01
 -1       183 2.21018E+01
 -1       184 2.10802E+01
 -1       185 2.10802E+01
 -1       186 2.10802E+01
 -1       187 2.05643E+01
 -1       188 2.00485E+01
 -1       189 2.00485E+01
 -1       190 2.00485E+01
 -1       191 2.11498E+01
 -1       192 2.22510E+01
 -1       193 2.22510E+01
 -1       194 2.22510E+01
 -1       195 2.23196E+01
 -1       196 2.42059E+01
 -1       197 2.36901E+01
 -1       198 2.12863E+01
 -1       199 2.24271E+01
 -1       200 2.24271E+01
 -1       201 2.35589E+01
 -1       202 2.54453E+01
 -1       203 2.73316E+01
 -1       204 2.73316E+01
 -1       205 2.73316E+01
 -1       206 2.49279E+01
 -1       207 2.25241E+01
 -1       208 2.25637E+01
 -1       209 2.26033E+01
 -1       210 2.26033E+01
 -1       211 2.26033E+01
 -1       212 2.35589E+01
 -1       213 2.73316E+01
 -1       214 2.73316E+01
 -1       215 2.25241E+01
 -1       216 2.26033E+01
 -1       217 2.26033E+01
 -1       218 2.35589E+01
 -1       219 2.54453E+01
 -1       220 2.73316E+01
 -1       221 2.73316E+01
 -1       222 2.73316E+01
 -1       223 2.49279E+01
 -1       224 2.25241E+01
 -1       225 2.25637E+01
 -1       226 2.26033E+01
 -1       227 2.26033E+01
 -1       228 2.26033E+01
 -1       229 2.27530E+01
 -1       230 2.27530E+01
 -1       231 2.20664E+01
 -1       232 2.81260E+01
 -1       233 2.81260E+01
 -1       234 2.24489E+01
 -1       235 2.75032E+01
 -1       236 2.75032E+01
 -1       237 2.21283E+01
 -1       238 2.81260E+01
 -1       239 2.81260E+01
 -1       240 2.27912E+01
 -1       241 2.75032E+01
 -1       242 2.75032E+01
 -1       243 2.16537E+01
 -1       244 2.10143E+01
 -1       245 2.28325E+01
 -1       246 2.28325E+01
 -1       247 2.20055E+01
 -1       248 2.20055E+01
 -1       249 2.14891E+01
 -1       250 2.00485E+01
 -1       251 2.35975E+01
 -1       252 2.35975E+01
 -1       253 2.32448E+01
 -1       254 2.80660E+01
 -1       255 2.80660E+01
 -1       256 2.28744E+01
 -1       257 2.37736E+01
 -1       258 2.37736E+01
 -1       259 2.29606E+01
 -1       260 2.80660E+01
 -1       261 2.80660E+01
 -1       262 2.28744E+01
 -1       263 2.28249E+01
 -1       264 2.26033E+01
 -1       265 3.11166E+01
 -1       266 3.11952E+01
 -1       267 3.12737E+01
 -1       268 3.12737E+01
 -1       269 3.12737E+01
 -1       270 3.13171E+01
 -1       271 3.13604E+01
 -1       272 3.13604E+01
 -1       273 3.13604E+01
 -1       274 3.11451E+01
 -1       275 3.09297E+01
 -1       276 3.09297E+01
 -1       277 3.09297E+01
 -1       278 3.08120E+01
 -1       279 3.06943E+01
 -1       280 3.11166E+01
 -1       281 3.12737E+01
 -1       282 3.12737E+01
 -1       283 3.13604E+01
 -1       284 3.13604E+01
 -1       285 3.09297E+01
 -1       286 3.09297E+01
 -1       287 3.06943E+01
 -1       288 3.11166E+01
 -1       289 3.11952E+01
 -1       290 3.12737E+01
 -1       291 3.12737E+01
 -1       292 3.12737E+01
 -1       293 3.13171E+01
 -1       294 3.13604E+01
 -1       295 3.13604E+01
 -1       296 3.13604E+01
 -1       297 3.11451E+01
 -1       298 3.09297E+01
 -1       299 3.09297E+01
 -1       300 3.09297E+01
 -1       301 3.08120E+01
 -1       302 3.06943E+01
 -1       303 2.87143E+01
 -1       304 2.87929E+01
 -1       305 2.68223E+01
 -1       306 2.60941E+01
 -1       307 2.58898E+01
 -1       308 2.67719E+01
 -1       309 2.67719E+01
 -1       310 2.61014E+01
 -1       311 2.18509E+01
 -1       312 2.40814E+01
 -1       313 2.63120E+01
 -1       314 2.63120E+01
 -1       315 2.63120E+01
 -1       316 2.43414E+01
 -1       317 2.23708E+01
 -1       318 2.15993E+01
 -1       319 2.08277E+01
 -1       320 2.04193E+01
 -1       321 2.15167E+01
 -1       322 2.26141E+01
 -1       323 2.26141E+01
 -1       324 2.26141E+01
 -1       325 2.20613E+01
 -1       326 2.15085E+01
 -1       327 2.14447E+01
 -1       328 2.13810E+01
 -1       329 2.36585E+01
 -1       330 2.53803E+01
 -1       331 2.53803E+01
 -1       332 2.26141E+01
 -1       333 2.26141E+01
 -1       334 2.30481E+01
 -1       335 2.43257E+01
 -1       336 3.10951E+01
 -1       337 3.10951E+01
 -1       338 3.10951E+01
 -1       339 2.82806E+01
 -1       340 2.54661E+01
 -1       341 2.49573E+01
 -1       342 2.44486E+01
 -1       343 2.44486E+01
 -1       344 2.44486E+01
 -1       345 2.26141E+01
 -1       346 2.26141E+01
 -1       347 2.26141E+01
 -1       348 2.36009E+01
 -1       349 2.45878E+01
 -1       350 2.59291E+01
 -1       351 2.72705E+01
 -1       352 2.92502E+01
 -1       353 3.12299E+01
 -1       354 3.12299E+01
 -1       355 3.12299E+01
 -1       356 3.11947E+01
 -1       357 3.11947E+01
 -1       358 2.67529E+01
 -1       359 2.38991E+01
 -1       360 2.33207E+01
 -1       361 2.24117E+01
 -1       362 2.45878E+01
 -1       363 2.85687E+01
 -1       364 3.12299E+01
 -1       365 3.12299E+01
 -1       366 3.12944E+01
 -1       367 3.12944E+01
 -1       368 3.12944E+01
 -1       369 2.96671E+01
 -1       370 2.80398E+01
 -1       371 2.56947E+01
 -1       372 2.33496E+01
 -1       373 2.27712E+01
 -1       374 2.21928E+01
 -1       375 2.21928E+01
 -1       376 2.21928E+01
 -1       377 2.23978E+01
 -1       378 2.26028E+01
 -1       379 2.58235E+01
 -1       380 2.90443E+01
 -1       381 2.90443E+01
 -1       382 2.90443E+01
 -1       383 2.56268E+01
 -1       384 2.22094E+01
 -1       385 2.33986E+01
 -1       386 2.45878E+01
 -1       387 2.72273E+01
 -1       388 2.98668E+01
 -1       389 3.05484E+01
 -1       390 3.12299E+01
 -1       391 3.12299E+01
 -1       392 3.12299E+01
 -1       393 3.12944E+01
 -1       394 3.12944E+01
 -1       395 2.80398E+01
 -1       396 2.31823E+01
 -1       397 2.52379E+01
 -1       398 2.52379E+01
 -1       399 2.26028E+01
 -1       400 2.90443E+01
 -1       401 2.90443E+01
 -1       402 2.25516E+01
 -1       403 2.98668E+01
 -1       404 3.10469E+01
 -1       405 3.10469E+01
 -1       406 3.12944E+01
 -1       407 3.12944E+01
 -1       408 3.12944E+01
 -1       409 2.96671E+01
 -1       410 2.80398E+01
 -1       411 2.55274E+01
 -1       412 2.30149E+01
 -1       413 2.82830E+01
 -1       414 2.82830E+01
 -1       415 2.82830E+01
 -1       416 2.54429E+01
 -1       417 2.26028E+01
 -1       418 2.58235E+01
 -1       419 2.90443E+01
 -1       420 2.90443E+01
 -1       421 2.90443E+01
 -1       422 2.59691E+01
 -1       423 2.28939E+01
 -1       424 2.98668E+01
 -1       425 3.03653E+01
 -1       426 3.08639E+01
 -1       427 3.08639E+01
 -1       428 3.08639E+01
 -1       429 3.08107E+01
 -1       430 3.08107E+01
 -1       431 2.56620E+01
 -1       432 2.82830E+01
 -1       433 2.82830E+01
 -1       434 2.21283E+01
 -1       435 2.58861E+01
 -1       436 2.63783E+01
 -1       437 2.33031E+01
 -1       438 3.05570E+01
 -1       439 3.05570E+01
 -1       440 3.03269E+01
 -1       441 3.03269E+01
 -1       442 3.03269E+01
 -1       443 2.68056E+01
 -1       444 2.32842E+01
 -1       445 2.82830E+01
 -1       446 2.82830E+01
 -1       447 2.82830E+01
 -1       448 2.49683E+01
 -1       449 2.16537E+01
 -1       450 2.21908E+01
 -1       451 2.27280E+01
 -1       452 2.32201E+01
 -1       453 2.37123E+01
 -1       454 2.37123E+01
 -1       455 2.37123E+01
 -1       456 3.02502E+01
 -1       457 3.02502E+01
 -1       458 3.02502E+01
 -1       459 3.03642E+01
 -1       460 3.03642E+01
 -1       461 2.56069E+01
 -1       462 2.56069E+01
 -1       463 2.22917E+01
 -1       464 2.13882E+01
 -1       465 2.43281E+01
 -1       466 2.43281E+01
 -1       467 3.04226E+01
 -1       468 3.04226E+01
 -1       469 3.04014E+01
 -1       470 3.04014E+01
 -1       471 3.04014E+01
 -1       472 2.64470E+01
 -1       473 2.24927E+01
 -1       474 2.29307E+01
 -1       475 2.29307E+01
 -1       476 2.29307E+01
 -1       477 2.29302E+01
 -1       478 2.29297E+01
 -1       479 2.14891E+01
 -1       480 2.00485E+01
 -1       481 2.24962E+01
 -1       482 2.49439E+01
 -1       483 2.49439E+01
 -1       484 2.49439E+01
 -1       485 2.52575E+01
 -1       486 2.79263E+01
 -1       487 3.05950E+01
 -1       488 3.05950E+01
 -1       489 3.05950E+01
 -1       490 3.07873E+01
 -1       491 3.07873E+01
 -1       492 2.38138E+01
 -1       493 2.29307E+01
 -1       494 2.58656E+01
 -1       495 2.58650E+01
 -1       496 2.16366E+01
 -1       497 2.49439E+01
 -1       498 2.49439E+01
 -1       499 2.74706E+01
 -1       500 3.09495E+01
 -1       501 3.09495E+01
 -1       502 3.11733E+01
 -1       503 3.11733E+01
 -1       504 3.11733E+01
 -1       505 2.81541E+01
 -1       506 2.51350E+01
 -1       507 2.41094E+01
 -1       508 2.30838E+01
 -1       509 2.29307E+01
 -1       510 2.58656E+01
 -1       511 2.88004E+01
 -1       512 2.88004E+01
 -1       513 2.88004E+01
 -1       514 2.60125E+01
 -1       515 2.32247E+01
 -1       516 2.40843E+01
 -1       517 2.49439E+01
 -1       518 2.49439E+01
 -1       519 2.49439E+01
 -1       520 2.26281E+01
 -1       521 2.61558E+01
 -1       522 2.96836E+01
 -1       523 3.04938E+01
 -1       524 3.13040E+01
 -1       525 3.13040E+01
 -1       526 3.13040E+01
 -1       527 3.11733E+01
 -1       528 3.11733E+01
 -1       529 2.51350E+01
 -1       530 2.33371E+01
 -1       531 2.26465E+01
 -1       532 2.88004E+01
 -1       533 2.88004E+01
 -1       534 2.32247E+01
 -1       535 2.39952E+01
 -1       536 2.37736E+01
 -1       537 2.35243E+01
 -1       538 2.96836E+01
 -1       539 3.13040E+01
 -1       540 3.13040E+01
 -1       541 3.11733E+01
 -1       542 3.11733E+01
 -1       543 3.11733E+01
 -1       544 2.81541E+01
 -1       545 2.51350E+01
 -1       546 2.43627E+01
 -1       547 2.35904E+01
 -1       548 2.29763E+01
 -1       549 2.23622E+01
 -1       550 2.55813E+01
 -1       551 2.88004E+01
 -1       552 2.88004E+01
 -1       553 2.88004E+01
 -1       554 2.60125E+01
 -1       555 2.32247E+01
 -1       556 2.31356E+01
 -1       557 2.30465E+01
 -1       558 2.28249E+01
 -1       559 2.26033E+01
 -1       560 2.35119E+01
 -1       561 2.44206E+01
 -1       562 2.70521E+01
 -1       563 2.96836E+01
 -1       564 3.04938E+01
 -1       565 3.13040E+01
 -1       566 3.13040E+01
 -1       567 3.13040E+01
 -1       568 3.10010E+01
 -1       569 3.10010E+01
 -1       570 2.43627E+01
 -1       571 2.39236E+01
 -1       572 2.33095E+01
 -1       573 2.33058E+01
 -1       574 2.44206E+01
 -1       575 2.88526E+01
 -1       576 3.12655E+01
 -1       577 3.12655E+01
 -1       578 3.08288E+01
 -1       579 3.08288E+01
 -1       580 3.08288E+01
 -1       581 2.72096E+01
 -1       582 2.35904E+01
 -1       583 2.39236E+01
 -1       584 2.42568E+01
 -1       585 2.42568E+01
 -1       586 2.42568E+01
 -1       587 2.28628E+01
 -1       588 2.14687E+01
 -1       589 2.17009E+01
 -1       590 2.28546E+01
 -1       591 2.40083E+01
 -1       592 2.42144E+01
 -1       593 2.44206E+01
 -1       594 2.62211E+01
 -1       595 2.80217E+01
 -1       596 2.96243E+01
 -1       597 3.12270E+01
 -1       598 3.12270E+01
 -1       599 3.12270E+01
 -1       600 2.23829E+01
 -1       601 2.60926E+01
 -1       602 2.75294E+01
 -1       603 2.61353E+01
 -1       604 2.24339E+01
 -1       605 2.40083E+01
 -1       606 2.42144E+01
 -1       607 2.46295E+01
 -1       608 2.11754E+01
 -1       609 2.45519E+01
 -1       610 2.79284E+01
 -1       611 2.93651E+01
 -1       612 3.08019E+01
 -1       613 3.08019E+01
 -1       614 3.08019E+01
 -1       615 2.31670E+01
 -1       616 2.35877E+01
 -1       617 2.40083E+01
 -1       618 2.40083E+01
 -1       619 2.40083E+01
 -1       620 2.26228E+01
 -1       621 2.12373E+01
 -1       622 2.96812E+01
 -1       623 3.11179E+01
 -1       624 3.08897E+01
 -1       625 2.68870E+01
 -1       626 2.76803E+01
 -1       627 2.76803E+01
 -1       628 3.14340E+01
 -1       629 3.14340E+01
 -1       630 3.14340E+01
 -1       631 3.12058E+01
 -1       632 3.09775E+01
 -1       633 3.04360E+01
 -1       634 2.98944E+01
 -1       635 3.00232E+01
 -1       636 3.01520E+01
 -1       637 3.03795E+01
 -1       638 3.06070E+01
 -1       639 3.09796E+01
 -1       640 3.13523E+01
 -1       641 3.13523E+01
 -1       642 3.13523E+01
 -1       643 3.14340E+01
 -1       644 3.14340E+01
 -1       645 3.09775E+01
 -1       646 2.98944E+01
 -1       647 3.01520E+01
 -1       648 3.06070E+01
 -1       649 3.13523E+01
 -1       650 3.13523E+01
 -1       651 3.14340E+01
 -1       652 3.14340E+01
 -1       653 3.14340E+01
 -1       654 3.12058E+01
 -1       655 3.09775E+01
 -1       656 3.04360E+01
 -1       657 2.98944E+01
 -1       658 3.00232E+01
 -1       659 3.01520E+01
 -1       660 3.03795E+01
 -1       661 3.06070E+01
 -1       662 3.09796E+01
 -1       663 3.13523E+01
 -1       664 3.13523E+01
 -1       665 3.13523E+01
 -1       666 3.11166E+01
 -1       667 3.12737E+01
 -1       668 3.12737E+01
 -1       669 3.13604E+01
 -1       670 3.13604E+01
 -1       671 3.09297E+01
 -1       672 3.09297E+01
 -1       673 3.06943E+01
 -1       674 3.11166E+01
 -1       675 3.12737E+01
 -1       676 3.12737E+01
 -1       677 3.13604E+01
 -1       678 3.13604E+01
 -1       679 3.09297E+01
 -1       680 3.09297E+01
 -1       681 3.06943E+01
 -1       682 2.18509E+01
 -1       683 2.63120E+01
 -1       684 2.63120E+01
 -1       685 2.23708E+01
 -1       686 2.08277E+01
 -1       687 2.04193E+01
 -1       688 2.26141E+01
 -1       689 2.26141E+01
 -1       690 2.15085E+01
 -1       691 2.13810E+01
 -1       692 3.10951E+01
 -1       693 3.10951E+01
 -1       694 2.54661E+01
 -1       695 2.44486E+01
 -1       696 2.44486E+01
 -1       697 2.26141E+01
 -1       698 2.26141E+01
 -1       699 2.45878E+01
 -1       700 2.72705E+01
 -1       701 3.12299E+01
 -1       702 3.12299E+01
 -1       703 3.12944E+01
 -1       704 3.12944E+01
 -1       705 2.80398E+01
 -1       706 2.33496E+01
 -1       707 2.21928E+01
 -1       708 2.21928E+01
 -1       709 2.26028E+01
 -1       710 2.90443E+01
 -1       711 2.90443E+01
 -1       712 2.22094E+01
 -1       713 2.45878E+01
 -1       714 2.98668E+01
 -1       715 3.12299E+01
 -1       716 3.12299E+01
 -1       717 3.12944E+01
 -1       718 3.12944E+01
 -1       719 2.80398E+01
 -1       720 2.30149E+01
 -1       721 2.82830E+01
 -1       722 2.82830E+01
 -1       723 2.26028E+01
 -1       724 2.90443E+01
 -1       725 2.90443E+01
 -1       726 2.28939E+01
 -1       727 2.98668E+01
 -1       728 3.08639E+01
 -1       729 3.08639E+01
 -1       730 3.03269E+01
 -1       731 3.03269E+01
 -1       732 2.32842E+01
 -1       733 2.82830E+01
 -1       734 2.82830E+01
 -1       735 2.16537E+01
 -1       736 2.27280E+01
 -1       737 2.37123E+01
 -1       738 2.37123E+01
 -1       739 3.02502E+01
 -1       740 3.02502E+01
 -1       741 3.04014E+01
 -1       742 3.04014E+01
 -1       743 2.24927E+01
 -1       744 2.29307E+01
 -1       745 2.29307E+01
 -1       746 2.29297E+01
 -1       747 2.00485E+01
 -1       748 2.49439E+01
 -1       749 2.49439E+01
 -1       750 2.52575E+01
 -1       751 3.05950E+01
 -1       752 3.05950E+01
 -1       753 3.11733E+01
 -1       754 3.11733E+01
 -1       755 2.51350E+01
 -1       756 2.30838E+01
 -1       757 2.29307E+01
 -1       758 2.88004E+01
 -1       759 2.88004E+01
 -1       760 2.32247E+01
 -1       761 2.49439E+01
 -1       762 2.49439E+01
 -1       763 2.26281E+01
 -1       764 2.96836E+01
 -1       765 3.13040E+01
 -1       766 3.13040E+01
 -1       767 3.11733E+01
 -1       768 3.11733E+01
 -1       769 2.51350E+01
 -1       770 2.35904E+01
 -1       771 2.23622E+01
 -1       772 2.88004E+01
 -1       773 2.88004E+01
 -1       774 2.32247E+01
 -1       775 2.30465E+01
 -1       776 2.26033E+01
 -1       777 2.44206E+01
 -1       778 2.96836E+01
 -1       779 3.13040E+01
 -1       780 3.13040E+01
 -1       781 3.08288E+01
 -1       782 3.08288E+01
 -1       783 2.35904E+01
 -1       784 2.42568E+01
 -1       785 2.42568E+01
 -1       786 2.14687E+01
 -1       787 2.17009E+01
 -1       788 2.40083E+01
 -1       789 2.44206E+01
 -1       790 2.80217E+01
 -1       791 3.12270E+01
 -1       792 3.12270E+01
 -1       793 2.11754E+01
 -1       794 2.79284E+01
 -1       795 3.08019E+01
 -1       796 3.08019E+01
 -1       797 2.31670E+01
 -1       798 2.40083E+01
 -1       799 2.40083E+01
 -1       800 2.12373E+01
 -1       801 3.14340E+01
 -1       802 3.14340E+01
 -1       803 3.09775E+01
 -1       804 2.98944E+01
 -1       805 3.01520E+01
 -1       806 3.06070E+01
 -1       807 3.13523E+01
 -1       808 3.13523E+01
 -1       809 3.14340E+01
 -1       810 3.14340E+01
 -1       811 3.09775E+01
 -1       812 2.98944E+01
 -1       813 3.01520E+01
 -1       814 3.06070E+01
 -1       815 3.13523E+01
 -1       816 3.13523E+01
 -1       817 3.11166E+01
 -1       818 3.11952E+01
 -1       819 3.12737E+01
 -1       820 3.12737E+01
 -1       821 3.12737E+01
 -1       822 3.13171E+01
 -1       823 3.13604E+01
 -1       824 3.13604E+01
 -1       825 3.13604E+01
 -1       826 3.11451E+01
 -1       827 3.09297E+01
 -1       828 3.09297E+01
 -1       829 3.09297E+01
 -1       830 3.08120E+01
 -1       831 3.06943E+01
 -1       832 3.11166E+01
 -1       833 3.12737E+01
 -1       834 3.12737E+01
 -1       835 3.13604E+01
 -1       836 3.13604E+01
 -1       837 3.09297E+01
 -1       838 3.09297E+01
 -1       839 3.06943E+01
 -1       840 3.11166E+01
 -1       841 3.11952E+01
 -1       842 3.12737E+01
 -1       843 3.12737E+01
 -1       844 3.12737E+01
 -1       845 3.13171E+01
 -1       846 3.13604E+01
 -1       847 3.13604E+01
 -1       848 3.13604E+01
 -1       849 3.11451E+01
 -1       850 3.09297E+01
 -1       851 3.09297E+01
 -1       852 3.09297E+01
 -1       853 3.08120E+01
 -1       854 3.06943E+01
 -1       855 2.87143E+01
 -1       856 2.87929E+01
 -1       857 2.68223E+01
 -1       858 2.60941E+01
 -1       859 2.58898E+01
 -1       860 2.67719E+01
 -1       861 2.67719E+01
 -1       862 2.61014E+01
 -1       863 2.18509E+01
 -1       864 2.40814E+01
 -1       865 2.63120E+01
 -1       866 2.63120E+01
 -1       867 2.63120E+01
 -1       868 2.43414E+01
 -1       869 2.23708E+01
 -1       870 2.15993E+01
 -1       871 2.08277E+01
 -1       872 2.04193E+01
 -1       873 2.15167E+01
 -1       874 2.26141E+01
 -1       875 2.26141E+01
 -1       876 2.26141E+01
 -1       877 2.20613E+01
 -1       878 2.15085E+01
 -1       879 2.14447E+01
 -1       880 2.13810E+01
 -1       881 2.36585E+01
 -1       882 2.53803E+01
 -1       883 2.53803E+01
 -1       884 2.26141E+01
 -1       885 2.26141E+01
 -1       886 2.30481E+01
 -1       887 2.43257E+01
 -1       888 3.10951E+01
 -1       889 3.10951E+01
 -1       890 3.10951E+01
 -1       891 2.82806E+01
 -1       892 2.54661E+01
 -1       893 2.49573E+01
 -1       894 2.44486E+01
 -1       895 2.44486E+01
 -1       896 2.44486E+01
 -1       897 2.26141E+01
 -1       898 2.26141E+01
 -1       899 2.26141E+01
 -1       900 2.36009E+01
 -1       901 2.45878E+01
 -1       902 2.59291E+01
 -1       903 2.72705E+01
 -1       904 2.92502E+01
 -1       905 3.12299E+01
 -1       906 3.12299E+01
 -1       907 3.12299E+01
 -1       908 3.11947E+01
 -1       909 3.11947E+01
 -1       910 2.67529E+01
 -1       911 2.38991E+01
 -1       912 2.33207E+01
 -1       913 2.24117E+01
 -1       914 2.45878E+01
 -1       915 2.85687E+01
 -1       916 3.12299E+01
 -1       917 3.12299E+01
 -1       918 3.12944E+01
 -1       919 3.12944E+01
 -1       920 3.12944E+01
 -1       921 2.96671E+01
 -1       922 2.80398E+01
 -1       923 2.56947E+01
 -1       924 2.33496E+01
 -1       925 2.27712E+01
 -1       926 2.21928E+01
 -1       927 2.21928E+01
 -1       928 2.21928E+01
 -1       929 2.23978E+01
 -1       930 2.26028E+01
 -1       931 2.58235E+01
 -1       932 2.90443E+01
 -1       933 2.90443E+01
 -1       934 2.90443E+01
 -1       935 2.56268E+01
 -1       936 2.22094E+01
 -1       937 2.33986E+01
 -1       938 2.45878E+01
 -1       939 2.72273E+01
 -1       940 2.98668E+01
 -1       941 3.05484E+01
 -1       942 3.12299E+01
 -1       943 3.12299E+01
 -1       944 3.12299E+01
 -1       945 3.12944E+01
 -1       946 3.12944E+01
 -1       947 2.80398E+01
 -1       948 2.31823E+01
 -1       949 2.52379E+01
 -1       950 2.52379E+01
 -1       951 2.26028E+01
 -1       952 2.90443E+01
 -1       953 2.90443E+01
 -1       954 2.25516E+01
 -1       955 2.98668E+01
 -1       956 3.10469E+01
 -1       957 3.10469E+01
 -1       958 3.12944E+01
 -1       959 3.12944E+01
 -1       960 3.12944E+01
 -1       961 2.96671E+01
 -1       962 2.80398E+01
 -1       963 2.55274E+01
 -1       964 2.30149E+01
 -1       965 2.82830E+01
 -1       966 2.82830E+01
 -1       967 2.82830E+01
 -1       968 2.54429E+01
 -1       969 2.26028E+01
 -1       970 2.58235E+01
 -1       971 2.90443E+01
 -1       972 2.90443E+01
 -1       973 2.90443E+01
 -1       974 2.59691E+01
 -1       975 2.28939E+01
 -1       976 2.98668E+01
 -1       977 3.03653E+01
 -1       978 3.08639E+01
 -1       979 3.08639E+01
 -1       980 3.08639E+01
 -1       981 3.08107E+01
 -1       982 3.08107E+01
 -1       983 2.56620E+01
 -1       984 2.82830E+01
 -1       985 2.82830E+01
 -1       986 2.21283E+01
 -1       987 2.58861E+01
 -1       988 2.63783E+01
 -1       989 2.33031E+01
 -1       990 3.05570E+01
 -1       991 3.05570E+01
 -1       992 3.03269E+01
 -1       993 3.03269E+01
 -1       994 3.03269E+01
 -1       995 2.68056E+01
 -1       996 2.32842E+01
 -1       997 2.82830E+01
 -1       998 2.82830E+01
 -1       999 2.82830E+01
 -1      1000 2.49683E+01
 -1      1001 2.16537E+01
 -1      1002 2.21908E+01
 -1      1003 2.27280E+01
 -1      1004 2.32201E+01
 -1      1005 2.37123E+01
 -1      1006 2.37123E+01
 -1      1007 2.37123E+01
 -1      1008 3.02502E+01
 -1      1009 3.02502E+01
 -1      1010 3.02502E+01
 -1      1011 3.03642E+01
 -1      1012 3.03642E+01
 -1      1013 2.56069E+01
 -1      1014 2.56069E+01
 -1      1015 2.22917E+01
 -1      1016 2.13882E+01
 -1      1017 2.43281E+01
 -1      1018 2.43281E+01
 -1      1019 3.04226E+01
 -1      1020 3.04226E+01
 -1      1021 3.04014E+01
 -1      1022 3.04014E+01
 -1      1023 3.04014E+01
 -1      1024 2.64470E+01
 -1      1025 2.24927E+01
 -1      1026 2.29307E+01
 -1      1027 2.29307E+01
 -1      1028 2.29307E+01
 -1      1029 2.29302E+01
 -1      1030 2.29297E+01
 -1      1031 2.14891E+01
 -1      1032 2.00485E+01
 -1      1033 2.24962E+01
 -1      1034 2.49439E+01
 -1      1035 2.49439E+01
 -1      1036 2.49439E+01
 -1      1037 2.52575E+01
 -1      1038 2.79263E+01
 -1      1039 3.05950E+01
 -1      1040 3.05950E+01
 -1      1041 3.05950E+01
 -1      1042 3.07873E+01
 -1      1043 3.07873E+01
 -1      1044 2.38138E+01
 -1      1045 2.29307E+01
 -1      1046 2.58656E+01
 -1      1047 2.58650E+01
 -1      1048 2.16366E+01
 -1      1049 2.49439E+01
 -1      1050 2.49439E+01
 -1      1051 2.74706E+01
 -1      1052 3.09495E+01
 -1      1053 3.09495E+01
 -1      1054 3.11733E+01
 -1      1055 3.11733E+01
 -1      1056 3.11733E+01
 -1      1057 2.81541E+01
 -1      1058 2.51350E+01
 -1      1059 2.41094E+01
 -1      1060 2.30838E+01
 -1      1061 2.29307E+01
 -1      1062 2.58656E+01
 -1      1063 2.88004E+01
 -1      1064 2.88004E+01
 -1      1065 2.88004E+01
 -1      1066 2.60125E+01
 -1      1067 2.32247E+01
 -1      1068 2.40843E+01
 -1      1069 2.49439E+01
 -1      1070 2.49439E+01
 -1      1071 2.49439E+01
 -1      1072 2.26281E+01
 -1      1073 2.61558E+01
 -1      1074 2.96836E+01
 -1      1075 3.04938E+01
 -1      1076 3.13040E+01
 -1      1077 3.13040E+01
 -1      1078 3.13040E+01
 -1      1079 3.11733E+01
 -1      1080 3.11733E+01
 -1      1081 2.51350E+01
 -1      1082 2.33371E+01
 -1      1083 2.26465E+01
 -1      1084 2.88004E+01
 -1      1085 2.88004E+01
 -1      1086 2.32247E+01
 -1      1087 2.39952E+01
 -1      1088 2.37736E+01
 -1      1089 2.35243E+01
 -1      1090 2.96836E+01
 -1      1091 3.13040E+01
 -1      1092 3.13040E+01
 -1      1093 3.11733E+01
 -1      1094 3.11733E+01
 -1      1095 3.11733E+01
 -1      1096 2.81541E+01
 -1      1097 2.51350E+01
 -1      1098 2.43627E+01
 -1      1099 2.35904E+01
 -1      1100 2.29763E+01
 -1      1101 2.23622E+01
 -1      1102 2.55813E+01
 -1      1103 2.88004E+01
 -1      1104 2.88004E+01
 -1      1105 2.88004E+01
 -1      1106 2.60125E+01
 -1      1107 2.32247E+01
 -1      1108 2.31356E+01
 -1      1109 2.30465E+01
 -1      1110 2.28249E+01
 -1      1111 2.26033E+01
 -1      1112 2.35119E+01
 -1      1113 2.44206E+01
 -1      1114 2.70521E+01
 -1      1115 2.96836E+01
 -1      1116 3.04938E+01
 -1      1117 3.13040E+01
 -1      1118 3.13040E+01
 -1      1119 3.13040E+01
 -1      1120 3.10010E+01
 -1      1121 3.10010E+01
 -1      1122 2.43627E+01
 -1      1123 2.39236E+01
 -1      1124 2.33095E+01
 -1      1125 2.33058E+01
 -1      1126 2.44206E+01
 -1      1127 2.88526E+01
 -1      1128 3.12655E+01
 -1      1129 3.12655E+01
 -1      1130 3.08288E+01
 -1      1131 3.08288E+01
 -1      1132 3.08288E+01
 -1      1133 2.72096E+01
 -1      1134 2.35904E+01
 -1      1135 2.39236E+01
 -1      1136 2.42568E+01
 -1      1137 2.42568E+01
 -1      1138 2.42568E+01
 -1      1139 2.28628E+01
 -1      1140 2.14687E+01
 -1      1141 2.17009E+01
 -1      1142 2.28546E+01
 -1      1143 2.40083E+01
 -1      1144 2.42144E+01
 -1      1145 2.44206E+01
 -1      1146 2.62211E+01
 -1      1147 2.80217E+01
 -1      1148 2.96243E+01
 -1      1149 3.12270E+01
 -1      1150 3.12270E+01
 -1      1151 3.12270E+01
 -1      1152 2.23829E+01
 -1      1153 2.60926E+01
 -1      1154 2.75294E+01
 -1      1155 2.61353E+01
 -1      1156 2.24339E+01
 -1      1157 2.40083E+01
 -1      1158 2.42144E+01
 -1      1159 2.46295E+01
 -1      1160 2.11754E+01
 -1      1161 2.45519E+01
 -1      1162 2.79284E+01
 -1      1163 2.93651E+01
 -1      1164 3.08019E+01
 -1      1165 3.08019E+01
 -1      1166 3.08019E+01
 -1      1167 2.31670E+01
 -1      1168 2.35877E+01
 -1      1169 2.40083E+01
 -1      1170 2.40083E+01
 -1      1171 2.40083E+01
 -1      1172 2.26228E+01
 -1      1173 2.12373E+01
 -1      1174 2.96812E+01
 -1      1175 3.11179E+01
 -1      1176 3.08897E+01
 -1      1177 2.68870E+01
 -1      1178 2.76803E+01
 -1      1179 2.76803E+01
 -1      1180 3.14340E+01
 -1      1181 3.14340E+01
 -1      1182 3.14340E+01
 -1      1183 3.12058E+01
 -1      1184 3.09775E+01
 -1      1185 3.04360E+01
 -1      1186 2.98944E+01
 -1      1187 3.00232E+01
 -1      1188 3.01520E+01
 -1      1189 3.03795E+01
 -1      1190 3.06070E+01
 -1      1191 3.09796E+01
 -1      1192 3.13523E+01
 -1      1193 3.13523E+01
 -1      1194 3.13523E+01
 -1      1195 3.14340E+01
 -1      1196 3.14340E+01
 -1      1197 3.09775E+01
 -1      1198 2.98944E+01
 -1      1199 3.01520E+01
 -1      1200 3.06070E+01
 -1      1201 3.13523E+01
 -1      1202 3.13523E+01
 -1      1203 3.14340E+01
 -1      1204 3.14340E+01
 -1      1205 3.14340E+01
 -1      1206 3.12058E+01
 -1      1207 3.09775E+01
 -1      1208 3.04360E+01
 -1      1209 2.98944E+01
 -1      1210 3.00232E+01
 -1      1211 3.01520E+01
 -1      1212 3.03795E+01
 -1      1213 3.06070E+01
 -1      1214 3.09796E+01
 -1      1215 3.13523E+01
 -1      1216 3.13523E+01
 -1      1217 3.13523E+01
 -1      1218 2.27530E+01
 -1      1219 2.27530E+01
 -1      1220 2.20664E+01
 -1      1221 2.81260E+01
 -1      1222 2.81260E+01
 -1      1223 2.24489E+01
 -1      1224 2.75032E+01
 -1      1225 2.75032E+01
 -1      1226 2.21283E+01
 -1      1227 2.81260E+01
 -1      1228 2.81260E+01
 -1      1229 2.27912E+01
 -1      1230 2.75032E+01
 -1      1231 2.75032E+01
 -1      1232 2.16537E+01
 -1      1233 2.10143E+01
 -1      1234 2.28325E+01
 -1      1235 2.28325E+01
 -1      1236 2.20055E+01
 -1      1237 2.20055E+01
 -1      1238 2.14891E+01
 -1      1239 2.00485E+01
 -1      1240 2.35975E+01
 -1      1241 2.35975E+01
 -1      1242 2.32448E+01
 -1      1243 2.80660E+01
 -1      1244 2.80660E+01
 -1      1245 2.28744E+01
 -1      1246 2.37736E+01
 -1      1247 2.37736E+01
 -1      1248 2.29606E+01
 -1      1249 2.80660E+01
 -1      1250 2.80660E+01
 -1      1251 2.28744E+01
 -1      1252 2.28249E+01
 -1      1253 2.26033E+01
 -1      1254 2.33131E+01
 -1      1255 2.33131E+01
 -1      1256 2.33131E+01
 -1      1257 2.24215E+01
 -1      1258 2.15300E+01
 -1      1259 2.43689E+01
 -1      1260 2.72078E+01
 -1      1261 2.72078E+01
 -1      1262 2.72078E+01
 -1      1263 2.49481E+01
 -1      1264 2.26885E+01
 -1      1265 2.50183E+01
 -1      1266 2.50183E+01
 -1      1267 2.15919E+01
 -1      1268 2.72078E+01
 -1      1269 2.72078E+01
 -1      1270 2.26885E+01
 -1      1271 2.67235E+01
 -1      1272 2.67235E+01
 -1      1273 2.67235E+01
 -1      1274 2.41886E+01
 -1      1275 2.16537E+01
 -1      1276 2.44307E+01
 -1      1277 2.72078E+01
 -1      1278 2.72078E+01
 -1      1279 2.72078E+01
 -1      1280 2.49481E+01
 -1      1281 2.26885E+01
 -1      1282 2.67235E+01
 -1      1283 2.67235E+01
 -1      1284 2.16537E+01
 -1      1285 2.32542E+01
 -1      1286 2.45802E+01
 -1      1287 2.23206E+01
 -1      1288 2.67235E+01
 -1      1289 2.67235E+01
 -1      1290 2.67235E+01
 -1      1291 2.41886E+01
 -1      1292 2.16537E+01
 -1      1293 2.04772E+01
 -1      1294 1.93006E+01
 -1      1295 2.06266E+01
 -1      1296 2.19526E+01
 -1      1297 2.19526E+01
 -1      1298 2.19526E+01
 -1      1299 2.39019E+01
 -1      1300 2.39019E+01
 -1      1301 2.08511E+01
 -1      1302 1.96746E+01
 -1      1303 2.21018E+01
 -1      1304 2.21018E+01
 -1      1305 2.10802E+01
 -1      1306 2.10802E+01
 -1      1307 2.10802E+01
 -1      1308 2.05643E+01
 -1      1309 2.00485E+01
 -1      1310 2.00485E+01
 -1      1311 2.00485E+01
 -1      1312 2.11498E+01
 -1      1313 2.22510E+01
 -1      1314 2.22510E+01
 -1      1315 2.22510E+01
 -1      1316 2.23196E+01
 -1      1317 2.42059E+01
 -1      1318 2.36901E+01
 -1      1319 2.12863E+01
 -1      1320 2.24271E+01
 -1      1321 2.24271E+01
 -1      1322 2.35589E+01
 -1      1323 2.54453E+01
 -1      1324 2.73316E+01
 -1      1325 2.73316E+01
 -1      1326 2.73316E+01
 -1      1327 2.49279E+01
 -1      1328 2.25241E+01
 -1      1329 2.25637E+01
 -1      1330 2.26033E+01
 -1      1331 2.26033E+01
 -1      1332 2.26033E+01
 -1      1333 2.35589E+01
 -1      1334 2.73316E+01
 -1      1335 2.73316E+01
 -1      1336 2.25241E+01
 -1      1337 2.26033E+01
 -1      1338 2.26033E+01
 -1      1339 2.35589E+01
 -1      1340 2.54453E+01
 -1      1341 2.73316E+01
 -1      1342 2.73316E+01
 -1      1343 2.73316E+01
 -1      1344 2.49279E+01
 -1      1345 2.25241E+01
 -1      1346 2.25637E+01
 -1      1347 2.26033E+01
 -1      1348 2.26033E+01
 -1      1349 2.26033E+01
 -1      1350 2.33131E+01
 -1      1351 2.33131E+01
 -1      1352 1.87284E+01
 -1      1353 2.06026E+01
 -1      1354 2.49481E+01
 -1      1355 2.26885E+01
 -1      1356 2.50183E+01
 -1      1357 2.50183E+01
 -1      1358 1.87902E+01
 -1      1359 2.06026E+01
 -1      1360 2.49481E+01
 -1      1361 2.26885E+01
 -1      1362 1.78118E+01
 -1      1363 1.82415E+01
 -1      1364 1.68619E+01
 -1      1365 1.56853E+01
 -1      1366 1.73285E+01
 -1      1367 1.73285E+01
 -1      1368 1.52932E+01
 -1      1369 1.68428E+01
 -1      1370 1.74400E+01
 -1      1371 1.80707E+01
 -1      1372 1.91720E+01
 -1      1373 1.76088E+01
 -1      1374 2.35589E+01
 -1      1375 2.54453E+01
 -1      1376 2.24522E+01
 -1      1377 1.96647E+01
 -1      1378 2.25418E+01
 -1      1379 2.25418E+01
 -1      1380 2.35589E+01
 -1      1381 2.54453E+01
 -1      1382 2.24522E+01
 -1      1383 1.96647E+01
 -1      1384 2.25418E+01
 -1      1385 2.25418E+01
 -1      1386 2.33131E+01
 -1      1387 2.33131E+01
 -1      1388 2.33131E+01
 -1      1389 1.96199E+01
 -1      1390 1.59268E+01
 -1      1391 1.49621E+01
 -1      1392 1.39975E+01
 -1      1393 1.83430E+01
 -1      1394 2.26885E+01
 -1      1395 2.26885E+01
 -1      1396 2.26885E+01
 -1      1397 2.33131E+01
 -1      1398 2.33131E+01
 -1      1399 1.59268E+01
 -1      1400 1.39975E+01
 -1      1401 2.26885E+01
 -1      1402 2.26885E+01
 -1      1403 2.33131E+01
 -1      1404 2.33131E+01
 -1      1405 2.33131E+01
 -1      1406 1.96199E+01
 -1      1407 1.59268E+01
 -1      1408 1.49621E+01
 -1      1409 1.39975E+01
 -1      1410 1.83430E+01
 -1      1411 2.26885E+01
 -1      1412 2.26885E+01
 -1      1413 2.26885E+01
 -1      1414 1.61066E+01
 -1      1415 1.65363E+01
 -1      1416 1.39984E+01
 -1      1417 1.30337E+01
 -1      1418 1.76965E+01
 -1      1419 1.76965E+01
 -1      1420 8.90007E+00
 -1      1421 9.32978E+00
 -1      1422 9.75948E+00
 -1      1423 1.09147E+01
 -1      1424 1.20700E+01
 -1      1425 1.20700E+01
 -1      1426 1.20700E+01
 -1      1427 1.23872E+01
 -1      1428 1.27044E+01
 -1      1429 1.27044E+01
 -1      1430 1.27044E+01
 -1      1431 9.20317E+00
 -1      1432 1.11824E+01
 -1      1433 1.34508E+01
 -1      1434 1.40814E+01
 -1      1435 1.43986E+01
 -1      1436 1.28355E+01
 -1      1437 9.50627E+00
 -1      1438 1.10558E+01
 -1      1439 1.26054E+01
 -1      1440 1.37185E+01
 -1      1441 1.48315E+01
 -1      1442 1.54622E+01
 -1      1443 1.60929E+01
 -1      1444 1.60929E+01
 -1      1445 1.60929E+01
 -1      1446 1.45297E+01
 -1      1447 1.29665E+01
 -1      1448 1.65326E+01
 -1      1449 1.80822E+01
 -1      1450 1.62021E+01
 -1      1451 1.64490E+01
 -1      1452 1.92866E+01
 -1      1453 1.77235E+01
 -1      1454 2.35589E+01
 -1      1455 2.35589E+01
 -1      1456 2.35589E+01
 -1      1457 2.05658E+01
 -1      1458 1.75727E+01
 -1      1459 1.71890E+01
 -1      1460 1.68052E+01
 -1      1461 1.96428E+01
 -1      1462 2.24804E+01
 -1      1463 2.24804E+01
 -1      1464 2.24804E+01
 -1      1465 2.35589E+01
 -1      1466 2.35589E+01
 -1      1467 1.75727E+01
 -1      1468 1.68052E+01
 -1      1469 2.24804E+01
 -1      1470 2.24804E+01
 -1      1471 2.35589E+01
 -1      1472 2.35589E+01
 -1      1473 2.35589E+01
 -1      1474 2.05658E+01
 -1      1475 1.75727E+01
 -1      1476 1.71890E+01
 -1      1477 1.68052E+01
 -1      1478 1.96428E+01
 -1      1479 2.24804E+01
 -1      1480 2.24804E+01
 -1      1481 2.24804E+01
 -3
 9999
